[Molden Format]
[Title]
PNAOs

[Atoms] AU
C    1   6          0.0000830660        -0.1431428521        -0.0001417325 
C    2   6         -2.3989466649         1.3718420782        -0.0001106296 
C    3   6          2.3979069930         1.3737492192        -0.0001107573 
C    4   6          0.0010871706        -2.6509130162        -0.0002107396 
H    5   1         -2.4839726894         2.6011202583         1.6593518106 
H    6   1         -2.4840089118         2.6010999611        -1.6595880905 
H    7   1         -4.0679011755         0.1653112899        -0.0000884671 
H    8   1          2.4819977102         2.6030873664        -1.6595776413 
H    9   1          2.4819695081         2.6030781827         1.6593635190 
H   10   1          4.0678147521         0.1685385688        -0.0001045552 
H   11   1          1.7487241282        -3.7196084000        -0.0002397776 
H   12   1         -1.7456987496        -3.7209991168        -0.0002436925 
[GTO]
  1 0 
s   6 1.0  
    13575.3496820000         0.0006064549 
     2035.2333680000         0.0046979088 
      463.2256235900         0.0243324776 
      131.2001959800         0.0973999683 
       42.8530158910         0.3019558425 
       15.5841857660         0.6623360915 
s   2 1.0  
        6.2067138508         0.6559530853 
        2.5764896527         0.3758563329 
s   1 1.0  
        0.5769633942         1.0000000000 
s   1 1.0  
        0.2297283136         1.0000000000 
s   1 1.0  
        0.0951644400         1.0000000003 
p   4 1.0  
       34.6972322440         0.0113272200 
        7.9582622826         0.0761696592 
        2.3780826883         0.3019225220 
        0.8143320818         0.7278502735 
p   1 1.0  
        0.2888754725         0.9999999999 
p   1 1.0  
        0.1005682367         0.9999999995 
d   1 1.0  
        1.0970000000         1.0000000000 
d   1 1.0  
        0.3180000000         1.0000000000 
f   1 1.0  
        0.7610000000         1.0000000000 

  2 0 
s   6 1.0  
    13575.3496820000         0.0006064549 
     2035.2333680000         0.0046979088 
      463.2256235900         0.0243324776 
      131.2001959800         0.0973999683 
       42.8530158910         0.3019558425 
       15.5841857660         0.6623360915 
s   2 1.0  
        6.2067138508         0.6559530853 
        2.5764896527         0.3758563329 
s   1 1.0  
        0.5769633942         1.0000000000 
s   1 1.0  
        0.2297283136         1.0000000000 
s   1 1.0  
        0.0951644400         1.0000000003 
p   4 1.0  
       34.6972322440         0.0113272200 
        7.9582622826         0.0761696592 
        2.3780826883         0.3019225220 
        0.8143320818         0.7278502735 
p   1 1.0  
        0.2888754725         0.9999999999 
p   1 1.0  
        0.1005682367         0.9999999995 
d   1 1.0  
        1.0970000000         1.0000000000 
d   1 1.0  
        0.3180000000         1.0000000000 
f   1 1.0  
        0.7610000000         1.0000000000 

  3 0 
s   6 1.0  
    13575.3496820000         0.0006064549 
     2035.2333680000         0.0046979088 
      463.2256235900         0.0243324776 
      131.2001959800         0.0973999683 
       42.8530158910         0.3019558425 
       15.5841857660         0.6623360915 
s   2 1.0  
        6.2067138508         0.6559530853 
        2.5764896527         0.3758563329 
s   1 1.0  
        0.5769633942         1.0000000000 
s   1 1.0  
        0.2297283136         1.0000000000 
s   1 1.0  
        0.0951644400         1.0000000003 
p   4 1.0  
       34.6972322440         0.0113272200 
        7.9582622826         0.0761696592 
        2.3780826883         0.3019225220 
        0.8143320818         0.7278502735 
p   1 1.0  
        0.2888754725         0.9999999999 
p   1 1.0  
        0.1005682367         0.9999999995 
d   1 1.0  
        1.0970000000         1.0000000000 
d   1 1.0  
        0.3180000000         1.0000000000 
f   1 1.0  
        0.7610000000         1.0000000000 

  4 0 
s   6 1.0  
    13575.3496820000         0.0006064549 
     2035.2333680000         0.0046979088 
      463.2256235900         0.0243324776 
      131.2001959800         0.0973999683 
       42.8530158910         0.3019558425 
       15.5841857660         0.6623360915 
s   2 1.0  
        6.2067138508         0.6559530853 
        2.5764896527         0.3758563329 
s   1 1.0  
        0.5769633942         1.0000000000 
s   1 1.0  
        0.2297283136         1.0000000000 
s   1 1.0  
        0.0951644400         1.0000000003 
p   4 1.0  
       34.6972322440         0.0113272200 
        7.9582622826         0.0761696592 
        2.3780826883         0.3019225220 
        0.8143320818         0.7278502735 
p   1 1.0  
        0.2888754725         0.9999999999 
p   1 1.0  
        0.1005682367         0.9999999995 
d   1 1.0  
        1.0970000000         1.0000000000 
d   1 1.0  
        0.3180000000         1.0000000000 
f   1 1.0  
        0.7610000000         1.0000000000 

  5 0 
s   3 1.0  
       34.0613410000         0.0254393072 
        5.1235746000         0.1900859489 
        1.1646626000         0.8524411301 
s   1 1.0  
        0.3272304100         1.0000000002 
s   1 1.0  
        0.1030724100         1.0000000001 
p   1 1.0  
        0.8000000000         1.0000000000 

  6 0 
s   3 1.0  
       34.0613410000         0.0254393072 
        5.1235746000         0.1900859489 
        1.1646626000         0.8524411301 
s   1 1.0  
        0.3272304100         1.0000000002 
s   1 1.0  
        0.1030724100         1.0000000001 
p   1 1.0  
        0.8000000000         1.0000000000 

  7 0 
s   3 1.0  
       34.0613410000         0.0254393072 
        5.1235746000         0.1900859489 
        1.1646626000         0.8524411301 
s   1 1.0  
        0.3272304100         1.0000000002 
s   1 1.0  
        0.1030724100         1.0000000001 
p   1 1.0  
        0.8000000000         1.0000000000 

  8 0 
s   3 1.0  
       34.0613410000         0.0254393072 
        5.1235746000         0.1900859489 
        1.1646626000         0.8524411301 
s   1 1.0  
        0.3272304100         1.0000000002 
s   1 1.0  
        0.1030724100         1.0000000001 
p   1 1.0  
        0.8000000000         1.0000000000 

  9 0 
s   3 1.0  
       34.0613410000         0.0254393072 
        5.1235746000         0.1900859489 
        1.1646626000         0.8524411301 
s   1 1.0  
        0.3272304100         1.0000000002 
s   1 1.0  
        0.1030724100         1.0000000001 
p   1 1.0  
        0.8000000000         1.0000000000 

 10 0 
s   3 1.0  
       34.0613410000         0.0254393072 
        5.1235746000         0.1900859489 
        1.1646626000         0.8524411301 
s   1 1.0  
        0.3272304100         1.0000000002 
s   1 1.0  
        0.1030724100         1.0000000001 
p   1 1.0  
        0.8000000000         1.0000000000 

 11 0 
s   3 1.0  
       34.0613410000         0.0254393072 
        5.1235746000         0.1900859489 
        1.1646626000         0.8524411301 
s   1 1.0  
        0.3272304100         1.0000000002 
s   1 1.0  
        0.1030724100         1.0000000001 
p   1 1.0  
        0.8000000000         1.0000000000 

 12 0 
s   3 1.0  
       34.0613410000         0.0254393072 
        5.1235746000         0.1900859489 
        1.1646626000         0.8524411301 
s   1 1.0  
        0.3272304100         1.0000000002 
s   1 1.0  
        0.1030724100         1.0000000001 
p   1 1.0  
        0.8000000000         1.0000000000 

[5D]
[7F]
[MO]
 Sym=     1a
 Ene=  1.99904991571436E+01
Spin= Alpha
 Occup= 0.000013
  1      -1.366593820400
  2       1.487569957759
  3      -0.499976826950
  4       0.118077146760
  5       0.003748868854
  6       0.000000000000
  7       0.000000000000
  8       0.000000000000
  9       0.000000000000
 10       0.000000000000
 11       0.000000000000
 12       0.000000000000
 13       0.000000000000
 14       0.000000000000
 15       0.000000000000
 16       0.000000000000
 17       0.000000000000
 18       0.000000000000
 19       0.000000000000
 20       0.000000000000
 21       0.000000000000
 22       0.000000000000
 23       0.000000000000
 24       0.000000000000
 25       0.000000000000
 26       0.000000000000
 27       0.000000000000
 28       0.000000000000
 29       0.000000000000
 30       0.000000000000
 31       0.000000000000
 32       0.000000000000
 33       0.000000000000
 34       0.000000000000
 35       0.000000000000
 36       0.000000000000
 37       0.000000000000
 38       0.000000000000
 39       0.000000000000
 40       0.000000000000
 41       0.000000000000
 42       0.000000000000
 43       0.000000000000
 44       0.000000000000
 45       0.000000000000
 46       0.000000000000
 47       0.000000000000
 48       0.000000000000
 49       0.000000000000
 50       0.000000000000
 51       0.000000000000
 52       0.000000000000
 53       0.000000000000
 54       0.000000000000
 55       0.000000000000
 56       0.000000000000
 57       0.000000000000
 58       0.000000000000
 59       0.000000000000
 60       0.000000000000
 61       0.000000000000
 62       0.000000000000
 63       0.000000000000
 64       0.000000000000
 65       0.000000000000
 66       0.000000000000
 67       0.000000000000
 68       0.000000000000
 69       0.000000000000
 70       0.000000000000
 71       0.000000000000
 72       0.000000000000
 73       0.000000000000
 74       0.000000000000
 75       0.000000000000
 76       0.000000000000
 77       0.000000000000
 78       0.000000000000
 79       0.000000000000
 80       0.000000000000
 81       0.000000000000
 82       0.000000000000
 83       0.000000000000
 84       0.000000000000
 85       0.000000000000
 86       0.000000000000
 87       0.000000000000
 88       0.000000000000
 89       0.000000000000
 90       0.000000000000
 91       0.000000000000
 92       0.000000000000
 93       0.000000000000
 94       0.000000000000
 95       0.000000000000
 96       0.000000000000
 97       0.000000000000
 98       0.000000000000
 99       0.000000000000
100       0.000000000000
101       0.000000000000
102       0.000000000000
103       0.000000000000
104       0.000000000000
105       0.000000000000
106       0.000000000000
107       0.000000000000
108       0.000000000000
109       0.000000000000
110       0.000000000000
111       0.000000000000
112       0.000000000000
113       0.000000000000
114       0.000000000000
115       0.000000000000
116       0.000000000000
117       0.000000000000
118       0.000000000000
119       0.000000000000
120       0.000000000000
121       0.000000000000
122       0.000000000000
123       0.000000000000
124       0.000000000000
125       0.000000000000
126       0.000000000000
127       0.000000000000
128       0.000000000000
129       0.000000000000
130       0.000000000000
131       0.000000000000
132       0.000000000000
133       0.000000000000
134       0.000000000000
135       0.000000000000
136       0.000000000000
137       0.000000000000
138       0.000000000000
139       0.000000000000
140       0.000000000000
141       0.000000000000
142       0.000000000000
143       0.000000000000
144       0.000000000000
145       0.000000000000
146       0.000000000000
147       0.000000000000
148       0.000000000000
149       0.000000000000
150       0.000000000000
151       0.000000000000
152       0.000000000000
153       0.000000000000
154       0.000000000000
155       0.000000000000
156       0.000000000000
157       0.000000000000
158       0.000000000000
159       0.000000000000
160       0.000000000000
161       0.000000000000
162       0.000000000000
163       0.000000000000
164       0.000000000000
165       0.000000000000
166       0.000000000000
167       0.000000000000
168       0.000000000000
169       0.000000000000
170       0.000000000000
171       0.000000000000
172       0.000000000000
 Sym=     1a
 Ene=  2.43969199666214E+00
Spin= Alpha
 Occup= 0.021220
  1       0.211439051958
  2      -0.871385118639
  3       3.106083178991
  4      -3.666334275279
  5       1.426644916993
  6       0.000000000000
  7       0.000000000000
  8       0.000000000000
  9       0.000000000000
 10       0.000000000000
 11       0.000000000000
 12       0.000000000000
 13       0.000000000000
 14       0.000000000000
 15       0.000000000000
 16       0.000000000000
 17       0.000000000000
 18       0.000000000000
 19       0.000000000000
 20       0.000000000000
 21       0.000000000000
 22       0.000000000000
 23       0.000000000000
 24       0.000000000000
 25       0.000000000000
 26       0.000000000000
 27       0.000000000000
 28       0.000000000000
 29       0.000000000000
 30       0.000000000000
 31       0.000000000000
 32       0.000000000000
 33       0.000000000000
 34       0.000000000000
 35       0.000000000000
 36       0.000000000000
 37       0.000000000000
 38       0.000000000000
 39       0.000000000000
 40       0.000000000000
 41       0.000000000000
 42       0.000000000000
 43       0.000000000000
 44       0.000000000000
 45       0.000000000000
 46       0.000000000000
 47       0.000000000000
 48       0.000000000000
 49       0.000000000000
 50       0.000000000000
 51       0.000000000000
 52       0.000000000000
 53       0.000000000000
 54       0.000000000000
 55       0.000000000000
 56       0.000000000000
 57       0.000000000000
 58       0.000000000000
 59       0.000000000000
 60       0.000000000000
 61       0.000000000000
 62       0.000000000000
 63       0.000000000000
 64       0.000000000000
 65       0.000000000000
 66       0.000000000000
 67       0.000000000000
 68       0.000000000000
 69       0.000000000000
 70       0.000000000000
 71       0.000000000000
 72       0.000000000000
 73       0.000000000000
 74       0.000000000000
 75       0.000000000000
 76       0.000000000000
 77       0.000000000000
 78       0.000000000000
 79       0.000000000000
 80       0.000000000000
 81       0.000000000000
 82       0.000000000000
 83       0.000000000000
 84       0.000000000000
 85       0.000000000000
 86       0.000000000000
 87       0.000000000000
 88       0.000000000000
 89       0.000000000000
 90       0.000000000000
 91       0.000000000000
 92       0.000000000000
 93       0.000000000000
 94       0.000000000000
 95       0.000000000000
 96       0.000000000000
 97       0.000000000000
 98       0.000000000000
 99       0.000000000000
100       0.000000000000
101       0.000000000000
102       0.000000000000
103       0.000000000000
104       0.000000000000
105       0.000000000000
106       0.000000000000
107       0.000000000000
108       0.000000000000
109       0.000000000000
110       0.000000000000
111       0.000000000000
112       0.000000000000
113       0.000000000000
114       0.000000000000
115       0.000000000000
116       0.000000000000
117       0.000000000000
118       0.000000000000
119       0.000000000000
120       0.000000000000
121       0.000000000000
122       0.000000000000
123       0.000000000000
124       0.000000000000
125       0.000000000000
126       0.000000000000
127       0.000000000000
128       0.000000000000
129       0.000000000000
130       0.000000000000
131       0.000000000000
132       0.000000000000
133       0.000000000000
134       0.000000000000
135       0.000000000000
136       0.000000000000
137       0.000000000000
138       0.000000000000
139       0.000000000000
140       0.000000000000
141       0.000000000000
142       0.000000000000
143       0.000000000000
144       0.000000000000
145       0.000000000000
146       0.000000000000
147       0.000000000000
148       0.000000000000
149       0.000000000000
150       0.000000000000
151       0.000000000000
152       0.000000000000
153       0.000000000000
154       0.000000000000
155       0.000000000000
156       0.000000000000
157       0.000000000000
158       0.000000000000
159       0.000000000000
160       0.000000000000
161       0.000000000000
162       0.000000000000
163       0.000000000000
164       0.000000000000
165       0.000000000000
166       0.000000000000
167       0.000000000000
168       0.000000000000
169       0.000000000000
170       0.000000000000
171       0.000000000000
172       0.000000000000
 Sym=     1a
 Ene= -1.84308126779987E-01
Spin= Alpha
 Occup= 0.933429
  1       0.063199351176
  2       0.017317558431
  3       0.475172650191
  4      -2.389096342448
  5       2.294698720015
  6       0.000000000000
  7       0.000000000000
  8       0.000000000000
  9       0.000000000000
 10       0.000000000000
 11       0.000000000000
 12       0.000000000000
 13       0.000000000000
 14       0.000000000000
 15       0.000000000000
 16       0.000000000000
 17       0.000000000000
 18       0.000000000000
 19       0.000000000000
 20       0.000000000000
 21       0.000000000000
 22       0.000000000000
 23       0.000000000000
 24       0.000000000000
 25       0.000000000000
 26       0.000000000000
 27       0.000000000000
 28       0.000000000000
 29       0.000000000000
 30       0.000000000000
 31       0.000000000000
 32       0.000000000000
 33       0.000000000000
 34       0.000000000000
 35       0.000000000000
 36       0.000000000000
 37       0.000000000000
 38       0.000000000000
 39       0.000000000000
 40       0.000000000000
 41       0.000000000000
 42       0.000000000000
 43       0.000000000000
 44       0.000000000000
 45       0.000000000000
 46       0.000000000000
 47       0.000000000000
 48       0.000000000000
 49       0.000000000000
 50       0.000000000000
 51       0.000000000000
 52       0.000000000000
 53       0.000000000000
 54       0.000000000000
 55       0.000000000000
 56       0.000000000000
 57       0.000000000000
 58       0.000000000000
 59       0.000000000000
 60       0.000000000000
 61       0.000000000000
 62       0.000000000000
 63       0.000000000000
 64       0.000000000000
 65       0.000000000000
 66       0.000000000000
 67       0.000000000000
 68       0.000000000000
 69       0.000000000000
 70       0.000000000000
 71       0.000000000000
 72       0.000000000000
 73       0.000000000000
 74       0.000000000000
 75       0.000000000000
 76       0.000000000000
 77       0.000000000000
 78       0.000000000000
 79       0.000000000000
 80       0.000000000000
 81       0.000000000000
 82       0.000000000000
 83       0.000000000000
 84       0.000000000000
 85       0.000000000000
 86       0.000000000000
 87       0.000000000000
 88       0.000000000000
 89       0.000000000000
 90       0.000000000000
 91       0.000000000000
 92       0.000000000000
 93       0.000000000000
 94       0.000000000000
 95       0.000000000000
 96       0.000000000000
 97       0.000000000000
 98       0.000000000000
 99       0.000000000000
100       0.000000000000
101       0.000000000000
102       0.000000000000
103       0.000000000000
104       0.000000000000
105       0.000000000000
106       0.000000000000
107       0.000000000000
108       0.000000000000
109       0.000000000000
110       0.000000000000
111       0.000000000000
112       0.000000000000
113       0.000000000000
114       0.000000000000
115       0.000000000000
116       0.000000000000
117       0.000000000000
118       0.000000000000
119       0.000000000000
120       0.000000000000
121       0.000000000000
122       0.000000000000
123       0.000000000000
124       0.000000000000
125       0.000000000000
126       0.000000000000
127       0.000000000000
128       0.000000000000
129       0.000000000000
130       0.000000000000
131       0.000000000000
132       0.000000000000
133       0.000000000000
134       0.000000000000
135       0.000000000000
136       0.000000000000
137       0.000000000000
138       0.000000000000
139       0.000000000000
140       0.000000000000
141       0.000000000000
142       0.000000000000
143       0.000000000000
144       0.000000000000
145       0.000000000000
146       0.000000000000
147       0.000000000000
148       0.000000000000
149       0.000000000000
150       0.000000000000
151       0.000000000000
152       0.000000000000
153       0.000000000000
154       0.000000000000
155       0.000000000000
156       0.000000000000
157       0.000000000000
158       0.000000000000
159       0.000000000000
160       0.000000000000
161       0.000000000000
162       0.000000000000
163       0.000000000000
164       0.000000000000
165       0.000000000000
166       0.000000000000
167       0.000000000000
168       0.000000000000
169       0.000000000000
170       0.000000000000
171       0.000000000000
172       0.000000000000
 Sym=     1a
 Ene= -8.41976121862301E-01
Spin= Alpha
 Occup= 1.871921
  1       0.105606872248
  2       0.168839343064
  3      -0.003153768305
  4      -1.068643638583
  5       0.046222259841
  6       0.000000000000
  7       0.000000000000
  8       0.000000000000
  9       0.000000000000
 10       0.000000000000
 11       0.000000000000
 12       0.000000000000
 13       0.000000000000
 14       0.000000000000
 15       0.000000000000
 16       0.000000000000
 17       0.000000000000
 18       0.000000000000
 19       0.000000000000
 20       0.000000000000
 21       0.000000000000
 22       0.000000000000
 23       0.000000000000
 24       0.000000000000
 25       0.000000000000
 26       0.000000000000
 27       0.000000000000
 28       0.000000000000
 29       0.000000000000
 30       0.000000000000
 31       0.000000000000
 32       0.000000000000
 33       0.000000000000
 34       0.000000000000
 35       0.000000000000
 36       0.000000000000
 37       0.000000000000
 38       0.000000000000
 39       0.000000000000
 40       0.000000000000
 41       0.000000000000
 42       0.000000000000
 43       0.000000000000
 44       0.000000000000
 45       0.000000000000
 46       0.000000000000
 47       0.000000000000
 48       0.000000000000
 49       0.000000000000
 50       0.000000000000
 51       0.000000000000
 52       0.000000000000
 53       0.000000000000
 54       0.000000000000
 55       0.000000000000
 56       0.000000000000
 57       0.000000000000
 58       0.000000000000
 59       0.000000000000
 60       0.000000000000
 61       0.000000000000
 62       0.000000000000
 63       0.000000000000
 64       0.000000000000
 65       0.000000000000
 66       0.000000000000
 67       0.000000000000
 68       0.000000000000
 69       0.000000000000
 70       0.000000000000
 71       0.000000000000
 72       0.000000000000
 73       0.000000000000
 74       0.000000000000
 75       0.000000000000
 76       0.000000000000
 77       0.000000000000
 78       0.000000000000
 79       0.000000000000
 80       0.000000000000
 81       0.000000000000
 82       0.000000000000
 83       0.000000000000
 84       0.000000000000
 85       0.000000000000
 86       0.000000000000
 87       0.000000000000
 88       0.000000000000
 89       0.000000000000
 90       0.000000000000
 91       0.000000000000
 92       0.000000000000
 93       0.000000000000
 94       0.000000000000
 95       0.000000000000
 96       0.000000000000
 97       0.000000000000
 98       0.000000000000
 99       0.000000000000
100       0.000000000000
101       0.000000000000
102       0.000000000000
103       0.000000000000
104       0.000000000000
105       0.000000000000
106       0.000000000000
107       0.000000000000
108       0.000000000000
109       0.000000000000
110       0.000000000000
111       0.000000000000
112       0.000000000000
113       0.000000000000
114       0.000000000000
115       0.000000000000
116       0.000000000000
117       0.000000000000
118       0.000000000000
119       0.000000000000
120       0.000000000000
121       0.000000000000
122       0.000000000000
123       0.000000000000
124       0.000000000000
125       0.000000000000
126       0.000000000000
127       0.000000000000
128       0.000000000000
129       0.000000000000
130       0.000000000000
131       0.000000000000
132       0.000000000000
133       0.000000000000
134       0.000000000000
135       0.000000000000
136       0.000000000000
137       0.000000000000
138       0.000000000000
139       0.000000000000
140       0.000000000000
141       0.000000000000
142       0.000000000000
143       0.000000000000
144       0.000000000000
145       0.000000000000
146       0.000000000000
147       0.000000000000
148       0.000000000000
149       0.000000000000
150       0.000000000000
151       0.000000000000
152       0.000000000000
153       0.000000000000
154       0.000000000000
155       0.000000000000
156       0.000000000000
157       0.000000000000
158       0.000000000000
159       0.000000000000
160       0.000000000000
161       0.000000000000
162       0.000000000000
163       0.000000000000
164       0.000000000000
165       0.000000000000
166       0.000000000000
167       0.000000000000
168       0.000000000000
169       0.000000000000
170       0.000000000000
171       0.000000000000
172       0.000000000000
 Sym=     1a
 Ene= -1.02850687649390E+01
Spin= Alpha
 Occup= 1.999989
  1      -0.467407426145
  2      -0.610097624041
  3      -0.030819502624
  4       0.019342120496
  5      -0.006025631135
  6       0.000000000000
  7       0.000000000000
  8       0.000000000000
  9       0.000000000000
 10       0.000000000000
 11       0.000000000000
 12       0.000000000000
 13       0.000000000000
 14       0.000000000000
 15       0.000000000000
 16       0.000000000000
 17       0.000000000000
 18       0.000000000000
 19       0.000000000000
 20       0.000000000000
 21       0.000000000000
 22       0.000000000000
 23       0.000000000000
 24       0.000000000000
 25       0.000000000000
 26       0.000000000000
 27       0.000000000000
 28       0.000000000000
 29       0.000000000000
 30       0.000000000000
 31       0.000000000000
 32       0.000000000000
 33       0.000000000000
 34       0.000000000000
 35       0.000000000000
 36       0.000000000000
 37       0.000000000000
 38       0.000000000000
 39       0.000000000000
 40       0.000000000000
 41       0.000000000000
 42       0.000000000000
 43       0.000000000000
 44       0.000000000000
 45       0.000000000000
 46       0.000000000000
 47       0.000000000000
 48       0.000000000000
 49       0.000000000000
 50       0.000000000000
 51       0.000000000000
 52       0.000000000000
 53       0.000000000000
 54       0.000000000000
 55       0.000000000000
 56       0.000000000000
 57       0.000000000000
 58       0.000000000000
 59       0.000000000000
 60       0.000000000000
 61       0.000000000000
 62       0.000000000000
 63       0.000000000000
 64       0.000000000000
 65       0.000000000000
 66       0.000000000000
 67       0.000000000000
 68       0.000000000000
 69       0.000000000000
 70       0.000000000000
 71       0.000000000000
 72       0.000000000000
 73       0.000000000000
 74       0.000000000000
 75       0.000000000000
 76       0.000000000000
 77       0.000000000000
 78       0.000000000000
 79       0.000000000000
 80       0.000000000000
 81       0.000000000000
 82       0.000000000000
 83       0.000000000000
 84       0.000000000000
 85       0.000000000000
 86       0.000000000000
 87       0.000000000000
 88       0.000000000000
 89       0.000000000000
 90       0.000000000000
 91       0.000000000000
 92       0.000000000000
 93       0.000000000000
 94       0.000000000000
 95       0.000000000000
 96       0.000000000000
 97       0.000000000000
 98       0.000000000000
 99       0.000000000000
100       0.000000000000
101       0.000000000000
102       0.000000000000
103       0.000000000000
104       0.000000000000
105       0.000000000000
106       0.000000000000
107       0.000000000000
108       0.000000000000
109       0.000000000000
110       0.000000000000
111       0.000000000000
112       0.000000000000
113       0.000000000000
114       0.000000000000
115       0.000000000000
116       0.000000000000
117       0.000000000000
118       0.000000000000
119       0.000000000000
120       0.000000000000
121       0.000000000000
122       0.000000000000
123       0.000000000000
124       0.000000000000
125       0.000000000000
126       0.000000000000
127       0.000000000000
128       0.000000000000
129       0.000000000000
130       0.000000000000
131       0.000000000000
132       0.000000000000
133       0.000000000000
134       0.000000000000
135       0.000000000000
136       0.000000000000
137       0.000000000000
138       0.000000000000
139       0.000000000000
140       0.000000000000
141       0.000000000000
142       0.000000000000
143       0.000000000000
144       0.000000000000
145       0.000000000000
146       0.000000000000
147       0.000000000000
148       0.000000000000
149       0.000000000000
150       0.000000000000
151       0.000000000000
152       0.000000000000
153       0.000000000000
154       0.000000000000
155       0.000000000000
156       0.000000000000
157       0.000000000000
158       0.000000000000
159       0.000000000000
160       0.000000000000
161       0.000000000000
162       0.000000000000
163       0.000000000000
164       0.000000000000
165       0.000000000000
166       0.000000000000
167       0.000000000000
168       0.000000000000
169       0.000000000000
170       0.000000000000
171       0.000000000000
172       0.000000000000
 Sym=     1a
 Ene=  1.27954532325436E+00
Spin= Alpha
 Occup= 0.013522
  1       0.000000000000
  2       0.000000000000
  3       0.000000000000
  4       0.000000000000
  5       0.000000000000
  6      -1.351997937608
  7       0.000000000000
  8       0.000000000000
  9       1.418037623063
 10       0.000000000000
 11       0.000000000000
 12      -0.569532764854
 13       0.000000000000
 14       0.000000000000
 15       0.000000000000
 16       0.000000000000
 17       0.000000000000
 18       0.000000000000
 19       0.000000000000
 20       0.000000000000
 21       0.000000000000
 22       0.000000000000
 23       0.000000000000
 24       0.000000000000
 25       0.000000000000
 26       0.000000000000
 27       0.000000000000
 28       0.000000000000
 29       0.000000000000
 30       0.000000000000
 31       0.000000000000
 32       0.000000000000
 33       0.000000000000
 34       0.000000000000
 35       0.000000000000
 36       0.000000000000
 37       0.000000000000
 38       0.000000000000
 39       0.000000000000
 40       0.000000000000
 41       0.000000000000
 42       0.000000000000
 43       0.000000000000
 44       0.000000000000
 45       0.000000000000
 46       0.000000000000
 47       0.000000000000
 48       0.000000000000
 49       0.000000000000
 50       0.000000000000
 51       0.000000000000
 52       0.000000000000
 53       0.000000000000
 54       0.000000000000
 55       0.000000000000
 56       0.000000000000
 57       0.000000000000
 58       0.000000000000
 59       0.000000000000
 60       0.000000000000
 61       0.000000000000
 62       0.000000000000
 63       0.000000000000
 64       0.000000000000
 65       0.000000000000
 66       0.000000000000
 67       0.000000000000
 68       0.000000000000
 69       0.000000000000
 70       0.000000000000
 71       0.000000000000
 72       0.000000000000
 73       0.000000000000
 74       0.000000000000
 75       0.000000000000
 76       0.000000000000
 77       0.000000000000
 78       0.000000000000
 79       0.000000000000
 80       0.000000000000
 81       0.000000000000
 82       0.000000000000
 83       0.000000000000
 84       0.000000000000
 85       0.000000000000
 86       0.000000000000
 87       0.000000000000
 88       0.000000000000
 89       0.000000000000
 90       0.000000000000
 91       0.000000000000
 92       0.000000000000
 93       0.000000000000
 94       0.000000000000
 95       0.000000000000
 96       0.000000000000
 97       0.000000000000
 98       0.000000000000
 99       0.000000000000
100       0.000000000000
101       0.000000000000
102       0.000000000000
103       0.000000000000
104       0.000000000000
105       0.000000000000
106       0.000000000000
107       0.000000000000
108       0.000000000000
109       0.000000000000
110       0.000000000000
111       0.000000000000
112       0.000000000000
113       0.000000000000
114       0.000000000000
115       0.000000000000
116       0.000000000000
117       0.000000000000
118       0.000000000000
119       0.000000000000
120       0.000000000000
121       0.000000000000
122       0.000000000000
123       0.000000000000
124       0.000000000000
125       0.000000000000
126       0.000000000000
127       0.000000000000
128       0.000000000000
129       0.000000000000
130       0.000000000000
131       0.000000000000
132       0.000000000000
133       0.000000000000
134       0.000000000000
135       0.000000000000
136       0.000000000000
137       0.000000000000
138       0.000000000000
139       0.000000000000
140       0.000000000000
141       0.000000000000
142       0.000000000000
143       0.000000000000
144       0.000000000000
145       0.000000000000
146       0.000000000000
147       0.000000000000
148       0.000000000000
149       0.000000000000
150       0.000000000000
151       0.000000000000
152       0.000000000000
153       0.000000000000
154       0.000000000000
155       0.000000000000
156       0.000000000000
157       0.000000000000
158       0.000000000000
159       0.000000000000
160       0.000000000000
161       0.000000000000
162       0.000000000000
163       0.000000000000
164       0.000000000000
165       0.000000000000
166       0.000000000000
167       0.000000000000
168       0.000000000000
169       0.000000000000
170       0.000000000000
171       0.000000000000
172       0.000000000000
 Sym=     1a
 Ene=  1.20521365880851E+00
Spin= Alpha
 Occup= 0.013522
  1       0.000000000000
  2       0.000000000000
  3       0.000000000000
  4       0.000000000000
  5       0.000000000000
  6       0.000000000000
  7      -1.351997937608
  8       0.000000000000
  9       0.000000000000
 10       1.418037623063
 11       0.000000000000
 12       0.000000000000
 13      -0.569532764854
 14       0.000000000000
 15       0.000000000000
 16       0.000000000000
 17       0.000000000000
 18       0.000000000000
 19       0.000000000000
 20       0.000000000000
 21       0.000000000000
 22       0.000000000000
 23       0.000000000000
 24       0.000000000000
 25       0.000000000000
 26       0.000000000000
 27       0.000000000000
 28       0.000000000000
 29       0.000000000000
 30       0.000000000000
 31       0.000000000000
 32       0.000000000000
 33       0.000000000000
 34       0.000000000000
 35       0.000000000000
 36       0.000000000000
 37       0.000000000000
 38       0.000000000000
 39       0.000000000000
 40       0.000000000000
 41       0.000000000000
 42       0.000000000000
 43       0.000000000000
 44       0.000000000000
 45       0.000000000000
 46       0.000000000000
 47       0.000000000000
 48       0.000000000000
 49       0.000000000000
 50       0.000000000000
 51       0.000000000000
 52       0.000000000000
 53       0.000000000000
 54       0.000000000000
 55       0.000000000000
 56       0.000000000000
 57       0.000000000000
 58       0.000000000000
 59       0.000000000000
 60       0.000000000000
 61       0.000000000000
 62       0.000000000000
 63       0.000000000000
 64       0.000000000000
 65       0.000000000000
 66       0.000000000000
 67       0.000000000000
 68       0.000000000000
 69       0.000000000000
 70       0.000000000000
 71       0.000000000000
 72       0.000000000000
 73       0.000000000000
 74       0.000000000000
 75       0.000000000000
 76       0.000000000000
 77       0.000000000000
 78       0.000000000000
 79       0.000000000000
 80       0.000000000000
 81       0.000000000000
 82       0.000000000000
 83       0.000000000000
 84       0.000000000000
 85       0.000000000000
 86       0.000000000000
 87       0.000000000000
 88       0.000000000000
 89       0.000000000000
 90       0.000000000000
 91       0.000000000000
 92       0.000000000000
 93       0.000000000000
 94       0.000000000000
 95       0.000000000000
 96       0.000000000000
 97       0.000000000000
 98       0.000000000000
 99       0.000000000000
100       0.000000000000
101       0.000000000000
102       0.000000000000
103       0.000000000000
104       0.000000000000
105       0.000000000000
106       0.000000000000
107       0.000000000000
108       0.000000000000
109       0.000000000000
110       0.000000000000
111       0.000000000000
112       0.000000000000
113       0.000000000000
114       0.000000000000
115       0.000000000000
116       0.000000000000
117       0.000000000000
118       0.000000000000
119       0.000000000000
120       0.000000000000
121       0.000000000000
122       0.000000000000
123       0.000000000000
124       0.000000000000
125       0.000000000000
126       0.000000000000
127       0.000000000000
128       0.000000000000
129       0.000000000000
130       0.000000000000
131       0.000000000000
132       0.000000000000
133       0.000000000000
134       0.000000000000
135       0.000000000000
136       0.000000000000
137       0.000000000000
138       0.000000000000
139       0.000000000000
140       0.000000000000
141       0.000000000000
142       0.000000000000
143       0.000000000000
144       0.000000000000
145       0.000000000000
146       0.000000000000
147       0.000000000000
148       0.000000000000
149       0.000000000000
150       0.000000000000
151       0.000000000000
152       0.000000000000
153       0.000000000000
154       0.000000000000
155       0.000000000000
156       0.000000000000
157       0.000000000000
158       0.000000000000
159       0.000000000000
160       0.000000000000
161       0.000000000000
162       0.000000000000
163       0.000000000000
164       0.000000000000
165       0.000000000000
166       0.000000000000
167       0.000000000000
168       0.000000000000
169       0.000000000000
170       0.000000000000
171       0.000000000000
172       0.000000000000
 Sym=     1a
 Ene=  1.44096527405986E+00
Spin= Alpha
 Occup= 0.013522
  1       0.000000000000
  2       0.000000000000
  3       0.000000000000
  4       0.000000000000
  5       0.000000000000
  6       0.000000000000
  7       0.000000000000
  8      -1.351997937608
  9       0.000000000000
 10       0.000000000000
 11       1.418037623063
 12       0.000000000000
 13       0.000000000000
 14      -0.569532764854
 15       0.000000000000
 16       0.000000000000
 17       0.000000000000
 18       0.000000000000
 19       0.000000000000
 20       0.000000000000
 21       0.000000000000
 22       0.000000000000
 23       0.000000000000
 24       0.000000000000
 25       0.000000000000
 26       0.000000000000
 27       0.000000000000
 28       0.000000000000
 29       0.000000000000
 30       0.000000000000
 31       0.000000000000
 32       0.000000000000
 33       0.000000000000
 34       0.000000000000
 35       0.000000000000
 36       0.000000000000
 37       0.000000000000
 38       0.000000000000
 39       0.000000000000
 40       0.000000000000
 41       0.000000000000
 42       0.000000000000
 43       0.000000000000
 44       0.000000000000
 45       0.000000000000
 46       0.000000000000
 47       0.000000000000
 48       0.000000000000
 49       0.000000000000
 50       0.000000000000
 51       0.000000000000
 52       0.000000000000
 53       0.000000000000
 54       0.000000000000
 55       0.000000000000
 56       0.000000000000
 57       0.000000000000
 58       0.000000000000
 59       0.000000000000
 60       0.000000000000
 61       0.000000000000
 62       0.000000000000
 63       0.000000000000
 64       0.000000000000
 65       0.000000000000
 66       0.000000000000
 67       0.000000000000
 68       0.000000000000
 69       0.000000000000
 70       0.000000000000
 71       0.000000000000
 72       0.000000000000
 73       0.000000000000
 74       0.000000000000
 75       0.000000000000
 76       0.000000000000
 77       0.000000000000
 78       0.000000000000
 79       0.000000000000
 80       0.000000000000
 81       0.000000000000
 82       0.000000000000
 83       0.000000000000
 84       0.000000000000
 85       0.000000000000
 86       0.000000000000
 87       0.000000000000
 88       0.000000000000
 89       0.000000000000
 90       0.000000000000
 91       0.000000000000
 92       0.000000000000
 93       0.000000000000
 94       0.000000000000
 95       0.000000000000
 96       0.000000000000
 97       0.000000000000
 98       0.000000000000
 99       0.000000000000
100       0.000000000000
101       0.000000000000
102       0.000000000000
103       0.000000000000
104       0.000000000000
105       0.000000000000
106       0.000000000000
107       0.000000000000
108       0.000000000000
109       0.000000000000
110       0.000000000000
111       0.000000000000
112       0.000000000000
113       0.000000000000
114       0.000000000000
115       0.000000000000
116       0.000000000000
117       0.000000000000
118       0.000000000000
119       0.000000000000
120       0.000000000000
121       0.000000000000
122       0.000000000000
123       0.000000000000
124       0.000000000000
125       0.000000000000
126       0.000000000000
127       0.000000000000
128       0.000000000000
129       0.000000000000
130       0.000000000000
131       0.000000000000
132       0.000000000000
133       0.000000000000
134       0.000000000000
135       0.000000000000
136       0.000000000000
137       0.000000000000
138       0.000000000000
139       0.000000000000
140       0.000000000000
141       0.000000000000
142       0.000000000000
143       0.000000000000
144       0.000000000000
145       0.000000000000
146       0.000000000000
147       0.000000000000
148       0.000000000000
149       0.000000000000
150       0.000000000000
151       0.000000000000
152       0.000000000000
153       0.000000000000
154       0.000000000000
155       0.000000000000
156       0.000000000000
157       0.000000000000
158       0.000000000000
159       0.000000000000
160       0.000000000000
161       0.000000000000
162       0.000000000000
163       0.000000000000
164       0.000000000000
165       0.000000000000
166       0.000000000000
167       0.000000000000
168       0.000000000000
169       0.000000000000
170       0.000000000000
171       0.000000000000
172       0.000000000000
 Sym=     1a
 Ene= -1.17804273434724E-01
Spin= Alpha
 Occup= 0.847363
  1       0.000000000000
  2       0.000000000000
  3       0.000000000000
  4       0.000000000000
  5       0.000000000000
  6      -0.074168355383
  7       0.000000000000
  8       0.000000000000
  9      -1.121633806686
 10       0.000000000000
 11       0.000000000000
 12       1.379613136954
 13       0.000000000000
 14       0.000000000000
 15       0.000000000000
 16       0.000000000000
 17       0.000000000000
 18       0.000000000000
 19       0.000000000000
 20       0.000000000000
 21       0.000000000000
 22       0.000000000000
 23       0.000000000000
 24       0.000000000000
 25       0.000000000000
 26       0.000000000000
 27       0.000000000000
 28       0.000000000000
 29       0.000000000000
 30       0.000000000000
 31       0.000000000000
 32       0.000000000000
 33       0.000000000000
 34       0.000000000000
 35       0.000000000000
 36       0.000000000000
 37       0.000000000000
 38       0.000000000000
 39       0.000000000000
 40       0.000000000000
 41       0.000000000000
 42       0.000000000000
 43       0.000000000000
 44       0.000000000000
 45       0.000000000000
 46       0.000000000000
 47       0.000000000000
 48       0.000000000000
 49       0.000000000000
 50       0.000000000000
 51       0.000000000000
 52       0.000000000000
 53       0.000000000000
 54       0.000000000000
 55       0.000000000000
 56       0.000000000000
 57       0.000000000000
 58       0.000000000000
 59       0.000000000000
 60       0.000000000000
 61       0.000000000000
 62       0.000000000000
 63       0.000000000000
 64       0.000000000000
 65       0.000000000000
 66       0.000000000000
 67       0.000000000000
 68       0.000000000000
 69       0.000000000000
 70       0.000000000000
 71       0.000000000000
 72       0.000000000000
 73       0.000000000000
 74       0.000000000000
 75       0.000000000000
 76       0.000000000000
 77       0.000000000000
 78       0.000000000000
 79       0.000000000000
 80       0.000000000000
 81       0.000000000000
 82       0.000000000000
 83       0.000000000000
 84       0.000000000000
 85       0.000000000000
 86       0.000000000000
 87       0.000000000000
 88       0.000000000000
 89       0.000000000000
 90       0.000000000000
 91       0.000000000000
 92       0.000000000000
 93       0.000000000000
 94       0.000000000000
 95       0.000000000000
 96       0.000000000000
 97       0.000000000000
 98       0.000000000000
 99       0.000000000000
100       0.000000000000
101       0.000000000000
102       0.000000000000
103       0.000000000000
104       0.000000000000
105       0.000000000000
106       0.000000000000
107       0.000000000000
108       0.000000000000
109       0.000000000000
110       0.000000000000
111       0.000000000000
112       0.000000000000
113       0.000000000000
114       0.000000000000
115       0.000000000000
116       0.000000000000
117       0.000000000000
118       0.000000000000
119       0.000000000000
120       0.000000000000
121       0.000000000000
122       0.000000000000
123       0.000000000000
124       0.000000000000
125       0.000000000000
126       0.000000000000
127       0.000000000000
128       0.000000000000
129       0.000000000000
130       0.000000000000
131       0.000000000000
132       0.000000000000
133       0.000000000000
134       0.000000000000
135       0.000000000000
136       0.000000000000
137       0.000000000000
138       0.000000000000
139       0.000000000000
140       0.000000000000
141       0.000000000000
142       0.000000000000
143       0.000000000000
144       0.000000000000
145       0.000000000000
146       0.000000000000
147       0.000000000000
148       0.000000000000
149       0.000000000000
150       0.000000000000
151       0.000000000000
152       0.000000000000
153       0.000000000000
154       0.000000000000
155       0.000000000000
156       0.000000000000
157       0.000000000000
158       0.000000000000
159       0.000000000000
160       0.000000000000
161       0.000000000000
162       0.000000000000
163       0.000000000000
164       0.000000000000
165       0.000000000000
166       0.000000000000
167       0.000000000000
168       0.000000000000
169       0.000000000000
170       0.000000000000
171       0.000000000000
172       0.000000000000
 Sym=     1a
 Ene= -1.21494152917064E-01
Spin= Alpha
 Occup= 0.847363
  1       0.000000000000
  2       0.000000000000
  3       0.000000000000
  4       0.000000000000
  5       0.000000000000
  6       0.000000000000
  7      -0.074168355383
  8       0.000000000000
  9       0.000000000000
 10      -1.121633806686
 11       0.000000000000
 12       0.000000000000
 13       1.379613136954
 14       0.000000000000
 15       0.000000000000
 16       0.000000000000
 17       0.000000000000
 18       0.000000000000
 19       0.000000000000
 20       0.000000000000
 21       0.000000000000
 22       0.000000000000
 23       0.000000000000
 24       0.000000000000
 25       0.000000000000
 26       0.000000000000
 27       0.000000000000
 28       0.000000000000
 29       0.000000000000
 30       0.000000000000
 31       0.000000000000
 32       0.000000000000
 33       0.000000000000
 34       0.000000000000
 35       0.000000000000
 36       0.000000000000
 37       0.000000000000
 38       0.000000000000
 39       0.000000000000
 40       0.000000000000
 41       0.000000000000
 42       0.000000000000
 43       0.000000000000
 44       0.000000000000
 45       0.000000000000
 46       0.000000000000
 47       0.000000000000
 48       0.000000000000
 49       0.000000000000
 50       0.000000000000
 51       0.000000000000
 52       0.000000000000
 53       0.000000000000
 54       0.000000000000
 55       0.000000000000
 56       0.000000000000
 57       0.000000000000
 58       0.000000000000
 59       0.000000000000
 60       0.000000000000
 61       0.000000000000
 62       0.000000000000
 63       0.000000000000
 64       0.000000000000
 65       0.000000000000
 66       0.000000000000
 67       0.000000000000
 68       0.000000000000
 69       0.000000000000
 70       0.000000000000
 71       0.000000000000
 72       0.000000000000
 73       0.000000000000
 74       0.000000000000
 75       0.000000000000
 76       0.000000000000
 77       0.000000000000
 78       0.000000000000
 79       0.000000000000
 80       0.000000000000
 81       0.000000000000
 82       0.000000000000
 83       0.000000000000
 84       0.000000000000
 85       0.000000000000
 86       0.000000000000
 87       0.000000000000
 88       0.000000000000
 89       0.000000000000
 90       0.000000000000
 91       0.000000000000
 92       0.000000000000
 93       0.000000000000
 94       0.000000000000
 95       0.000000000000
 96       0.000000000000
 97       0.000000000000
 98       0.000000000000
 99       0.000000000000
100       0.000000000000
101       0.000000000000
102       0.000000000000
103       0.000000000000
104       0.000000000000
105       0.000000000000
106       0.000000000000
107       0.000000000000
108       0.000000000000
109       0.000000000000
110       0.000000000000
111       0.000000000000
112       0.000000000000
113       0.000000000000
114       0.000000000000
115       0.000000000000
116       0.000000000000
117       0.000000000000
118       0.000000000000
119       0.000000000000
120       0.000000000000
121       0.000000000000
122       0.000000000000
123       0.000000000000
124       0.000000000000
125       0.000000000000
126       0.000000000000
127       0.000000000000
128       0.000000000000
129       0.000000000000
130       0.000000000000
131       0.000000000000
132       0.000000000000
133       0.000000000000
134       0.000000000000
135       0.000000000000
136       0.000000000000
137       0.000000000000
138       0.000000000000
139       0.000000000000
140       0.000000000000
141       0.000000000000
142       0.000000000000
143       0.000000000000
144       0.000000000000
145       0.000000000000
146       0.000000000000
147       0.000000000000
148       0.000000000000
149       0.000000000000
150       0.000000000000
151       0.000000000000
152       0.000000000000
153       0.000000000000
154       0.000000000000
155       0.000000000000
156       0.000000000000
157       0.000000000000
158       0.000000000000
159       0.000000000000
160       0.000000000000
161       0.000000000000
162       0.000000000000
163       0.000000000000
164       0.000000000000
165       0.000000000000
166       0.000000000000
167       0.000000000000
168       0.000000000000
169       0.000000000000
170       0.000000000000
171       0.000000000000
172       0.000000000000
 Sym=     1a
 Ene=  2.81575397579908E-01
Spin= Alpha
 Occup= 0.847363
  1       0.000000000000
  2       0.000000000000
  3       0.000000000000
  4       0.000000000000
  5       0.000000000000
  6       0.000000000000
  7       0.000000000000
  8      -0.074168355383
  9       0.000000000000
 10       0.000000000000
 11      -1.121633806686
 12       0.000000000000
 13       0.000000000000
 14       1.379613136954
 15       0.000000000000
 16       0.000000000000
 17       0.000000000000
 18       0.000000000000
 19       0.000000000000
 20       0.000000000000
 21       0.000000000000
 22       0.000000000000
 23       0.000000000000
 24       0.000000000000
 25       0.000000000000
 26       0.000000000000
 27       0.000000000000
 28       0.000000000000
 29       0.000000000000
 30       0.000000000000
 31       0.000000000000
 32       0.000000000000
 33       0.000000000000
 34       0.000000000000
 35       0.000000000000
 36       0.000000000000
 37       0.000000000000
 38       0.000000000000
 39       0.000000000000
 40       0.000000000000
 41       0.000000000000
 42       0.000000000000
 43       0.000000000000
 44       0.000000000000
 45       0.000000000000
 46       0.000000000000
 47       0.000000000000
 48       0.000000000000
 49       0.000000000000
 50       0.000000000000
 51       0.000000000000
 52       0.000000000000
 53       0.000000000000
 54       0.000000000000
 55       0.000000000000
 56       0.000000000000
 57       0.000000000000
 58       0.000000000000
 59       0.000000000000
 60       0.000000000000
 61       0.000000000000
 62       0.000000000000
 63       0.000000000000
 64       0.000000000000
 65       0.000000000000
 66       0.000000000000
 67       0.000000000000
 68       0.000000000000
 69       0.000000000000
 70       0.000000000000
 71       0.000000000000
 72       0.000000000000
 73       0.000000000000
 74       0.000000000000
 75       0.000000000000
 76       0.000000000000
 77       0.000000000000
 78       0.000000000000
 79       0.000000000000
 80       0.000000000000
 81       0.000000000000
 82       0.000000000000
 83       0.000000000000
 84       0.000000000000
 85       0.000000000000
 86       0.000000000000
 87       0.000000000000
 88       0.000000000000
 89       0.000000000000
 90       0.000000000000
 91       0.000000000000
 92       0.000000000000
 93       0.000000000000
 94       0.000000000000
 95       0.000000000000
 96       0.000000000000
 97       0.000000000000
 98       0.000000000000
 99       0.000000000000
100       0.000000000000
101       0.000000000000
102       0.000000000000
103       0.000000000000
104       0.000000000000
105       0.000000000000
106       0.000000000000
107       0.000000000000
108       0.000000000000
109       0.000000000000
110       0.000000000000
111       0.000000000000
112       0.000000000000
113       0.000000000000
114       0.000000000000
115       0.000000000000
116       0.000000000000
117       0.000000000000
118       0.000000000000
119       0.000000000000
120       0.000000000000
121       0.000000000000
122       0.000000000000
123       0.000000000000
124       0.000000000000
125       0.000000000000
126       0.000000000000
127       0.000000000000
128       0.000000000000
129       0.000000000000
130       0.000000000000
131       0.000000000000
132       0.000000000000
133       0.000000000000
134       0.000000000000
135       0.000000000000
136       0.000000000000
137       0.000000000000
138       0.000000000000
139       0.000000000000
140       0.000000000000
141       0.000000000000
142       0.000000000000
143       0.000000000000
144       0.000000000000
145       0.000000000000
146       0.000000000000
147       0.000000000000
148       0.000000000000
149       0.000000000000
150       0.000000000000
151       0.000000000000
152       0.000000000000
153       0.000000000000
154       0.000000000000
155       0.000000000000
156       0.000000000000
157       0.000000000000
158       0.000000000000
159       0.000000000000
160       0.000000000000
161       0.000000000000
162       0.000000000000
163       0.000000000000
164       0.000000000000
165       0.000000000000
166       0.000000000000
167       0.000000000000
168       0.000000000000
169       0.000000000000
170       0.000000000000
171       0.000000000000
172       0.000000000000
 Sym=     1a
 Ene= -6.33214511487794E-01
Spin= Alpha
 Occup= 1.676472
  1       0.000000000000
  2       0.000000000000
  3       0.000000000000
  4       0.000000000000
  5       0.000000000000
  6       0.213975283024
  7       0.000000000000
  8       0.000000000000
  9       0.584905559483
 10       0.000000000000
 11       0.000000000000
 12       0.350578365227
 13       0.000000000000
 14       0.000000000000
 15       0.000000000000
 16       0.000000000000
 17       0.000000000000
 18       0.000000000000
 19       0.000000000000
 20       0.000000000000
 21       0.000000000000
 22       0.000000000000
 23       0.000000000000
 24       0.000000000000
 25       0.000000000000
 26       0.000000000000
 27       0.000000000000
 28       0.000000000000
 29       0.000000000000
 30       0.000000000000
 31       0.000000000000
 32       0.000000000000
 33       0.000000000000
 34       0.000000000000
 35       0.000000000000
 36       0.000000000000
 37       0.000000000000
 38       0.000000000000
 39       0.000000000000
 40       0.000000000000
 41       0.000000000000
 42       0.000000000000
 43       0.000000000000
 44       0.000000000000
 45       0.000000000000
 46       0.000000000000
 47       0.000000000000
 48       0.000000000000
 49       0.000000000000
 50       0.000000000000
 51       0.000000000000
 52       0.000000000000
 53       0.000000000000
 54       0.000000000000
 55       0.000000000000
 56       0.000000000000
 57       0.000000000000
 58       0.000000000000
 59       0.000000000000
 60       0.000000000000
 61       0.000000000000
 62       0.000000000000
 63       0.000000000000
 64       0.000000000000
 65       0.000000000000
 66       0.000000000000
 67       0.000000000000
 68       0.000000000000
 69       0.000000000000
 70       0.000000000000
 71       0.000000000000
 72       0.000000000000
 73       0.000000000000
 74       0.000000000000
 75       0.000000000000
 76       0.000000000000
 77       0.000000000000
 78       0.000000000000
 79       0.000000000000
 80       0.000000000000
 81       0.000000000000
 82       0.000000000000
 83       0.000000000000
 84       0.000000000000
 85       0.000000000000
 86       0.000000000000
 87       0.000000000000
 88       0.000000000000
 89       0.000000000000
 90       0.000000000000
 91       0.000000000000
 92       0.000000000000
 93       0.000000000000
 94       0.000000000000
 95       0.000000000000
 96       0.000000000000
 97       0.000000000000
 98       0.000000000000
 99       0.000000000000
100       0.000000000000
101       0.000000000000
102       0.000000000000
103       0.000000000000
104       0.000000000000
105       0.000000000000
106       0.000000000000
107       0.000000000000
108       0.000000000000
109       0.000000000000
110       0.000000000000
111       0.000000000000
112       0.000000000000
113       0.000000000000
114       0.000000000000
115       0.000000000000
116       0.000000000000
117       0.000000000000
118       0.000000000000
119       0.000000000000
120       0.000000000000
121       0.000000000000
122       0.000000000000
123       0.000000000000
124       0.000000000000
125       0.000000000000
126       0.000000000000
127       0.000000000000
128       0.000000000000
129       0.000000000000
130       0.000000000000
131       0.000000000000
132       0.000000000000
133       0.000000000000
134       0.000000000000
135       0.000000000000
136       0.000000000000
137       0.000000000000
138       0.000000000000
139       0.000000000000
140       0.000000000000
141       0.000000000000
142       0.000000000000
143       0.000000000000
144       0.000000000000
145       0.000000000000
146       0.000000000000
147       0.000000000000
148       0.000000000000
149       0.000000000000
150       0.000000000000
151       0.000000000000
152       0.000000000000
153       0.000000000000
154       0.000000000000
155       0.000000000000
156       0.000000000000
157       0.000000000000
158       0.000000000000
159       0.000000000000
160       0.000000000000
161       0.000000000000
162       0.000000000000
163       0.000000000000
164       0.000000000000
165       0.000000000000
166       0.000000000000
167       0.000000000000
168       0.000000000000
169       0.000000000000
170       0.000000000000
171       0.000000000000
172       0.000000000000
 Sym=     1a
 Ene= -7.51157464756130E-01
Spin= Alpha
 Occup= 1.676472
  1       0.000000000000
  2       0.000000000000
  3       0.000000000000
  4       0.000000000000
  5       0.000000000000
  6       0.000000000000
  7       0.213975283024
  8       0.000000000000
  9       0.000000000000
 10       0.584905559483
 11       0.000000000000
 12       0.000000000000
 13       0.350578365227
 14       0.000000000000
 15       0.000000000000
 16       0.000000000000
 17       0.000000000000
 18       0.000000000000
 19       0.000000000000
 20       0.000000000000
 21       0.000000000000
 22       0.000000000000
 23       0.000000000000
 24       0.000000000000
 25       0.000000000000
 26       0.000000000000
 27       0.000000000000
 28       0.000000000000
 29       0.000000000000
 30       0.000000000000
 31       0.000000000000
 32       0.000000000000
 33       0.000000000000
 34       0.000000000000
 35       0.000000000000
 36       0.000000000000
 37       0.000000000000
 38       0.000000000000
 39       0.000000000000
 40       0.000000000000
 41       0.000000000000
 42       0.000000000000
 43       0.000000000000
 44       0.000000000000
 45       0.000000000000
 46       0.000000000000
 47       0.000000000000
 48       0.000000000000
 49       0.000000000000
 50       0.000000000000
 51       0.000000000000
 52       0.000000000000
 53       0.000000000000
 54       0.000000000000
 55       0.000000000000
 56       0.000000000000
 57       0.000000000000
 58       0.000000000000
 59       0.000000000000
 60       0.000000000000
 61       0.000000000000
 62       0.000000000000
 63       0.000000000000
 64       0.000000000000
 65       0.000000000000
 66       0.000000000000
 67       0.000000000000
 68       0.000000000000
 69       0.000000000000
 70       0.000000000000
 71       0.000000000000
 72       0.000000000000
 73       0.000000000000
 74       0.000000000000
 75       0.000000000000
 76       0.000000000000
 77       0.000000000000
 78       0.000000000000
 79       0.000000000000
 80       0.000000000000
 81       0.000000000000
 82       0.000000000000
 83       0.000000000000
 84       0.000000000000
 85       0.000000000000
 86       0.000000000000
 87       0.000000000000
 88       0.000000000000
 89       0.000000000000
 90       0.000000000000
 91       0.000000000000
 92       0.000000000000
 93       0.000000000000
 94       0.000000000000
 95       0.000000000000
 96       0.000000000000
 97       0.000000000000
 98       0.000000000000
 99       0.000000000000
100       0.000000000000
101       0.000000000000
102       0.000000000000
103       0.000000000000
104       0.000000000000
105       0.000000000000
106       0.000000000000
107       0.000000000000
108       0.000000000000
109       0.000000000000
110       0.000000000000
111       0.000000000000
112       0.000000000000
113       0.000000000000
114       0.000000000000
115       0.000000000000
116       0.000000000000
117       0.000000000000
118       0.000000000000
119       0.000000000000
120       0.000000000000
121       0.000000000000
122       0.000000000000
123       0.000000000000
124       0.000000000000
125       0.000000000000
126       0.000000000000
127       0.000000000000
128       0.000000000000
129       0.000000000000
130       0.000000000000
131       0.000000000000
132       0.000000000000
133       0.000000000000
134       0.000000000000
135       0.000000000000
136       0.000000000000
137       0.000000000000
138       0.000000000000
139       0.000000000000
140       0.000000000000
141       0.000000000000
142       0.000000000000
143       0.000000000000
144       0.000000000000
145       0.000000000000
146       0.000000000000
147       0.000000000000
148       0.000000000000
149       0.000000000000
150       0.000000000000
151       0.000000000000
152       0.000000000000
153       0.000000000000
154       0.000000000000
155       0.000000000000
156       0.000000000000
157       0.000000000000
158       0.000000000000
159       0.000000000000
160       0.000000000000
161       0.000000000000
162       0.000000000000
163       0.000000000000
164       0.000000000000
165       0.000000000000
166       0.000000000000
167       0.000000000000
168       0.000000000000
169       0.000000000000
170       0.000000000000
171       0.000000000000
172       0.000000000000
 Sym=     1a
 Ene= -2.51262034823135E-01
Spin= Alpha
 Occup= 1.676472
  1       0.000000000000
  2       0.000000000000
  3       0.000000000000
  4       0.000000000000
  5       0.000000000000
  6       0.000000000000
  7       0.000000000000
  8       0.213975283024
  9       0.000000000000
 10       0.000000000000
 11       0.584905559483
 12       0.000000000000
 13       0.000000000000
 14       0.350578365227
 15       0.000000000000
 16       0.000000000000
 17       0.000000000000
 18       0.000000000000
 19       0.000000000000
 20       0.000000000000
 21       0.000000000000
 22       0.000000000000
 23       0.000000000000
 24       0.000000000000
 25       0.000000000000
 26       0.000000000000
 27       0.000000000000
 28       0.000000000000
 29       0.000000000000
 30       0.000000000000
 31       0.000000000000
 32       0.000000000000
 33       0.000000000000
 34       0.000000000000
 35       0.000000000000
 36       0.000000000000
 37       0.000000000000
 38       0.000000000000
 39       0.000000000000
 40       0.000000000000
 41       0.000000000000
 42       0.000000000000
 43       0.000000000000
 44       0.000000000000
 45       0.000000000000
 46       0.000000000000
 47       0.000000000000
 48       0.000000000000
 49       0.000000000000
 50       0.000000000000
 51       0.000000000000
 52       0.000000000000
 53       0.000000000000
 54       0.000000000000
 55       0.000000000000
 56       0.000000000000
 57       0.000000000000
 58       0.000000000000
 59       0.000000000000
 60       0.000000000000
 61       0.000000000000
 62       0.000000000000
 63       0.000000000000
 64       0.000000000000
 65       0.000000000000
 66       0.000000000000
 67       0.000000000000
 68       0.000000000000
 69       0.000000000000
 70       0.000000000000
 71       0.000000000000
 72       0.000000000000
 73       0.000000000000
 74       0.000000000000
 75       0.000000000000
 76       0.000000000000
 77       0.000000000000
 78       0.000000000000
 79       0.000000000000
 80       0.000000000000
 81       0.000000000000
 82       0.000000000000
 83       0.000000000000
 84       0.000000000000
 85       0.000000000000
 86       0.000000000000
 87       0.000000000000
 88       0.000000000000
 89       0.000000000000
 90       0.000000000000
 91       0.000000000000
 92       0.000000000000
 93       0.000000000000
 94       0.000000000000
 95       0.000000000000
 96       0.000000000000
 97       0.000000000000
 98       0.000000000000
 99       0.000000000000
100       0.000000000000
101       0.000000000000
102       0.000000000000
103       0.000000000000
104       0.000000000000
105       0.000000000000
106       0.000000000000
107       0.000000000000
108       0.000000000000
109       0.000000000000
110       0.000000000000
111       0.000000000000
112       0.000000000000
113       0.000000000000
114       0.000000000000
115       0.000000000000
116       0.000000000000
117       0.000000000000
118       0.000000000000
119       0.000000000000
120       0.000000000000
121       0.000000000000
122       0.000000000000
123       0.000000000000
124       0.000000000000
125       0.000000000000
126       0.000000000000
127       0.000000000000
128       0.000000000000
129       0.000000000000
130       0.000000000000
131       0.000000000000
132       0.000000000000
133       0.000000000000
134       0.000000000000
135       0.000000000000
136       0.000000000000
137       0.000000000000
138       0.000000000000
139       0.000000000000
140       0.000000000000
141       0.000000000000
142       0.000000000000
143       0.000000000000
144       0.000000000000
145       0.000000000000
146       0.000000000000
147       0.000000000000
148       0.000000000000
149       0.000000000000
150       0.000000000000
151       0.000000000000
152       0.000000000000
153       0.000000000000
154       0.000000000000
155       0.000000000000
156       0.000000000000
157       0.000000000000
158       0.000000000000
159       0.000000000000
160       0.000000000000
161       0.000000000000
162       0.000000000000
163       0.000000000000
164       0.000000000000
165       0.000000000000
166       0.000000000000
167       0.000000000000
168       0.000000000000
169       0.000000000000
170       0.000000000000
171       0.000000000000
172       0.000000000000
 Sym=     1a
 Ene=  2.81541301686906E+00
Spin= Alpha
 Occup= 0.012439
  1       0.000000000000
  2       0.000000000000
  3       0.000000000000
  4       0.000000000000
  5       0.000000000000
  6       0.000000000000
  7       0.000000000000
  8       0.000000000000
  9       0.000000000000
 10       0.000000000000
 11       0.000000000000
 12       0.000000000000
 13       0.000000000000
 14       0.000000000000
 15      -1.122095674108
 16       0.000000000000
 17       0.000000000000
 18       0.000000000000
 19       0.000000000000
 20       0.285529706778
 21       0.000000000000
 22       0.000000000000
 23       0.000000000000
 24       0.000000000000
 25       0.000000000000
 26       0.000000000000
 27       0.000000000000
 28       0.000000000000
 29       0.000000000000
 30       0.000000000000
 31       0.000000000000
 32       0.000000000000
 33       0.000000000000
 34       0.000000000000
 35       0.000000000000
 36       0.000000000000
 37       0.000000000000
 38       0.000000000000
 39       0.000000000000
 40       0.000000000000
 41       0.000000000000
 42       0.000000000000
 43       0.000000000000
 44       0.000000000000
 45       0.000000000000
 46       0.000000000000
 47       0.000000000000
 48       0.000000000000
 49       0.000000000000
 50       0.000000000000
 51       0.000000000000
 52       0.000000000000
 53       0.000000000000
 54       0.000000000000
 55       0.000000000000
 56       0.000000000000
 57       0.000000000000
 58       0.000000000000
 59       0.000000000000
 60       0.000000000000
 61       0.000000000000
 62       0.000000000000
 63       0.000000000000
 64       0.000000000000
 65       0.000000000000
 66       0.000000000000
 67       0.000000000000
 68       0.000000000000
 69       0.000000000000
 70       0.000000000000
 71       0.000000000000
 72       0.000000000000
 73       0.000000000000
 74       0.000000000000
 75       0.000000000000
 76       0.000000000000
 77       0.000000000000
 78       0.000000000000
 79       0.000000000000
 80       0.000000000000
 81       0.000000000000
 82       0.000000000000
 83       0.000000000000
 84       0.000000000000
 85       0.000000000000
 86       0.000000000000
 87       0.000000000000
 88       0.000000000000
 89       0.000000000000
 90       0.000000000000
 91       0.000000000000
 92       0.000000000000
 93       0.000000000000
 94       0.000000000000
 95       0.000000000000
 96       0.000000000000
 97       0.000000000000
 98       0.000000000000
 99       0.000000000000
100       0.000000000000
101       0.000000000000
102       0.000000000000
103       0.000000000000
104       0.000000000000
105       0.000000000000
106       0.000000000000
107       0.000000000000
108       0.000000000000
109       0.000000000000
110       0.000000000000
111       0.000000000000
112       0.000000000000
113       0.000000000000
114       0.000000000000
115       0.000000000000
116       0.000000000000
117       0.000000000000
118       0.000000000000
119       0.000000000000
120       0.000000000000
121       0.000000000000
122       0.000000000000
123       0.000000000000
124       0.000000000000
125       0.000000000000
126       0.000000000000
127       0.000000000000
128       0.000000000000
129       0.000000000000
130       0.000000000000
131       0.000000000000
132       0.000000000000
133       0.000000000000
134       0.000000000000
135       0.000000000000
136       0.000000000000
137       0.000000000000
138       0.000000000000
139       0.000000000000
140       0.000000000000
141       0.000000000000
142       0.000000000000
143       0.000000000000
144       0.000000000000
145       0.000000000000
146       0.000000000000
147       0.000000000000
148       0.000000000000
149       0.000000000000
150       0.000000000000
151       0.000000000000
152       0.000000000000
153       0.000000000000
154       0.000000000000
155       0.000000000000
156       0.000000000000
157       0.000000000000
158       0.000000000000
159       0.000000000000
160       0.000000000000
161       0.000000000000
162       0.000000000000
163       0.000000000000
164       0.000000000000
165       0.000000000000
166       0.000000000000
167       0.000000000000
168       0.000000000000
169       0.000000000000
170       0.000000000000
171       0.000000000000
172       0.000000000000
 Sym=     1a
 Ene=  2.84493098697220E+00
Spin= Alpha
 Occup= 0.012439
  1       0.000000000000
  2       0.000000000000
  3       0.000000000000
  4       0.000000000000
  5       0.000000000000
  6       0.000000000000
  7       0.000000000000
  8       0.000000000000
  9       0.000000000000
 10       0.000000000000
 11       0.000000000000
 12       0.000000000000
 13       0.000000000000
 14       0.000000000000
 15       0.000000000000
 16      -1.122095674108
 17       0.000000000000
 18       0.000000000000
 19       0.000000000000
 20       0.000000000000
 21       0.285529706778
 22       0.000000000000
 23       0.000000000000
 24       0.000000000000
 25       0.000000000000
 26       0.000000000000
 27       0.000000000000
 28       0.000000000000
 29       0.000000000000
 30       0.000000000000
 31       0.000000000000
 32       0.000000000000
 33       0.000000000000
 34       0.000000000000
 35       0.000000000000
 36       0.000000000000
 37       0.000000000000
 38       0.000000000000
 39       0.000000000000
 40       0.000000000000
 41       0.000000000000
 42       0.000000000000
 43       0.000000000000
 44       0.000000000000
 45       0.000000000000
 46       0.000000000000
 47       0.000000000000
 48       0.000000000000
 49       0.000000000000
 50       0.000000000000
 51       0.000000000000
 52       0.000000000000
 53       0.000000000000
 54       0.000000000000
 55       0.000000000000
 56       0.000000000000
 57       0.000000000000
 58       0.000000000000
 59       0.000000000000
 60       0.000000000000
 61       0.000000000000
 62       0.000000000000
 63       0.000000000000
 64       0.000000000000
 65       0.000000000000
 66       0.000000000000
 67       0.000000000000
 68       0.000000000000
 69       0.000000000000
 70       0.000000000000
 71       0.000000000000
 72       0.000000000000
 73       0.000000000000
 74       0.000000000000
 75       0.000000000000
 76       0.000000000000
 77       0.000000000000
 78       0.000000000000
 79       0.000000000000
 80       0.000000000000
 81       0.000000000000
 82       0.000000000000
 83       0.000000000000
 84       0.000000000000
 85       0.000000000000
 86       0.000000000000
 87       0.000000000000
 88       0.000000000000
 89       0.000000000000
 90       0.000000000000
 91       0.000000000000
 92       0.000000000000
 93       0.000000000000
 94       0.000000000000
 95       0.000000000000
 96       0.000000000000
 97       0.000000000000
 98       0.000000000000
 99       0.000000000000
100       0.000000000000
101       0.000000000000
102       0.000000000000
103       0.000000000000
104       0.000000000000
105       0.000000000000
106       0.000000000000
107       0.000000000000
108       0.000000000000
109       0.000000000000
110       0.000000000000
111       0.000000000000
112       0.000000000000
113       0.000000000000
114       0.000000000000
115       0.000000000000
116       0.000000000000
117       0.000000000000
118       0.000000000000
119       0.000000000000
120       0.000000000000
121       0.000000000000
122       0.000000000000
123       0.000000000000
124       0.000000000000
125       0.000000000000
126       0.000000000000
127       0.000000000000
128       0.000000000000
129       0.000000000000
130       0.000000000000
131       0.000000000000
132       0.000000000000
133       0.000000000000
134       0.000000000000
135       0.000000000000
136       0.000000000000
137       0.000000000000
138       0.000000000000
139       0.000000000000
140       0.000000000000
141       0.000000000000
142       0.000000000000
143       0.000000000000
144       0.000000000000
145       0.000000000000
146       0.000000000000
147       0.000000000000
148       0.000000000000
149       0.000000000000
150       0.000000000000
151       0.000000000000
152       0.000000000000
153       0.000000000000
154       0.000000000000
155       0.000000000000
156       0.000000000000
157       0.000000000000
158       0.000000000000
159       0.000000000000
160       0.000000000000
161       0.000000000000
162       0.000000000000
163       0.000000000000
164       0.000000000000
165       0.000000000000
166       0.000000000000
167       0.000000000000
168       0.000000000000
169       0.000000000000
170       0.000000000000
171       0.000000000000
172       0.000000000000
 Sym=     1a
 Ene=  2.82326477347383E+00
Spin= Alpha
 Occup= 0.012439
  1       0.000000000000
  2       0.000000000000
  3       0.000000000000
  4       0.000000000000
  5       0.000000000000
  6       0.000000000000
  7       0.000000000000
  8       0.000000000000
  9       0.000000000000
 10       0.000000000000
 11       0.000000000000
 12       0.000000000000
 13       0.000000000000
 14       0.000000000000
 15       0.000000000000
 16       0.000000000000
 17      -1.122095674108
 18       0.000000000000
 19       0.000000000000
 20       0.000000000000
 21       0.000000000000
 22       0.285529706778
 23       0.000000000000
 24       0.000000000000
 25       0.000000000000
 26       0.000000000000
 27       0.000000000000
 28       0.000000000000
 29       0.000000000000
 30       0.000000000000
 31       0.000000000000
 32       0.000000000000
 33       0.000000000000
 34       0.000000000000
 35       0.000000000000
 36       0.000000000000
 37       0.000000000000
 38       0.000000000000
 39       0.000000000000
 40       0.000000000000
 41       0.000000000000
 42       0.000000000000
 43       0.000000000000
 44       0.000000000000
 45       0.000000000000
 46       0.000000000000
 47       0.000000000000
 48       0.000000000000
 49       0.000000000000
 50       0.000000000000
 51       0.000000000000
 52       0.000000000000
 53       0.000000000000
 54       0.000000000000
 55       0.000000000000
 56       0.000000000000
 57       0.000000000000
 58       0.000000000000
 59       0.000000000000
 60       0.000000000000
 61       0.000000000000
 62       0.000000000000
 63       0.000000000000
 64       0.000000000000
 65       0.000000000000
 66       0.000000000000
 67       0.000000000000
 68       0.000000000000
 69       0.000000000000
 70       0.000000000000
 71       0.000000000000
 72       0.000000000000
 73       0.000000000000
 74       0.000000000000
 75       0.000000000000
 76       0.000000000000
 77       0.000000000000
 78       0.000000000000
 79       0.000000000000
 80       0.000000000000
 81       0.000000000000
 82       0.000000000000
 83       0.000000000000
 84       0.000000000000
 85       0.000000000000
 86       0.000000000000
 87       0.000000000000
 88       0.000000000000
 89       0.000000000000
 90       0.000000000000
 91       0.000000000000
 92       0.000000000000
 93       0.000000000000
 94       0.000000000000
 95       0.000000000000
 96       0.000000000000
 97       0.000000000000
 98       0.000000000000
 99       0.000000000000
100       0.000000000000
101       0.000000000000
102       0.000000000000
103       0.000000000000
104       0.000000000000
105       0.000000000000
106       0.000000000000
107       0.000000000000
108       0.000000000000
109       0.000000000000
110       0.000000000000
111       0.000000000000
112       0.000000000000
113       0.000000000000
114       0.000000000000
115       0.000000000000
116       0.000000000000
117       0.000000000000
118       0.000000000000
119       0.000000000000
120       0.000000000000
121       0.000000000000
122       0.000000000000
123       0.000000000000
124       0.000000000000
125       0.000000000000
126       0.000000000000
127       0.000000000000
128       0.000000000000
129       0.000000000000
130       0.000000000000
131       0.000000000000
132       0.000000000000
133       0.000000000000
134       0.000000000000
135       0.000000000000
136       0.000000000000
137       0.000000000000
138       0.000000000000
139       0.000000000000
140       0.000000000000
141       0.000000000000
142       0.000000000000
143       0.000000000000
144       0.000000000000
145       0.000000000000
146       0.000000000000
147       0.000000000000
148       0.000000000000
149       0.000000000000
150       0.000000000000
151       0.000000000000
152       0.000000000000
153       0.000000000000
154       0.000000000000
155       0.000000000000
156       0.000000000000
157       0.000000000000
158       0.000000000000
159       0.000000000000
160       0.000000000000
161       0.000000000000
162       0.000000000000
163       0.000000000000
164       0.000000000000
165       0.000000000000
166       0.000000000000
167       0.000000000000
168       0.000000000000
169       0.000000000000
170       0.000000000000
171       0.000000000000
172       0.000000000000
 Sym=     1a
 Ene=  2.73679048383007E+00
Spin= Alpha
 Occup= 0.012439
  1       0.000000000000
  2       0.000000000000
  3       0.000000000000
  4       0.000000000000
  5       0.000000000000
  6       0.000000000000
  7       0.000000000000
  8       0.000000000000
  9       0.000000000000
 10       0.000000000000
 11       0.000000000000
 12       0.000000000000
 13       0.000000000000
 14       0.000000000000
 15       0.000000000000
 16       0.000000000000
 17       0.000000000000
 18      -1.122095674108
 19       0.000000000000
 20       0.000000000000
 21       0.000000000000
 22       0.000000000000
 23       0.285529706778
 24       0.000000000000
 25       0.000000000000
 26       0.000000000000
 27       0.000000000000
 28       0.000000000000
 29       0.000000000000
 30       0.000000000000
 31       0.000000000000
 32       0.000000000000
 33       0.000000000000
 34       0.000000000000
 35       0.000000000000
 36       0.000000000000
 37       0.000000000000
 38       0.000000000000
 39       0.000000000000
 40       0.000000000000
 41       0.000000000000
 42       0.000000000000
 43       0.000000000000
 44       0.000000000000
 45       0.000000000000
 46       0.000000000000
 47       0.000000000000
 48       0.000000000000
 49       0.000000000000
 50       0.000000000000
 51       0.000000000000
 52       0.000000000000
 53       0.000000000000
 54       0.000000000000
 55       0.000000000000
 56       0.000000000000
 57       0.000000000000
 58       0.000000000000
 59       0.000000000000
 60       0.000000000000
 61       0.000000000000
 62       0.000000000000
 63       0.000000000000
 64       0.000000000000
 65       0.000000000000
 66       0.000000000000
 67       0.000000000000
 68       0.000000000000
 69       0.000000000000
 70       0.000000000000
 71       0.000000000000
 72       0.000000000000
 73       0.000000000000
 74       0.000000000000
 75       0.000000000000
 76       0.000000000000
 77       0.000000000000
 78       0.000000000000
 79       0.000000000000
 80       0.000000000000
 81       0.000000000000
 82       0.000000000000
 83       0.000000000000
 84       0.000000000000
 85       0.000000000000
 86       0.000000000000
 87       0.000000000000
 88       0.000000000000
 89       0.000000000000
 90       0.000000000000
 91       0.000000000000
 92       0.000000000000
 93       0.000000000000
 94       0.000000000000
 95       0.000000000000
 96       0.000000000000
 97       0.000000000000
 98       0.000000000000
 99       0.000000000000
100       0.000000000000
101       0.000000000000
102       0.000000000000
103       0.000000000000
104       0.000000000000
105       0.000000000000
106       0.000000000000
107       0.000000000000
108       0.000000000000
109       0.000000000000
110       0.000000000000
111       0.000000000000
112       0.000000000000
113       0.000000000000
114       0.000000000000
115       0.000000000000
116       0.000000000000
117       0.000000000000
118       0.000000000000
119       0.000000000000
120       0.000000000000
121       0.000000000000
122       0.000000000000
123       0.000000000000
124       0.000000000000
125       0.000000000000
126       0.000000000000
127       0.000000000000
128       0.000000000000
129       0.000000000000
130       0.000000000000
131       0.000000000000
132       0.000000000000
133       0.000000000000
134       0.000000000000
135       0.000000000000
136       0.000000000000
137       0.000000000000
138       0.000000000000
139       0.000000000000
140       0.000000000000
141       0.000000000000
142       0.000000000000
143       0.000000000000
144       0.000000000000
145       0.000000000000
146       0.000000000000
147       0.000000000000
148       0.000000000000
149       0.000000000000
150       0.000000000000
151       0.000000000000
152       0.000000000000
153       0.000000000000
154       0.000000000000
155       0.000000000000
156       0.000000000000
157       0.000000000000
158       0.000000000000
159       0.000000000000
160       0.000000000000
161       0.000000000000
162       0.000000000000
163       0.000000000000
164       0.000000000000
165       0.000000000000
166       0.000000000000
167       0.000000000000
168       0.000000000000
169       0.000000000000
170       0.000000000000
171       0.000000000000
172       0.000000000000
 Sym=     1a
 Ene=  2.74881639074702E+00
Spin= Alpha
 Occup= 0.012439
  1       0.000000000000
  2       0.000000000000
  3       0.000000000000
  4       0.000000000000
  5       0.000000000000
  6       0.000000000000
  7       0.000000000000
  8       0.000000000000
  9       0.000000000000
 10       0.000000000000
 11       0.000000000000
 12       0.000000000000
 13       0.000000000000
 14       0.000000000000
 15       0.000000000000
 16       0.000000000000
 17       0.000000000000
 18       0.000000000000
 19      -1.122095674108
 20       0.000000000000
 21       0.000000000000
 22       0.000000000000
 23       0.000000000000
 24       0.285529706778
 25       0.000000000000
 26       0.000000000000
 27       0.000000000000
 28       0.000000000000
 29       0.000000000000
 30       0.000000000000
 31       0.000000000000
 32       0.000000000000
 33       0.000000000000
 34       0.000000000000
 35       0.000000000000
 36       0.000000000000
 37       0.000000000000
 38       0.000000000000
 39       0.000000000000
 40       0.000000000000
 41       0.000000000000
 42       0.000000000000
 43       0.000000000000
 44       0.000000000000
 45       0.000000000000
 46       0.000000000000
 47       0.000000000000
 48       0.000000000000
 49       0.000000000000
 50       0.000000000000
 51       0.000000000000
 52       0.000000000000
 53       0.000000000000
 54       0.000000000000
 55       0.000000000000
 56       0.000000000000
 57       0.000000000000
 58       0.000000000000
 59       0.000000000000
 60       0.000000000000
 61       0.000000000000
 62       0.000000000000
 63       0.000000000000
 64       0.000000000000
 65       0.000000000000
 66       0.000000000000
 67       0.000000000000
 68       0.000000000000
 69       0.000000000000
 70       0.000000000000
 71       0.000000000000
 72       0.000000000000
 73       0.000000000000
 74       0.000000000000
 75       0.000000000000
 76       0.000000000000
 77       0.000000000000
 78       0.000000000000
 79       0.000000000000
 80       0.000000000000
 81       0.000000000000
 82       0.000000000000
 83       0.000000000000
 84       0.000000000000
 85       0.000000000000
 86       0.000000000000
 87       0.000000000000
 88       0.000000000000
 89       0.000000000000
 90       0.000000000000
 91       0.000000000000
 92       0.000000000000
 93       0.000000000000
 94       0.000000000000
 95       0.000000000000
 96       0.000000000000
 97       0.000000000000
 98       0.000000000000
 99       0.000000000000
100       0.000000000000
101       0.000000000000
102       0.000000000000
103       0.000000000000
104       0.000000000000
105       0.000000000000
106       0.000000000000
107       0.000000000000
108       0.000000000000
109       0.000000000000
110       0.000000000000
111       0.000000000000
112       0.000000000000
113       0.000000000000
114       0.000000000000
115       0.000000000000
116       0.000000000000
117       0.000000000000
118       0.000000000000
119       0.000000000000
120       0.000000000000
121       0.000000000000
122       0.000000000000
123       0.000000000000
124       0.000000000000
125       0.000000000000
126       0.000000000000
127       0.000000000000
128       0.000000000000
129       0.000000000000
130       0.000000000000
131       0.000000000000
132       0.000000000000
133       0.000000000000
134       0.000000000000
135       0.000000000000
136       0.000000000000
137       0.000000000000
138       0.000000000000
139       0.000000000000
140       0.000000000000
141       0.000000000000
142       0.000000000000
143       0.000000000000
144       0.000000000000
145       0.000000000000
146       0.000000000000
147       0.000000000000
148       0.000000000000
149       0.000000000000
150       0.000000000000
151       0.000000000000
152       0.000000000000
153       0.000000000000
154       0.000000000000
155       0.000000000000
156       0.000000000000
157       0.000000000000
158       0.000000000000
159       0.000000000000
160       0.000000000000
161       0.000000000000
162       0.000000000000
163       0.000000000000
164       0.000000000000
165       0.000000000000
166       0.000000000000
167       0.000000000000
168       0.000000000000
169       0.000000000000
170       0.000000000000
171       0.000000000000
172       0.000000000000
 Sym=     1a
 Ene=  5.07402220510368E-01
Spin= Alpha
 Occup= 0.513813
  1       0.000000000000
  2       0.000000000000
  3       0.000000000000
  4       0.000000000000
  5       0.000000000000
  6       0.000000000000
  7       0.000000000000
  8       0.000000000000
  9       0.000000000000
 10       0.000000000000
 11       0.000000000000
 12       0.000000000000
 13       0.000000000000
 14       0.000000000000
 15      -0.367116194756
 16       0.000000000000
 17       0.000000000000
 18       0.000000000000
 19       0.000000000000
 20       1.145576618499
 21       0.000000000000
 22       0.000000000000
 23       0.000000000000
 24       0.000000000000
 25       0.000000000000
 26       0.000000000000
 27       0.000000000000
 28       0.000000000000
 29       0.000000000000
 30       0.000000000000
 31       0.000000000000
 32       0.000000000000
 33       0.000000000000
 34       0.000000000000
 35       0.000000000000
 36       0.000000000000
 37       0.000000000000
 38       0.000000000000
 39       0.000000000000
 40       0.000000000000
 41       0.000000000000
 42       0.000000000000
 43       0.000000000000
 44       0.000000000000
 45       0.000000000000
 46       0.000000000000
 47       0.000000000000
 48       0.000000000000
 49       0.000000000000
 50       0.000000000000
 51       0.000000000000
 52       0.000000000000
 53       0.000000000000
 54       0.000000000000
 55       0.000000000000
 56       0.000000000000
 57       0.000000000000
 58       0.000000000000
 59       0.000000000000
 60       0.000000000000
 61       0.000000000000
 62       0.000000000000
 63       0.000000000000
 64       0.000000000000
 65       0.000000000000
 66       0.000000000000
 67       0.000000000000
 68       0.000000000000
 69       0.000000000000
 70       0.000000000000
 71       0.000000000000
 72       0.000000000000
 73       0.000000000000
 74       0.000000000000
 75       0.000000000000
 76       0.000000000000
 77       0.000000000000
 78       0.000000000000
 79       0.000000000000
 80       0.000000000000
 81       0.000000000000
 82       0.000000000000
 83       0.000000000000
 84       0.000000000000
 85       0.000000000000
 86       0.000000000000
 87       0.000000000000
 88       0.000000000000
 89       0.000000000000
 90       0.000000000000
 91       0.000000000000
 92       0.000000000000
 93       0.000000000000
 94       0.000000000000
 95       0.000000000000
 96       0.000000000000
 97       0.000000000000
 98       0.000000000000
 99       0.000000000000
100       0.000000000000
101       0.000000000000
102       0.000000000000
103       0.000000000000
104       0.000000000000
105       0.000000000000
106       0.000000000000
107       0.000000000000
108       0.000000000000
109       0.000000000000
110       0.000000000000
111       0.000000000000
112       0.000000000000
113       0.000000000000
114       0.000000000000
115       0.000000000000
116       0.000000000000
117       0.000000000000
118       0.000000000000
119       0.000000000000
120       0.000000000000
121       0.000000000000
122       0.000000000000
123       0.000000000000
124       0.000000000000
125       0.000000000000
126       0.000000000000
127       0.000000000000
128       0.000000000000
129       0.000000000000
130       0.000000000000
131       0.000000000000
132       0.000000000000
133       0.000000000000
134       0.000000000000
135       0.000000000000
136       0.000000000000
137       0.000000000000
138       0.000000000000
139       0.000000000000
140       0.000000000000
141       0.000000000000
142       0.000000000000
143       0.000000000000
144       0.000000000000
145       0.000000000000
146       0.000000000000
147       0.000000000000
148       0.000000000000
149       0.000000000000
150       0.000000000000
151       0.000000000000
152       0.000000000000
153       0.000000000000
154       0.000000000000
155       0.000000000000
156       0.000000000000
157       0.000000000000
158       0.000000000000
159       0.000000000000
160       0.000000000000
161       0.000000000000
162       0.000000000000
163       0.000000000000
164       0.000000000000
165       0.000000000000
166       0.000000000000
167       0.000000000000
168       0.000000000000
169       0.000000000000
170       0.000000000000
171       0.000000000000
172       0.000000000000
 Sym=     1a
 Ene=  7.51521991831617E-01
Spin= Alpha
 Occup= 0.513813
  1       0.000000000000
  2       0.000000000000
  3       0.000000000000
  4       0.000000000000
  5       0.000000000000
  6       0.000000000000
  7       0.000000000000
  8       0.000000000000
  9       0.000000000000
 10       0.000000000000
 11       0.000000000000
 12       0.000000000000
 13       0.000000000000
 14       0.000000000000
 15       0.000000000000
 16      -0.367116194756
 17       0.000000000000
 18       0.000000000000
 19       0.000000000000
 20       0.000000000000
 21       1.145576618499
 22       0.000000000000
 23       0.000000000000
 24       0.000000000000
 25       0.000000000000
 26       0.000000000000
 27       0.000000000000
 28       0.000000000000
 29       0.000000000000
 30       0.000000000000
 31       0.000000000000
 32       0.000000000000
 33       0.000000000000
 34       0.000000000000
 35       0.000000000000
 36       0.000000000000
 37       0.000000000000
 38       0.000000000000
 39       0.000000000000
 40       0.000000000000
 41       0.000000000000
 42       0.000000000000
 43       0.000000000000
 44       0.000000000000
 45       0.000000000000
 46       0.000000000000
 47       0.000000000000
 48       0.000000000000
 49       0.000000000000
 50       0.000000000000
 51       0.000000000000
 52       0.000000000000
 53       0.000000000000
 54       0.000000000000
 55       0.000000000000
 56       0.000000000000
 57       0.000000000000
 58       0.000000000000
 59       0.000000000000
 60       0.000000000000
 61       0.000000000000
 62       0.000000000000
 63       0.000000000000
 64       0.000000000000
 65       0.000000000000
 66       0.000000000000
 67       0.000000000000
 68       0.000000000000
 69       0.000000000000
 70       0.000000000000
 71       0.000000000000
 72       0.000000000000
 73       0.000000000000
 74       0.000000000000
 75       0.000000000000
 76       0.000000000000
 77       0.000000000000
 78       0.000000000000
 79       0.000000000000
 80       0.000000000000
 81       0.000000000000
 82       0.000000000000
 83       0.000000000000
 84       0.000000000000
 85       0.000000000000
 86       0.000000000000
 87       0.000000000000
 88       0.000000000000
 89       0.000000000000
 90       0.000000000000
 91       0.000000000000
 92       0.000000000000
 93       0.000000000000
 94       0.000000000000
 95       0.000000000000
 96       0.000000000000
 97       0.000000000000
 98       0.000000000000
 99       0.000000000000
100       0.000000000000
101       0.000000000000
102       0.000000000000
103       0.000000000000
104       0.000000000000
105       0.000000000000
106       0.000000000000
107       0.000000000000
108       0.000000000000
109       0.000000000000
110       0.000000000000
111       0.000000000000
112       0.000000000000
113       0.000000000000
114       0.000000000000
115       0.000000000000
116       0.000000000000
117       0.000000000000
118       0.000000000000
119       0.000000000000
120       0.000000000000
121       0.000000000000
122       0.000000000000
123       0.000000000000
124       0.000000000000
125       0.000000000000
126       0.000000000000
127       0.000000000000
128       0.000000000000
129       0.000000000000
130       0.000000000000
131       0.000000000000
132       0.000000000000
133       0.000000000000
134       0.000000000000
135       0.000000000000
136       0.000000000000
137       0.000000000000
138       0.000000000000
139       0.000000000000
140       0.000000000000
141       0.000000000000
142       0.000000000000
143       0.000000000000
144       0.000000000000
145       0.000000000000
146       0.000000000000
147       0.000000000000
148       0.000000000000
149       0.000000000000
150       0.000000000000
151       0.000000000000
152       0.000000000000
153       0.000000000000
154       0.000000000000
155       0.000000000000
156       0.000000000000
157       0.000000000000
158       0.000000000000
159       0.000000000000
160       0.000000000000
161       0.000000000000
162       0.000000000000
163       0.000000000000
164       0.000000000000
165       0.000000000000
166       0.000000000000
167       0.000000000000
168       0.000000000000
169       0.000000000000
170       0.000000000000
171       0.000000000000
172       0.000000000000
 Sym=     1a
 Ene=  6.79377823979492E-01
Spin= Alpha
 Occup= 0.513813
  1       0.000000000000
  2       0.000000000000
  3       0.000000000000
  4       0.000000000000
  5       0.000000000000
  6       0.000000000000
  7       0.000000000000
  8       0.000000000000
  9       0.000000000000
 10       0.000000000000
 11       0.000000000000
 12       0.000000000000
 13       0.000000000000
 14       0.000000000000
 15       0.000000000000
 16       0.000000000000
 17      -0.367116194756
 18       0.000000000000
 19       0.000000000000
 20       0.000000000000
 21       0.000000000000
 22       1.145576618499
 23       0.000000000000
 24       0.000000000000
 25       0.000000000000
 26       0.000000000000
 27       0.000000000000
 28       0.000000000000
 29       0.000000000000
 30       0.000000000000
 31       0.000000000000
 32       0.000000000000
 33       0.000000000000
 34       0.000000000000
 35       0.000000000000
 36       0.000000000000
 37       0.000000000000
 38       0.000000000000
 39       0.000000000000
 40       0.000000000000
 41       0.000000000000
 42       0.000000000000
 43       0.000000000000
 44       0.000000000000
 45       0.000000000000
 46       0.000000000000
 47       0.000000000000
 48       0.000000000000
 49       0.000000000000
 50       0.000000000000
 51       0.000000000000
 52       0.000000000000
 53       0.000000000000
 54       0.000000000000
 55       0.000000000000
 56       0.000000000000
 57       0.000000000000
 58       0.000000000000
 59       0.000000000000
 60       0.000000000000
 61       0.000000000000
 62       0.000000000000
 63       0.000000000000
 64       0.000000000000
 65       0.000000000000
 66       0.000000000000
 67       0.000000000000
 68       0.000000000000
 69       0.000000000000
 70       0.000000000000
 71       0.000000000000
 72       0.000000000000
 73       0.000000000000
 74       0.000000000000
 75       0.000000000000
 76       0.000000000000
 77       0.000000000000
 78       0.000000000000
 79       0.000000000000
 80       0.000000000000
 81       0.000000000000
 82       0.000000000000
 83       0.000000000000
 84       0.000000000000
 85       0.000000000000
 86       0.000000000000
 87       0.000000000000
 88       0.000000000000
 89       0.000000000000
 90       0.000000000000
 91       0.000000000000
 92       0.000000000000
 93       0.000000000000
 94       0.000000000000
 95       0.000000000000
 96       0.000000000000
 97       0.000000000000
 98       0.000000000000
 99       0.000000000000
100       0.000000000000
101       0.000000000000
102       0.000000000000
103       0.000000000000
104       0.000000000000
105       0.000000000000
106       0.000000000000
107       0.000000000000
108       0.000000000000
109       0.000000000000
110       0.000000000000
111       0.000000000000
112       0.000000000000
113       0.000000000000
114       0.000000000000
115       0.000000000000
116       0.000000000000
117       0.000000000000
118       0.000000000000
119       0.000000000000
120       0.000000000000
121       0.000000000000
122       0.000000000000
123       0.000000000000
124       0.000000000000
125       0.000000000000
126       0.000000000000
127       0.000000000000
128       0.000000000000
129       0.000000000000
130       0.000000000000
131       0.000000000000
132       0.000000000000
133       0.000000000000
134       0.000000000000
135       0.000000000000
136       0.000000000000
137       0.000000000000
138       0.000000000000
139       0.000000000000
140       0.000000000000
141       0.000000000000
142       0.000000000000
143       0.000000000000
144       0.000000000000
145       0.000000000000
146       0.000000000000
147       0.000000000000
148       0.000000000000
149       0.000000000000
150       0.000000000000
151       0.000000000000
152       0.000000000000
153       0.000000000000
154       0.000000000000
155       0.000000000000
156       0.000000000000
157       0.000000000000
158       0.000000000000
159       0.000000000000
160       0.000000000000
161       0.000000000000
162       0.000000000000
163       0.000000000000
164       0.000000000000
165       0.000000000000
166       0.000000000000
167       0.000000000000
168       0.000000000000
169       0.000000000000
170       0.000000000000
171       0.000000000000
172       0.000000000000
 Sym=     1a
 Ene=  6.75136677736836E-02
Spin= Alpha
 Occup= 0.513813
  1       0.000000000000
  2       0.000000000000
  3       0.000000000000
  4       0.000000000000
  5       0.000000000000
  6       0.000000000000
  7       0.000000000000
  8       0.000000000000
  9       0.000000000000
 10       0.000000000000
 11       0.000000000000
 12       0.000000000000
 13       0.000000000000
 14       0.000000000000
 15       0.000000000000
 16       0.000000000000
 17       0.000000000000
 18      -0.367116194756
 19       0.000000000000
 20       0.000000000000
 21       0.000000000000
 22       0.000000000000
 23       1.145576618499
 24       0.000000000000
 25       0.000000000000
 26       0.000000000000
 27       0.000000000000
 28       0.000000000000
 29       0.000000000000
 30       0.000000000000
 31       0.000000000000
 32       0.000000000000
 33       0.000000000000
 34       0.000000000000
 35       0.000000000000
 36       0.000000000000
 37       0.000000000000
 38       0.000000000000
 39       0.000000000000
 40       0.000000000000
 41       0.000000000000
 42       0.000000000000
 43       0.000000000000
 44       0.000000000000
 45       0.000000000000
 46       0.000000000000
 47       0.000000000000
 48       0.000000000000
 49       0.000000000000
 50       0.000000000000
 51       0.000000000000
 52       0.000000000000
 53       0.000000000000
 54       0.000000000000
 55       0.000000000000
 56       0.000000000000
 57       0.000000000000
 58       0.000000000000
 59       0.000000000000
 60       0.000000000000
 61       0.000000000000
 62       0.000000000000
 63       0.000000000000
 64       0.000000000000
 65       0.000000000000
 66       0.000000000000
 67       0.000000000000
 68       0.000000000000
 69       0.000000000000
 70       0.000000000000
 71       0.000000000000
 72       0.000000000000
 73       0.000000000000
 74       0.000000000000
 75       0.000000000000
 76       0.000000000000
 77       0.000000000000
 78       0.000000000000
 79       0.000000000000
 80       0.000000000000
 81       0.000000000000
 82       0.000000000000
 83       0.000000000000
 84       0.000000000000
 85       0.000000000000
 86       0.000000000000
 87       0.000000000000
 88       0.000000000000
 89       0.000000000000
 90       0.000000000000
 91       0.000000000000
 92       0.000000000000
 93       0.000000000000
 94       0.000000000000
 95       0.000000000000
 96       0.000000000000
 97       0.000000000000
 98       0.000000000000
 99       0.000000000000
100       0.000000000000
101       0.000000000000
102       0.000000000000
103       0.000000000000
104       0.000000000000
105       0.000000000000
106       0.000000000000
107       0.000000000000
108       0.000000000000
109       0.000000000000
110       0.000000000000
111       0.000000000000
112       0.000000000000
113       0.000000000000
114       0.000000000000
115       0.000000000000
116       0.000000000000
117       0.000000000000
118       0.000000000000
119       0.000000000000
120       0.000000000000
121       0.000000000000
122       0.000000000000
123       0.000000000000
124       0.000000000000
125       0.000000000000
126       0.000000000000
127       0.000000000000
128       0.000000000000
129       0.000000000000
130       0.000000000000
131       0.000000000000
132       0.000000000000
133       0.000000000000
134       0.000000000000
135       0.000000000000
136       0.000000000000
137       0.000000000000
138       0.000000000000
139       0.000000000000
140       0.000000000000
141       0.000000000000
142       0.000000000000
143       0.000000000000
144       0.000000000000
145       0.000000000000
146       0.000000000000
147       0.000000000000
148       0.000000000000
149       0.000000000000
150       0.000000000000
151       0.000000000000
152       0.000000000000
153       0.000000000000
154       0.000000000000
155       0.000000000000
156       0.000000000000
157       0.000000000000
158       0.000000000000
159       0.000000000000
160       0.000000000000
161       0.000000000000
162       0.000000000000
163       0.000000000000
164       0.000000000000
165       0.000000000000
166       0.000000000000
167       0.000000000000
168       0.000000000000
169       0.000000000000
170       0.000000000000
171       0.000000000000
172       0.000000000000
 Sym=     1a
 Ene=  5.54999167151964E-02
Spin= Alpha
 Occup= 0.513813
  1       0.000000000000
  2       0.000000000000
  3       0.000000000000
  4       0.000000000000
  5       0.000000000000
  6       0.000000000000
  7       0.000000000000
  8       0.000000000000
  9       0.000000000000
 10       0.000000000000
 11       0.000000000000
 12       0.000000000000
 13       0.000000000000
 14       0.000000000000
 15       0.000000000000
 16       0.000000000000
 17       0.000000000000
 18       0.000000000000
 19      -0.367116194756
 20       0.000000000000
 21       0.000000000000
 22       0.000000000000
 23       0.000000000000
 24       1.145576618499
 25       0.000000000000
 26       0.000000000000
 27       0.000000000000
 28       0.000000000000
 29       0.000000000000
 30       0.000000000000
 31       0.000000000000
 32       0.000000000000
 33       0.000000000000
 34       0.000000000000
 35       0.000000000000
 36       0.000000000000
 37       0.000000000000
 38       0.000000000000
 39       0.000000000000
 40       0.000000000000
 41       0.000000000000
 42       0.000000000000
 43       0.000000000000
 44       0.000000000000
 45       0.000000000000
 46       0.000000000000
 47       0.000000000000
 48       0.000000000000
 49       0.000000000000
 50       0.000000000000
 51       0.000000000000
 52       0.000000000000
 53       0.000000000000
 54       0.000000000000
 55       0.000000000000
 56       0.000000000000
 57       0.000000000000
 58       0.000000000000
 59       0.000000000000
 60       0.000000000000
 61       0.000000000000
 62       0.000000000000
 63       0.000000000000
 64       0.000000000000
 65       0.000000000000
 66       0.000000000000
 67       0.000000000000
 68       0.000000000000
 69       0.000000000000
 70       0.000000000000
 71       0.000000000000
 72       0.000000000000
 73       0.000000000000
 74       0.000000000000
 75       0.000000000000
 76       0.000000000000
 77       0.000000000000
 78       0.000000000000
 79       0.000000000000
 80       0.000000000000
 81       0.000000000000
 82       0.000000000000
 83       0.000000000000
 84       0.000000000000
 85       0.000000000000
 86       0.000000000000
 87       0.000000000000
 88       0.000000000000
 89       0.000000000000
 90       0.000000000000
 91       0.000000000000
 92       0.000000000000
 93       0.000000000000
 94       0.000000000000
 95       0.000000000000
 96       0.000000000000
 97       0.000000000000
 98       0.000000000000
 99       0.000000000000
100       0.000000000000
101       0.000000000000
102       0.000000000000
103       0.000000000000
104       0.000000000000
105       0.000000000000
106       0.000000000000
107       0.000000000000
108       0.000000000000
109       0.000000000000
110       0.000000000000
111       0.000000000000
112       0.000000000000
113       0.000000000000
114       0.000000000000
115       0.000000000000
116       0.000000000000
117       0.000000000000
118       0.000000000000
119       0.000000000000
120       0.000000000000
121       0.000000000000
122       0.000000000000
123       0.000000000000
124       0.000000000000
125       0.000000000000
126       0.000000000000
127       0.000000000000
128       0.000000000000
129       0.000000000000
130       0.000000000000
131       0.000000000000
132       0.000000000000
133       0.000000000000
134       0.000000000000
135       0.000000000000
136       0.000000000000
137       0.000000000000
138       0.000000000000
139       0.000000000000
140       0.000000000000
141       0.000000000000
142       0.000000000000
143       0.000000000000
144       0.000000000000
145       0.000000000000
146       0.000000000000
147       0.000000000000
148       0.000000000000
149       0.000000000000
150       0.000000000000
151       0.000000000000
152       0.000000000000
153       0.000000000000
154       0.000000000000
155       0.000000000000
156       0.000000000000
157       0.000000000000
158       0.000000000000
159       0.000000000000
160       0.000000000000
161       0.000000000000
162       0.000000000000
163       0.000000000000
164       0.000000000000
165       0.000000000000
166       0.000000000000
167       0.000000000000
168       0.000000000000
169       0.000000000000
170       0.000000000000
171       0.000000000000
172       0.000000000000
 Sym=     1a
 Ene=  2.65576242177708E+00
Spin= Alpha
 Occup= 0.040087
  1       0.000000000000
  2       0.000000000000
  3       0.000000000000
  4       0.000000000000
  5       0.000000000000
  6       0.000000000000
  7       0.000000000000
  8       0.000000000000
  9       0.000000000000
 10       0.000000000000
 11       0.000000000000
 12       0.000000000000
 13       0.000000000000
 14       0.000000000000
 15       0.000000000000
 16       0.000000000000
 17       0.000000000000
 18       0.000000000000
 19       0.000000000000
 20       0.000000000000
 21       0.000000000000
 22       0.000000000000
 23       0.000000000000
 24       0.000000000000
 25       1.000000000000
 26       0.000000000000
 27       0.000000000000
 28       0.000000000000
 29       0.000000000000
 30       0.000000000000
 31       0.000000000000
 32       0.000000000000
 33       0.000000000000
 34       0.000000000000
 35       0.000000000000
 36       0.000000000000
 37       0.000000000000
 38       0.000000000000
 39       0.000000000000
 40       0.000000000000
 41       0.000000000000
 42       0.000000000000
 43       0.000000000000
 44       0.000000000000
 45       0.000000000000
 46       0.000000000000
 47       0.000000000000
 48       0.000000000000
 49       0.000000000000
 50       0.000000000000
 51       0.000000000000
 52       0.000000000000
 53       0.000000000000
 54       0.000000000000
 55       0.000000000000
 56       0.000000000000
 57       0.000000000000
 58       0.000000000000
 59       0.000000000000
 60       0.000000000000
 61       0.000000000000
 62       0.000000000000
 63       0.000000000000
 64       0.000000000000
 65       0.000000000000
 66       0.000000000000
 67       0.000000000000
 68       0.000000000000
 69       0.000000000000
 70       0.000000000000
 71       0.000000000000
 72       0.000000000000
 73       0.000000000000
 74       0.000000000000
 75       0.000000000000
 76       0.000000000000
 77       0.000000000000
 78       0.000000000000
 79       0.000000000000
 80       0.000000000000
 81       0.000000000000
 82       0.000000000000
 83       0.000000000000
 84       0.000000000000
 85       0.000000000000
 86       0.000000000000
 87       0.000000000000
 88       0.000000000000
 89       0.000000000000
 90       0.000000000000
 91       0.000000000000
 92       0.000000000000
 93       0.000000000000
 94       0.000000000000
 95       0.000000000000
 96       0.000000000000
 97       0.000000000000
 98       0.000000000000
 99       0.000000000000
100       0.000000000000
101       0.000000000000
102       0.000000000000
103       0.000000000000
104       0.000000000000
105       0.000000000000
106       0.000000000000
107       0.000000000000
108       0.000000000000
109       0.000000000000
110       0.000000000000
111       0.000000000000
112       0.000000000000
113       0.000000000000
114       0.000000000000
115       0.000000000000
116       0.000000000000
117       0.000000000000
118       0.000000000000
119       0.000000000000
120       0.000000000000
121       0.000000000000
122       0.000000000000
123       0.000000000000
124       0.000000000000
125       0.000000000000
126       0.000000000000
127       0.000000000000
128       0.000000000000
129       0.000000000000
130       0.000000000000
131       0.000000000000
132       0.000000000000
133       0.000000000000
134       0.000000000000
135       0.000000000000
136       0.000000000000
137       0.000000000000
138       0.000000000000
139       0.000000000000
140       0.000000000000
141       0.000000000000
142       0.000000000000
143       0.000000000000
144       0.000000000000
145       0.000000000000
146       0.000000000000
147       0.000000000000
148       0.000000000000
149       0.000000000000
150       0.000000000000
151       0.000000000000
152       0.000000000000
153       0.000000000000
154       0.000000000000
155       0.000000000000
156       0.000000000000
157       0.000000000000
158       0.000000000000
159       0.000000000000
160       0.000000000000
161       0.000000000000
162       0.000000000000
163       0.000000000000
164       0.000000000000
165       0.000000000000
166       0.000000000000
167       0.000000000000
168       0.000000000000
169       0.000000000000
170       0.000000000000
171       0.000000000000
172       0.000000000000
 Sym=     1a
 Ene=  2.64851827134743E+00
Spin= Alpha
 Occup= 0.040087
  1       0.000000000000
  2       0.000000000000
  3       0.000000000000
  4       0.000000000000
  5       0.000000000000
  6       0.000000000000
  7       0.000000000000
  8       0.000000000000
  9       0.000000000000
 10       0.000000000000
 11       0.000000000000
 12       0.000000000000
 13       0.000000000000
 14       0.000000000000
 15       0.000000000000
 16       0.000000000000
 17       0.000000000000
 18       0.000000000000
 19       0.000000000000
 20       0.000000000000
 21       0.000000000000
 22       0.000000000000
 23       0.000000000000
 24       0.000000000000
 25       0.000000000000
 26       1.000000000000
 27       0.000000000000
 28       0.000000000000
 29       0.000000000000
 30       0.000000000000
 31       0.000000000000
 32       0.000000000000
 33       0.000000000000
 34       0.000000000000
 35       0.000000000000
 36       0.000000000000
 37       0.000000000000
 38       0.000000000000
 39       0.000000000000
 40       0.000000000000
 41       0.000000000000
 42       0.000000000000
 43       0.000000000000
 44       0.000000000000
 45       0.000000000000
 46       0.000000000000
 47       0.000000000000
 48       0.000000000000
 49       0.000000000000
 50       0.000000000000
 51       0.000000000000
 52       0.000000000000
 53       0.000000000000
 54       0.000000000000
 55       0.000000000000
 56       0.000000000000
 57       0.000000000000
 58       0.000000000000
 59       0.000000000000
 60       0.000000000000
 61       0.000000000000
 62       0.000000000000
 63       0.000000000000
 64       0.000000000000
 65       0.000000000000
 66       0.000000000000
 67       0.000000000000
 68       0.000000000000
 69       0.000000000000
 70       0.000000000000
 71       0.000000000000
 72       0.000000000000
 73       0.000000000000
 74       0.000000000000
 75       0.000000000000
 76       0.000000000000
 77       0.000000000000
 78       0.000000000000
 79       0.000000000000
 80       0.000000000000
 81       0.000000000000
 82       0.000000000000
 83       0.000000000000
 84       0.000000000000
 85       0.000000000000
 86       0.000000000000
 87       0.000000000000
 88       0.000000000000
 89       0.000000000000
 90       0.000000000000
 91       0.000000000000
 92       0.000000000000
 93       0.000000000000
 94       0.000000000000
 95       0.000000000000
 96       0.000000000000
 97       0.000000000000
 98       0.000000000000
 99       0.000000000000
100       0.000000000000
101       0.000000000000
102       0.000000000000
103       0.000000000000
104       0.000000000000
105       0.000000000000
106       0.000000000000
107       0.000000000000
108       0.000000000000
109       0.000000000000
110       0.000000000000
111       0.000000000000
112       0.000000000000
113       0.000000000000
114       0.000000000000
115       0.000000000000
116       0.000000000000
117       0.000000000000
118       0.000000000000
119       0.000000000000
120       0.000000000000
121       0.000000000000
122       0.000000000000
123       0.000000000000
124       0.000000000000
125       0.000000000000
126       0.000000000000
127       0.000000000000
128       0.000000000000
129       0.000000000000
130       0.000000000000
131       0.000000000000
132       0.000000000000
133       0.000000000000
134       0.000000000000
135       0.000000000000
136       0.000000000000
137       0.000000000000
138       0.000000000000
139       0.000000000000
140       0.000000000000
141       0.000000000000
142       0.000000000000
143       0.000000000000
144       0.000000000000
145       0.000000000000
146       0.000000000000
147       0.000000000000
148       0.000000000000
149       0.000000000000
150       0.000000000000
151       0.000000000000
152       0.000000000000
153       0.000000000000
154       0.000000000000
155       0.000000000000
156       0.000000000000
157       0.000000000000
158       0.000000000000
159       0.000000000000
160       0.000000000000
161       0.000000000000
162       0.000000000000
163       0.000000000000
164       0.000000000000
165       0.000000000000
166       0.000000000000
167       0.000000000000
168       0.000000000000
169       0.000000000000
170       0.000000000000
171       0.000000000000
172       0.000000000000
 Sym=     1a
 Ene=  2.56447142210537E+00
Spin= Alpha
 Occup= 0.040087
  1       0.000000000000
  2       0.000000000000
  3       0.000000000000
  4       0.000000000000
  5       0.000000000000
  6       0.000000000000
  7       0.000000000000
  8       0.000000000000
  9       0.000000000000
 10       0.000000000000
 11       0.000000000000
 12       0.000000000000
 13       0.000000000000
 14       0.000000000000
 15       0.000000000000
 16       0.000000000000
 17       0.000000000000
 18       0.000000000000
 19       0.000000000000
 20       0.000000000000
 21       0.000000000000
 22       0.000000000000
 23       0.000000000000
 24       0.000000000000
 25       0.000000000000
 26       0.000000000000
 27       1.000000000000
 28       0.000000000000
 29       0.000000000000
 30       0.000000000000
 31       0.000000000000
 32       0.000000000000
 33       0.000000000000
 34       0.000000000000
 35       0.000000000000
 36       0.000000000000
 37       0.000000000000
 38       0.000000000000
 39       0.000000000000
 40       0.000000000000
 41       0.000000000000
 42       0.000000000000
 43       0.000000000000
 44       0.000000000000
 45       0.000000000000
 46       0.000000000000
 47       0.000000000000
 48       0.000000000000
 49       0.000000000000
 50       0.000000000000
 51       0.000000000000
 52       0.000000000000
 53       0.000000000000
 54       0.000000000000
 55       0.000000000000
 56       0.000000000000
 57       0.000000000000
 58       0.000000000000
 59       0.000000000000
 60       0.000000000000
 61       0.000000000000
 62       0.000000000000
 63       0.000000000000
 64       0.000000000000
 65       0.000000000000
 66       0.000000000000
 67       0.000000000000
 68       0.000000000000
 69       0.000000000000
 70       0.000000000000
 71       0.000000000000
 72       0.000000000000
 73       0.000000000000
 74       0.000000000000
 75       0.000000000000
 76       0.000000000000
 77       0.000000000000
 78       0.000000000000
 79       0.000000000000
 80       0.000000000000
 81       0.000000000000
 82       0.000000000000
 83       0.000000000000
 84       0.000000000000
 85       0.000000000000
 86       0.000000000000
 87       0.000000000000
 88       0.000000000000
 89       0.000000000000
 90       0.000000000000
 91       0.000000000000
 92       0.000000000000
 93       0.000000000000
 94       0.000000000000
 95       0.000000000000
 96       0.000000000000
 97       0.000000000000
 98       0.000000000000
 99       0.000000000000
100       0.000000000000
101       0.000000000000
102       0.000000000000
103       0.000000000000
104       0.000000000000
105       0.000000000000
106       0.000000000000
107       0.000000000000
108       0.000000000000
109       0.000000000000
110       0.000000000000
111       0.000000000000
112       0.000000000000
113       0.000000000000
114       0.000000000000
115       0.000000000000
116       0.000000000000
117       0.000000000000
118       0.000000000000
119       0.000000000000
120       0.000000000000
121       0.000000000000
122       0.000000000000
123       0.000000000000
124       0.000000000000
125       0.000000000000
126       0.000000000000
127       0.000000000000
128       0.000000000000
129       0.000000000000
130       0.000000000000
131       0.000000000000
132       0.000000000000
133       0.000000000000
134       0.000000000000
135       0.000000000000
136       0.000000000000
137       0.000000000000
138       0.000000000000
139       0.000000000000
140       0.000000000000
141       0.000000000000
142       0.000000000000
143       0.000000000000
144       0.000000000000
145       0.000000000000
146       0.000000000000
147       0.000000000000
148       0.000000000000
149       0.000000000000
150       0.000000000000
151       0.000000000000
152       0.000000000000
153       0.000000000000
154       0.000000000000
155       0.000000000000
156       0.000000000000
157       0.000000000000
158       0.000000000000
159       0.000000000000
160       0.000000000000
161       0.000000000000
162       0.000000000000
163       0.000000000000
164       0.000000000000
165       0.000000000000
166       0.000000000000
167       0.000000000000
168       0.000000000000
169       0.000000000000
170       0.000000000000
171       0.000000000000
172       0.000000000000
 Sym=     1a
 Ene=  2.61611511546036E+00
Spin= Alpha
 Occup= 0.040087
  1       0.000000000000
  2       0.000000000000
  3       0.000000000000
  4       0.000000000000
  5       0.000000000000
  6       0.000000000000
  7       0.000000000000
  8       0.000000000000
  9       0.000000000000
 10       0.000000000000
 11       0.000000000000
 12       0.000000000000
 13       0.000000000000
 14       0.000000000000
 15       0.000000000000
 16       0.000000000000
 17       0.000000000000
 18       0.000000000000
 19       0.000000000000
 20       0.000000000000
 21       0.000000000000
 22       0.000000000000
 23       0.000000000000
 24       0.000000000000
 25       0.000000000000
 26       0.000000000000
 27       0.000000000000
 28       1.000000000000
 29       0.000000000000
 30       0.000000000000
 31       0.000000000000
 32       0.000000000000
 33       0.000000000000
 34       0.000000000000
 35       0.000000000000
 36       0.000000000000
 37       0.000000000000
 38       0.000000000000
 39       0.000000000000
 40       0.000000000000
 41       0.000000000000
 42       0.000000000000
 43       0.000000000000
 44       0.000000000000
 45       0.000000000000
 46       0.000000000000
 47       0.000000000000
 48       0.000000000000
 49       0.000000000000
 50       0.000000000000
 51       0.000000000000
 52       0.000000000000
 53       0.000000000000
 54       0.000000000000
 55       0.000000000000
 56       0.000000000000
 57       0.000000000000
 58       0.000000000000
 59       0.000000000000
 60       0.000000000000
 61       0.000000000000
 62       0.000000000000
 63       0.000000000000
 64       0.000000000000
 65       0.000000000000
 66       0.000000000000
 67       0.000000000000
 68       0.000000000000
 69       0.000000000000
 70       0.000000000000
 71       0.000000000000
 72       0.000000000000
 73       0.000000000000
 74       0.000000000000
 75       0.000000000000
 76       0.000000000000
 77       0.000000000000
 78       0.000000000000
 79       0.000000000000
 80       0.000000000000
 81       0.000000000000
 82       0.000000000000
 83       0.000000000000
 84       0.000000000000
 85       0.000000000000
 86       0.000000000000
 87       0.000000000000
 88       0.000000000000
 89       0.000000000000
 90       0.000000000000
 91       0.000000000000
 92       0.000000000000
 93       0.000000000000
 94       0.000000000000
 95       0.000000000000
 96       0.000000000000
 97       0.000000000000
 98       0.000000000000
 99       0.000000000000
100       0.000000000000
101       0.000000000000
102       0.000000000000
103       0.000000000000
104       0.000000000000
105       0.000000000000
106       0.000000000000
107       0.000000000000
108       0.000000000000
109       0.000000000000
110       0.000000000000
111       0.000000000000
112       0.000000000000
113       0.000000000000
114       0.000000000000
115       0.000000000000
116       0.000000000000
117       0.000000000000
118       0.000000000000
119       0.000000000000
120       0.000000000000
121       0.000000000000
122       0.000000000000
123       0.000000000000
124       0.000000000000
125       0.000000000000
126       0.000000000000
127       0.000000000000
128       0.000000000000
129       0.000000000000
130       0.000000000000
131       0.000000000000
132       0.000000000000
133       0.000000000000
134       0.000000000000
135       0.000000000000
136       0.000000000000
137       0.000000000000
138       0.000000000000
139       0.000000000000
140       0.000000000000
141       0.000000000000
142       0.000000000000
143       0.000000000000
144       0.000000000000
145       0.000000000000
146       0.000000000000
147       0.000000000000
148       0.000000000000
149       0.000000000000
150       0.000000000000
151       0.000000000000
152       0.000000000000
153       0.000000000000
154       0.000000000000
155       0.000000000000
156       0.000000000000
157       0.000000000000
158       0.000000000000
159       0.000000000000
160       0.000000000000
161       0.000000000000
162       0.000000000000
163       0.000000000000
164       0.000000000000
165       0.000000000000
166       0.000000000000
167       0.000000000000
168       0.000000000000
169       0.000000000000
170       0.000000000000
171       0.000000000000
172       0.000000000000
 Sym=     1a
 Ene=  2.62697866504488E+00
Spin= Alpha
 Occup= 0.040087
  1       0.000000000000
  2       0.000000000000
  3       0.000000000000
  4       0.000000000000
  5       0.000000000000
  6       0.000000000000
  7       0.000000000000
  8       0.000000000000
  9       0.000000000000
 10       0.000000000000
 11       0.000000000000
 12       0.000000000000
 13       0.000000000000
 14       0.000000000000
 15       0.000000000000
 16       0.000000000000
 17       0.000000000000
 18       0.000000000000
 19       0.000000000000
 20       0.000000000000
 21       0.000000000000
 22       0.000000000000
 23       0.000000000000
 24       0.000000000000
 25       0.000000000000
 26       0.000000000000
 27       0.000000000000
 28       0.000000000000
 29       1.000000000000
 30       0.000000000000
 31       0.000000000000
 32       0.000000000000
 33       0.000000000000
 34       0.000000000000
 35       0.000000000000
 36       0.000000000000
 37       0.000000000000
 38       0.000000000000
 39       0.000000000000
 40       0.000000000000
 41       0.000000000000
 42       0.000000000000
 43       0.000000000000
 44       0.000000000000
 45       0.000000000000
 46       0.000000000000
 47       0.000000000000
 48       0.000000000000
 49       0.000000000000
 50       0.000000000000
 51       0.000000000000
 52       0.000000000000
 53       0.000000000000
 54       0.000000000000
 55       0.000000000000
 56       0.000000000000
 57       0.000000000000
 58       0.000000000000
 59       0.000000000000
 60       0.000000000000
 61       0.000000000000
 62       0.000000000000
 63       0.000000000000
 64       0.000000000000
 65       0.000000000000
 66       0.000000000000
 67       0.000000000000
 68       0.000000000000
 69       0.000000000000
 70       0.000000000000
 71       0.000000000000
 72       0.000000000000
 73       0.000000000000
 74       0.000000000000
 75       0.000000000000
 76       0.000000000000
 77       0.000000000000
 78       0.000000000000
 79       0.000000000000
 80       0.000000000000
 81       0.000000000000
 82       0.000000000000
 83       0.000000000000
 84       0.000000000000
 85       0.000000000000
 86       0.000000000000
 87       0.000000000000
 88       0.000000000000
 89       0.000000000000
 90       0.000000000000
 91       0.000000000000
 92       0.000000000000
 93       0.000000000000
 94       0.000000000000
 95       0.000000000000
 96       0.000000000000
 97       0.000000000000
 98       0.000000000000
 99       0.000000000000
100       0.000000000000
101       0.000000000000
102       0.000000000000
103       0.000000000000
104       0.000000000000
105       0.000000000000
106       0.000000000000
107       0.000000000000
108       0.000000000000
109       0.000000000000
110       0.000000000000
111       0.000000000000
112       0.000000000000
113       0.000000000000
114       0.000000000000
115       0.000000000000
116       0.000000000000
117       0.000000000000
118       0.000000000000
119       0.000000000000
120       0.000000000000
121       0.000000000000
122       0.000000000000
123       0.000000000000
124       0.000000000000
125       0.000000000000
126       0.000000000000
127       0.000000000000
128       0.000000000000
129       0.000000000000
130       0.000000000000
131       0.000000000000
132       0.000000000000
133       0.000000000000
134       0.000000000000
135       0.000000000000
136       0.000000000000
137       0.000000000000
138       0.000000000000
139       0.000000000000
140       0.000000000000
141       0.000000000000
142       0.000000000000
143       0.000000000000
144       0.000000000000
145       0.000000000000
146       0.000000000000
147       0.000000000000
148       0.000000000000
149       0.000000000000
150       0.000000000000
151       0.000000000000
152       0.000000000000
153       0.000000000000
154       0.000000000000
155       0.000000000000
156       0.000000000000
157       0.000000000000
158       0.000000000000
159       0.000000000000
160       0.000000000000
161       0.000000000000
162       0.000000000000
163       0.000000000000
164       0.000000000000
165       0.000000000000
166       0.000000000000
167       0.000000000000
168       0.000000000000
169       0.000000000000
170       0.000000000000
171       0.000000000000
172       0.000000000000
 Sym=     1a
 Ene=  2.44878863398776E+00
Spin= Alpha
 Occup= 0.040087
  1       0.000000000000
  2       0.000000000000
  3       0.000000000000
  4       0.000000000000
  5       0.000000000000
  6       0.000000000000
  7       0.000000000000
  8       0.000000000000
  9       0.000000000000
 10       0.000000000000
 11       0.000000000000
 12       0.000000000000
 13       0.000000000000
 14       0.000000000000
 15       0.000000000000
 16       0.000000000000
 17       0.000000000000
 18       0.000000000000
 19       0.000000000000
 20       0.000000000000
 21       0.000000000000
 22       0.000000000000
 23       0.000000000000
 24       0.000000000000
 25       0.000000000000
 26       0.000000000000
 27       0.000000000000
 28       0.000000000000
 29       0.000000000000
 30       1.000000000000
 31       0.000000000000
 32       0.000000000000
 33       0.000000000000
 34       0.000000000000
 35       0.000000000000
 36       0.000000000000
 37       0.000000000000
 38       0.000000000000
 39       0.000000000000
 40       0.000000000000
 41       0.000000000000
 42       0.000000000000
 43       0.000000000000
 44       0.000000000000
 45       0.000000000000
 46       0.000000000000
 47       0.000000000000
 48       0.000000000000
 49       0.000000000000
 50       0.000000000000
 51       0.000000000000
 52       0.000000000000
 53       0.000000000000
 54       0.000000000000
 55       0.000000000000
 56       0.000000000000
 57       0.000000000000
 58       0.000000000000
 59       0.000000000000
 60       0.000000000000
 61       0.000000000000
 62       0.000000000000
 63       0.000000000000
 64       0.000000000000
 65       0.000000000000
 66       0.000000000000
 67       0.000000000000
 68       0.000000000000
 69       0.000000000000
 70       0.000000000000
 71       0.000000000000
 72       0.000000000000
 73       0.000000000000
 74       0.000000000000
 75       0.000000000000
 76       0.000000000000
 77       0.000000000000
 78       0.000000000000
 79       0.000000000000
 80       0.000000000000
 81       0.000000000000
 82       0.000000000000
 83       0.000000000000
 84       0.000000000000
 85       0.000000000000
 86       0.000000000000
 87       0.000000000000
 88       0.000000000000
 89       0.000000000000
 90       0.000000000000
 91       0.000000000000
 92       0.000000000000
 93       0.000000000000
 94       0.000000000000
 95       0.000000000000
 96       0.000000000000
 97       0.000000000000
 98       0.000000000000
 99       0.000000000000
100       0.000000000000
101       0.000000000000
102       0.000000000000
103       0.000000000000
104       0.000000000000
105       0.000000000000
106       0.000000000000
107       0.000000000000
108       0.000000000000
109       0.000000000000
110       0.000000000000
111       0.000000000000
112       0.000000000000
113       0.000000000000
114       0.000000000000
115       0.000000000000
116       0.000000000000
117       0.000000000000
118       0.000000000000
119       0.000000000000
120       0.000000000000
121       0.000000000000
122       0.000000000000
123       0.000000000000
124       0.000000000000
125       0.000000000000
126       0.000000000000
127       0.000000000000
128       0.000000000000
129       0.000000000000
130       0.000000000000
131       0.000000000000
132       0.000000000000
133       0.000000000000
134       0.000000000000
135       0.000000000000
136       0.000000000000
137       0.000000000000
138       0.000000000000
139       0.000000000000
140       0.000000000000
141       0.000000000000
142       0.000000000000
143       0.000000000000
144       0.000000000000
145       0.000000000000
146       0.000000000000
147       0.000000000000
148       0.000000000000
149       0.000000000000
150       0.000000000000
151       0.000000000000
152       0.000000000000
153       0.000000000000
154       0.000000000000
155       0.000000000000
156       0.000000000000
157       0.000000000000
158       0.000000000000
159       0.000000000000
160       0.000000000000
161       0.000000000000
162       0.000000000000
163       0.000000000000
164       0.000000000000
165       0.000000000000
166       0.000000000000
167       0.000000000000
168       0.000000000000
169       0.000000000000
170       0.000000000000
171       0.000000000000
172       0.000000000000
 Sym=     1a
 Ene=  2.29698938295535E+00
Spin= Alpha
 Occup= 0.040087
  1       0.000000000000
  2       0.000000000000
  3       0.000000000000
  4       0.000000000000
  5       0.000000000000
  6       0.000000000000
  7       0.000000000000
  8       0.000000000000
  9       0.000000000000
 10       0.000000000000
 11       0.000000000000
 12       0.000000000000
 13       0.000000000000
 14       0.000000000000
 15       0.000000000000
 16       0.000000000000
 17       0.000000000000
 18       0.000000000000
 19       0.000000000000
 20       0.000000000000
 21       0.000000000000
 22       0.000000000000
 23       0.000000000000
 24       0.000000000000
 25       0.000000000000
 26       0.000000000000
 27       0.000000000000
 28       0.000000000000
 29       0.000000000000
 30       0.000000000000
 31       1.000000000000
 32       0.000000000000
 33       0.000000000000
 34       0.000000000000
 35       0.000000000000
 36       0.000000000000
 37       0.000000000000
 38       0.000000000000
 39       0.000000000000
 40       0.000000000000
 41       0.000000000000
 42       0.000000000000
 43       0.000000000000
 44       0.000000000000
 45       0.000000000000
 46       0.000000000000
 47       0.000000000000
 48       0.000000000000
 49       0.000000000000
 50       0.000000000000
 51       0.000000000000
 52       0.000000000000
 53       0.000000000000
 54       0.000000000000
 55       0.000000000000
 56       0.000000000000
 57       0.000000000000
 58       0.000000000000
 59       0.000000000000
 60       0.000000000000
 61       0.000000000000
 62       0.000000000000
 63       0.000000000000
 64       0.000000000000
 65       0.000000000000
 66       0.000000000000
 67       0.000000000000
 68       0.000000000000
 69       0.000000000000
 70       0.000000000000
 71       0.000000000000
 72       0.000000000000
 73       0.000000000000
 74       0.000000000000
 75       0.000000000000
 76       0.000000000000
 77       0.000000000000
 78       0.000000000000
 79       0.000000000000
 80       0.000000000000
 81       0.000000000000
 82       0.000000000000
 83       0.000000000000
 84       0.000000000000
 85       0.000000000000
 86       0.000000000000
 87       0.000000000000
 88       0.000000000000
 89       0.000000000000
 90       0.000000000000
 91       0.000000000000
 92       0.000000000000
 93       0.000000000000
 94       0.000000000000
 95       0.000000000000
 96       0.000000000000
 97       0.000000000000
 98       0.000000000000
 99       0.000000000000
100       0.000000000000
101       0.000000000000
102       0.000000000000
103       0.000000000000
104       0.000000000000
105       0.000000000000
106       0.000000000000
107       0.000000000000
108       0.000000000000
109       0.000000000000
110       0.000000000000
111       0.000000000000
112       0.000000000000
113       0.000000000000
114       0.000000000000
115       0.000000000000
116       0.000000000000
117       0.000000000000
118       0.000000000000
119       0.000000000000
120       0.000000000000
121       0.000000000000
122       0.000000000000
123       0.000000000000
124       0.000000000000
125       0.000000000000
126       0.000000000000
127       0.000000000000
128       0.000000000000
129       0.000000000000
130       0.000000000000
131       0.000000000000
132       0.000000000000
133       0.000000000000
134       0.000000000000
135       0.000000000000
136       0.000000000000
137       0.000000000000
138       0.000000000000
139       0.000000000000
140       0.000000000000
141       0.000000000000
142       0.000000000000
143       0.000000000000
144       0.000000000000
145       0.000000000000
146       0.000000000000
147       0.000000000000
148       0.000000000000
149       0.000000000000
150       0.000000000000
151       0.000000000000
152       0.000000000000
153       0.000000000000
154       0.000000000000
155       0.000000000000
156       0.000000000000
157       0.000000000000
158       0.000000000000
159       0.000000000000
160       0.000000000000
161       0.000000000000
162       0.000000000000
163       0.000000000000
164       0.000000000000
165       0.000000000000
166       0.000000000000
167       0.000000000000
168       0.000000000000
169       0.000000000000
170       0.000000000000
171       0.000000000000
172       0.000000000000
 Sym=     1a
 Ene=  2.01767010488605E+01
Spin= Alpha
 Occup= 0.000022
  1       0.000000000000
  2       0.000000000000
  3       0.000000000000
  4       0.000000000000
  5       0.000000000000
  6       0.000000000000
  7       0.000000000000
  8       0.000000000000
  9       0.000000000000
 10       0.000000000000
 11       0.000000000000
 12       0.000000000000
 13       0.000000000000
 14       0.000000000000
 15       0.000000000000
 16       0.000000000000
 17       0.000000000000
 18       0.000000000000
 19       0.000000000000
 20       0.000000000000
 21       0.000000000000
 22       0.000000000000
 23       0.000000000000
 24       0.000000000000
 25       0.000000000000
 26       0.000000000000
 27       0.000000000000
 28       0.000000000000
 29       0.000000000000
 30       0.000000000000
 31       0.000000000000
 32      -1.370057917755
 33       1.502426191098
 34      -0.554291123067
 35       0.185451406985
 36      -0.025848250848
 37       0.000000000000
 38       0.000000000000
 39       0.000000000000
 40       0.000000000000
 41       0.000000000000
 42       0.000000000000
 43       0.000000000000
 44       0.000000000000
 45       0.000000000000
 46       0.000000000000
 47       0.000000000000
 48       0.000000000000
 49       0.000000000000
 50       0.000000000000
 51       0.000000000000
 52       0.000000000000
 53       0.000000000000
 54       0.000000000000
 55       0.000000000000
 56       0.000000000000
 57       0.000000000000
 58       0.000000000000
 59       0.000000000000
 60       0.000000000000
 61       0.000000000000
 62       0.000000000000
 63       0.000000000000
 64       0.000000000000
 65       0.000000000000
 66       0.000000000000
 67       0.000000000000
 68       0.000000000000
 69       0.000000000000
 70       0.000000000000
 71       0.000000000000
 72       0.000000000000
 73       0.000000000000
 74       0.000000000000
 75       0.000000000000
 76       0.000000000000
 77       0.000000000000
 78       0.000000000000
 79       0.000000000000
 80       0.000000000000
 81       0.000000000000
 82       0.000000000000
 83       0.000000000000
 84       0.000000000000
 85       0.000000000000
 86       0.000000000000
 87       0.000000000000
 88       0.000000000000
 89       0.000000000000
 90       0.000000000000
 91       0.000000000000
 92       0.000000000000
 93       0.000000000000
 94       0.000000000000
 95       0.000000000000
 96       0.000000000000
 97       0.000000000000
 98       0.000000000000
 99       0.000000000000
100       0.000000000000
101       0.000000000000
102       0.000000000000
103       0.000000000000
104       0.000000000000
105       0.000000000000
106       0.000000000000
107       0.000000000000
108       0.000000000000
109       0.000000000000
110       0.000000000000
111       0.000000000000
112       0.000000000000
113       0.000000000000
114       0.000000000000
115       0.000000000000
116       0.000000000000
117       0.000000000000
118       0.000000000000
119       0.000000000000
120       0.000000000000
121       0.000000000000
122       0.000000000000
123       0.000000000000
124       0.000000000000
125       0.000000000000
126       0.000000000000
127       0.000000000000
128       0.000000000000
129       0.000000000000
130       0.000000000000
131       0.000000000000
132       0.000000000000
133       0.000000000000
134       0.000000000000
135       0.000000000000
136       0.000000000000
137       0.000000000000
138       0.000000000000
139       0.000000000000
140       0.000000000000
141       0.000000000000
142       0.000000000000
143       0.000000000000
144       0.000000000000
145       0.000000000000
146       0.000000000000
147       0.000000000000
148       0.000000000000
149       0.000000000000
150       0.000000000000
151       0.000000000000
152       0.000000000000
153       0.000000000000
154       0.000000000000
155       0.000000000000
156       0.000000000000
157       0.000000000000
158       0.000000000000
159       0.000000000000
160       0.000000000000
161       0.000000000000
162       0.000000000000
163       0.000000000000
164       0.000000000000
165       0.000000000000
166       0.000000000000
167       0.000000000000
168       0.000000000000
169       0.000000000000
170       0.000000000000
171       0.000000000000
172       0.000000000000
 Sym=     1a
 Ene=  2.27731373470772E+00
Spin= Alpha
 Occup= 0.022515
  1       0.000000000000
  2       0.000000000000
  3       0.000000000000
  4       0.000000000000
  5       0.000000000000
  6       0.000000000000
  7       0.000000000000
  8       0.000000000000
  9       0.000000000000
 10       0.000000000000
 11       0.000000000000
 12       0.000000000000
 13       0.000000000000
 14       0.000000000000
 15       0.000000000000
 16       0.000000000000
 17       0.000000000000
 18       0.000000000000
 19       0.000000000000
 20       0.000000000000
 21       0.000000000000
 22       0.000000000000
 23       0.000000000000
 24       0.000000000000
 25       0.000000000000
 26       0.000000000000
 27       0.000000000000
 28       0.000000000000
 29       0.000000000000
 30       0.000000000000
 31       0.000000000000
 32      -0.180259976457
 33       0.840163101901
 34      -3.015739008419
 35       3.355500615098
 36      -1.135878962795
 37       0.000000000000
 38       0.000000000000
 39       0.000000000000
 40       0.000000000000
 41       0.000000000000
 42       0.000000000000
 43       0.000000000000
 44       0.000000000000
 45       0.000000000000
 46       0.000000000000
 47       0.000000000000
 48       0.000000000000
 49       0.000000000000
 50       0.000000000000
 51       0.000000000000
 52       0.000000000000
 53       0.000000000000
 54       0.000000000000
 55       0.000000000000
 56       0.000000000000
 57       0.000000000000
 58       0.000000000000
 59       0.000000000000
 60       0.000000000000
 61       0.000000000000
 62       0.000000000000
 63       0.000000000000
 64       0.000000000000
 65       0.000000000000
 66       0.000000000000
 67       0.000000000000
 68       0.000000000000
 69       0.000000000000
 70       0.000000000000
 71       0.000000000000
 72       0.000000000000
 73       0.000000000000
 74       0.000000000000
 75       0.000000000000
 76       0.000000000000
 77       0.000000000000
 78       0.000000000000
 79       0.000000000000
 80       0.000000000000
 81       0.000000000000
 82       0.000000000000
 83       0.000000000000
 84       0.000000000000
 85       0.000000000000
 86       0.000000000000
 87       0.000000000000
 88       0.000000000000
 89       0.000000000000
 90       0.000000000000
 91       0.000000000000
 92       0.000000000000
 93       0.000000000000
 94       0.000000000000
 95       0.000000000000
 96       0.000000000000
 97       0.000000000000
 98       0.000000000000
 99       0.000000000000
100       0.000000000000
101       0.000000000000
102       0.000000000000
103       0.000000000000
104       0.000000000000
105       0.000000000000
106       0.000000000000
107       0.000000000000
108       0.000000000000
109       0.000000000000
110       0.000000000000
111       0.000000000000
112       0.000000000000
113       0.000000000000
114       0.000000000000
115       0.000000000000
116       0.000000000000
117       0.000000000000
118       0.000000000000
119       0.000000000000
120       0.000000000000
121       0.000000000000
122       0.000000000000
123       0.000000000000
124       0.000000000000
125       0.000000000000
126       0.000000000000
127       0.000000000000
128       0.000000000000
129       0.000000000000
130       0.000000000000
131       0.000000000000
132       0.000000000000
133       0.000000000000
134       0.000000000000
135       0.000000000000
136       0.000000000000
137       0.000000000000
138       0.000000000000
139       0.000000000000
140       0.000000000000
141       0.000000000000
142       0.000000000000
143       0.000000000000
144       0.000000000000
145       0.000000000000
146       0.000000000000
147       0.000000000000
148       0.000000000000
149       0.000000000000
150       0.000000000000
151       0.000000000000
152       0.000000000000
153       0.000000000000
154       0.000000000000
155       0.000000000000
156       0.000000000000
157       0.000000000000
158       0.000000000000
159       0.000000000000
160       0.000000000000
161       0.000000000000
162       0.000000000000
163       0.000000000000
164       0.000000000000
165       0.000000000000
166       0.000000000000
167       0.000000000000
168       0.000000000000
169       0.000000000000
170       0.000000000000
171       0.000000000000
172       0.000000000000
 Sym=     1a
 Ene=  1.09797317143022E-01
Spin= Alpha
 Occup= 0.405331
  1       0.000000000000
  2       0.000000000000
  3       0.000000000000
  4       0.000000000000
  5       0.000000000000
  6       0.000000000000
  7       0.000000000000
  8       0.000000000000
  9       0.000000000000
 10       0.000000000000
 11       0.000000000000
 12       0.000000000000
 13       0.000000000000
 14       0.000000000000
 15       0.000000000000
 16       0.000000000000
 17       0.000000000000
 18       0.000000000000
 19       0.000000000000
 20       0.000000000000
 21       0.000000000000
 22       0.000000000000
 23       0.000000000000
 24       0.000000000000
 25       0.000000000000
 26       0.000000000000
 27       0.000000000000
 28       0.000000000000
 29       0.000000000000
 30       0.000000000000
 31       0.000000000000
 32       0.089398939940
 33      -0.070989303714
 34       0.844722657830
 35      -2.879914980947
 36       2.448750887695
 37       0.000000000000
 38       0.000000000000
 39       0.000000000000
 40       0.000000000000
 41       0.000000000000
 42       0.000000000000
 43       0.000000000000
 44       0.000000000000
 45       0.000000000000
 46       0.000000000000
 47       0.000000000000
 48       0.000000000000
 49       0.000000000000
 50       0.000000000000
 51       0.000000000000
 52       0.000000000000
 53       0.000000000000
 54       0.000000000000
 55       0.000000000000
 56       0.000000000000
 57       0.000000000000
 58       0.000000000000
 59       0.000000000000
 60       0.000000000000
 61       0.000000000000
 62       0.000000000000
 63       0.000000000000
 64       0.000000000000
 65       0.000000000000
 66       0.000000000000
 67       0.000000000000
 68       0.000000000000
 69       0.000000000000
 70       0.000000000000
 71       0.000000000000
 72       0.000000000000
 73       0.000000000000
 74       0.000000000000
 75       0.000000000000
 76       0.000000000000
 77       0.000000000000
 78       0.000000000000
 79       0.000000000000
 80       0.000000000000
 81       0.000000000000
 82       0.000000000000
 83       0.000000000000
 84       0.000000000000
 85       0.000000000000
 86       0.000000000000
 87       0.000000000000
 88       0.000000000000
 89       0.000000000000
 90       0.000000000000
 91       0.000000000000
 92       0.000000000000
 93       0.000000000000
 94       0.000000000000
 95       0.000000000000
 96       0.000000000000
 97       0.000000000000
 98       0.000000000000
 99       0.000000000000
100       0.000000000000
101       0.000000000000
102       0.000000000000
103       0.000000000000
104       0.000000000000
105       0.000000000000
106       0.000000000000
107       0.000000000000
108       0.000000000000
109       0.000000000000
110       0.000000000000
111       0.000000000000
112       0.000000000000
113       0.000000000000
114       0.000000000000
115       0.000000000000
116       0.000000000000
117       0.000000000000
118       0.000000000000
119       0.000000000000
120       0.000000000000
121       0.000000000000
122       0.000000000000
123       0.000000000000
124       0.000000000000
125       0.000000000000
126       0.000000000000
127       0.000000000000
128       0.000000000000
129       0.000000000000
130       0.000000000000
131       0.000000000000
132       0.000000000000
133       0.000000000000
134       0.000000000000
135       0.000000000000
136       0.000000000000
137       0.000000000000
138       0.000000000000
139       0.000000000000
140       0.000000000000
141       0.000000000000
142       0.000000000000
143       0.000000000000
144       0.000000000000
145       0.000000000000
146       0.000000000000
147       0.000000000000
148       0.000000000000
149       0.000000000000
150       0.000000000000
151       0.000000000000
152       0.000000000000
153       0.000000000000
154       0.000000000000
155       0.000000000000
156       0.000000000000
157       0.000000000000
158       0.000000000000
159       0.000000000000
160       0.000000000000
161       0.000000000000
162       0.000000000000
163       0.000000000000
164       0.000000000000
165       0.000000000000
166       0.000000000000
167       0.000000000000
168       0.000000000000
169       0.000000000000
170       0.000000000000
171       0.000000000000
172       0.000000000000
 Sym=     1a
 Ene= -7.89438046545826E-01
Spin= Alpha
 Occup= 1.925990
  1       0.000000000000
  2       0.000000000000
  3       0.000000000000
  4       0.000000000000
  5       0.000000000000
  6       0.000000000000
  7       0.000000000000
  8       0.000000000000
  9       0.000000000000
 10       0.000000000000
 11       0.000000000000
 12       0.000000000000
 13       0.000000000000
 14       0.000000000000
 15       0.000000000000
 16       0.000000000000
 17       0.000000000000
 18       0.000000000000
 19       0.000000000000
 20       0.000000000000
 21       0.000000000000
 22       0.000000000000
 23       0.000000000000
 24       0.000000000000
 25       0.000000000000
 26       0.000000000000
 27       0.000000000000
 28       0.000000000000
 29       0.000000000000
 30       0.000000000000
 31       0.000000000000
 32       0.099367431845
 33       0.181564300236
 34      -0.089676126955
 35      -0.847383313523
 36      -0.125865364658
 37       0.000000000000
 38       0.000000000000
 39       0.000000000000
 40       0.000000000000
 41       0.000000000000
 42       0.000000000000
 43       0.000000000000
 44       0.000000000000
 45       0.000000000000
 46       0.000000000000
 47       0.000000000000
 48       0.000000000000
 49       0.000000000000
 50       0.000000000000
 51       0.000000000000
 52       0.000000000000
 53       0.000000000000
 54       0.000000000000
 55       0.000000000000
 56       0.000000000000
 57       0.000000000000
 58       0.000000000000
 59       0.000000000000
 60       0.000000000000
 61       0.000000000000
 62       0.000000000000
 63       0.000000000000
 64       0.000000000000
 65       0.000000000000
 66       0.000000000000
 67       0.000000000000
 68       0.000000000000
 69       0.000000000000
 70       0.000000000000
 71       0.000000000000
 72       0.000000000000
 73       0.000000000000
 74       0.000000000000
 75       0.000000000000
 76       0.000000000000
 77       0.000000000000
 78       0.000000000000
 79       0.000000000000
 80       0.000000000000
 81       0.000000000000
 82       0.000000000000
 83       0.000000000000
 84       0.000000000000
 85       0.000000000000
 86       0.000000000000
 87       0.000000000000
 88       0.000000000000
 89       0.000000000000
 90       0.000000000000
 91       0.000000000000
 92       0.000000000000
 93       0.000000000000
 94       0.000000000000
 95       0.000000000000
 96       0.000000000000
 97       0.000000000000
 98       0.000000000000
 99       0.000000000000
100       0.000000000000
101       0.000000000000
102       0.000000000000
103       0.000000000000
104       0.000000000000
105       0.000000000000
106       0.000000000000
107       0.000000000000
108       0.000000000000
109       0.000000000000
110       0.000000000000
111       0.000000000000
112       0.000000000000
113       0.000000000000
114       0.000000000000
115       0.000000000000
116       0.000000000000
117       0.000000000000
118       0.000000000000
119       0.000000000000
120       0.000000000000
121       0.000000000000
122       0.000000000000
123       0.000000000000
124       0.000000000000
125       0.000000000000
126       0.000000000000
127       0.000000000000
128       0.000000000000
129       0.000000000000
130       0.000000000000
131       0.000000000000
132       0.000000000000
133       0.000000000000
134       0.000000000000
135       0.000000000000
136       0.000000000000
137       0.000000000000
138       0.000000000000
139       0.000000000000
140       0.000000000000
141       0.000000000000
142       0.000000000000
143       0.000000000000
144       0.000000000000
145       0.000000000000
146       0.000000000000
147       0.000000000000
148       0.000000000000
149       0.000000000000
150       0.000000000000
151       0.000000000000
152       0.000000000000
153       0.000000000000
154       0.000000000000
155       0.000000000000
156       0.000000000000
157       0.000000000000
158       0.000000000000
159       0.000000000000
160       0.000000000000
161       0.000000000000
162       0.000000000000
163       0.000000000000
164       0.000000000000
165       0.000000000000
166       0.000000000000
167       0.000000000000
168       0.000000000000
169       0.000000000000
170       0.000000000000
171       0.000000000000
172       0.000000000000
 Sym=     1a
 Ene= -1.02675417959691E+01
Spin= Alpha
 Occup= 1.999990
  1       0.000000000000
  2       0.000000000000
  3       0.000000000000
  4       0.000000000000
  5       0.000000000000
  6       0.000000000000
  7       0.000000000000
  8       0.000000000000
  9       0.000000000000
 10       0.000000000000
 11       0.000000000000
 12       0.000000000000
 13       0.000000000000
 14       0.000000000000
 15       0.000000000000
 16       0.000000000000
 17       0.000000000000
 18       0.000000000000
 19       0.000000000000
 20       0.000000000000
 21       0.000000000000
 22       0.000000000000
 23       0.000000000000
 24       0.000000000000
 25       0.000000000000
 26       0.000000000000
 27       0.000000000000
 28       0.000000000000
 29       0.000000000000
 30       0.000000000000
 31       0.000000000000
 32       0.467422079101
 33       0.609949639570
 34       0.030980403083
 35      -0.018934843007
 36       0.005713507766
 37       0.000000000000
 38       0.000000000000
 39       0.000000000000
 40       0.000000000000
 41       0.000000000000
 42       0.000000000000
 43       0.000000000000
 44       0.000000000000
 45       0.000000000000
 46       0.000000000000
 47       0.000000000000
 48       0.000000000000
 49       0.000000000000
 50       0.000000000000
 51       0.000000000000
 52       0.000000000000
 53       0.000000000000
 54       0.000000000000
 55       0.000000000000
 56       0.000000000000
 57       0.000000000000
 58       0.000000000000
 59       0.000000000000
 60       0.000000000000
 61       0.000000000000
 62       0.000000000000
 63       0.000000000000
 64       0.000000000000
 65       0.000000000000
 66       0.000000000000
 67       0.000000000000
 68       0.000000000000
 69       0.000000000000
 70       0.000000000000
 71       0.000000000000
 72       0.000000000000
 73       0.000000000000
 74       0.000000000000
 75       0.000000000000
 76       0.000000000000
 77       0.000000000000
 78       0.000000000000
 79       0.000000000000
 80       0.000000000000
 81       0.000000000000
 82       0.000000000000
 83       0.000000000000
 84       0.000000000000
 85       0.000000000000
 86       0.000000000000
 87       0.000000000000
 88       0.000000000000
 89       0.000000000000
 90       0.000000000000
 91       0.000000000000
 92       0.000000000000
 93       0.000000000000
 94       0.000000000000
 95       0.000000000000
 96       0.000000000000
 97       0.000000000000
 98       0.000000000000
 99       0.000000000000
100       0.000000000000
101       0.000000000000
102       0.000000000000
103       0.000000000000
104       0.000000000000
105       0.000000000000
106       0.000000000000
107       0.000000000000
108       0.000000000000
109       0.000000000000
110       0.000000000000
111       0.000000000000
112       0.000000000000
113       0.000000000000
114       0.000000000000
115       0.000000000000
116       0.000000000000
117       0.000000000000
118       0.000000000000
119       0.000000000000
120       0.000000000000
121       0.000000000000
122       0.000000000000
123       0.000000000000
124       0.000000000000
125       0.000000000000
126       0.000000000000
127       0.000000000000
128       0.000000000000
129       0.000000000000
130       0.000000000000
131       0.000000000000
132       0.000000000000
133       0.000000000000
134       0.000000000000
135       0.000000000000
136       0.000000000000
137       0.000000000000
138       0.000000000000
139       0.000000000000
140       0.000000000000
141       0.000000000000
142       0.000000000000
143       0.000000000000
144       0.000000000000
145       0.000000000000
146       0.000000000000
147       0.000000000000
148       0.000000000000
149       0.000000000000
150       0.000000000000
151       0.000000000000
152       0.000000000000
153       0.000000000000
154       0.000000000000
155       0.000000000000
156       0.000000000000
157       0.000000000000
158       0.000000000000
159       0.000000000000
160       0.000000000000
161       0.000000000000
162       0.000000000000
163       0.000000000000
164       0.000000000000
165       0.000000000000
166       0.000000000000
167       0.000000000000
168       0.000000000000
169       0.000000000000
170       0.000000000000
171       0.000000000000
172       0.000000000000
 Sym=     1a
 Ene=  1.30387633834484E+00
Spin= Alpha
 Occup= 0.013561
  1       0.000000000000
  2       0.000000000000
  3       0.000000000000
  4       0.000000000000
  5       0.000000000000
  6       0.000000000000
  7       0.000000000000
  8       0.000000000000
  9       0.000000000000
 10       0.000000000000
 11       0.000000000000
 12       0.000000000000
 13       0.000000000000
 14       0.000000000000
 15       0.000000000000
 16       0.000000000000
 17       0.000000000000
 18       0.000000000000
 19       0.000000000000
 20       0.000000000000
 21       0.000000000000
 22       0.000000000000
 23       0.000000000000
 24       0.000000000000
 25       0.000000000000
 26       0.000000000000
 27       0.000000000000
 28       0.000000000000
 29       0.000000000000
 30       0.000000000000
 31       0.000000000000
 32       0.000000000000
 33       0.000000000000
 34       0.000000000000
 35       0.000000000000
 36       0.000000000000
 37      -1.345403204827
 38       0.000000000000
 39       0.000000000000
 40       1.331801238245
 41       0.000000000000
 42       0.000000000000
 43      -0.433200531461
 44       0.000000000000
 45       0.000000000000
 46       0.000000000000
 47       0.000000000000
 48       0.000000000000
 49       0.000000000000
 50       0.000000000000
 51       0.000000000000
 52       0.000000000000
 53       0.000000000000
 54       0.000000000000
 55       0.000000000000
 56       0.000000000000
 57       0.000000000000
 58       0.000000000000
 59       0.000000000000
 60       0.000000000000
 61       0.000000000000
 62       0.000000000000
 63       0.000000000000
 64       0.000000000000
 65       0.000000000000
 66       0.000000000000
 67       0.000000000000
 68       0.000000000000
 69       0.000000000000
 70       0.000000000000
 71       0.000000000000
 72       0.000000000000
 73       0.000000000000
 74       0.000000000000
 75       0.000000000000
 76       0.000000000000
 77       0.000000000000
 78       0.000000000000
 79       0.000000000000
 80       0.000000000000
 81       0.000000000000
 82       0.000000000000
 83       0.000000000000
 84       0.000000000000
 85       0.000000000000
 86       0.000000000000
 87       0.000000000000
 88       0.000000000000
 89       0.000000000000
 90       0.000000000000
 91       0.000000000000
 92       0.000000000000
 93       0.000000000000
 94       0.000000000000
 95       0.000000000000
 96       0.000000000000
 97       0.000000000000
 98       0.000000000000
 99       0.000000000000
100       0.000000000000
101       0.000000000000
102       0.000000000000
103       0.000000000000
104       0.000000000000
105       0.000000000000
106       0.000000000000
107       0.000000000000
108       0.000000000000
109       0.000000000000
110       0.000000000000
111       0.000000000000
112       0.000000000000
113       0.000000000000
114       0.000000000000
115       0.000000000000
116       0.000000000000
117       0.000000000000
118       0.000000000000
119       0.000000000000
120       0.000000000000
121       0.000000000000
122       0.000000000000
123       0.000000000000
124       0.000000000000
125       0.000000000000
126       0.000000000000
127       0.000000000000
128       0.000000000000
129       0.000000000000
130       0.000000000000
131       0.000000000000
132       0.000000000000
133       0.000000000000
134       0.000000000000
135       0.000000000000
136       0.000000000000
137       0.000000000000
138       0.000000000000
139       0.000000000000
140       0.000000000000
141       0.000000000000
142       0.000000000000
143       0.000000000000
144       0.000000000000
145       0.000000000000
146       0.000000000000
147       0.000000000000
148       0.000000000000
149       0.000000000000
150       0.000000000000
151       0.000000000000
152       0.000000000000
153       0.000000000000
154       0.000000000000
155       0.000000000000
156       0.000000000000
157       0.000000000000
158       0.000000000000
159       0.000000000000
160       0.000000000000
161       0.000000000000
162       0.000000000000
163       0.000000000000
164       0.000000000000
165       0.000000000000
166       0.000000000000
167       0.000000000000
168       0.000000000000
169       0.000000000000
170       0.000000000000
171       0.000000000000
172       0.000000000000
 Sym=     1a
 Ene=  1.33906742053336E+00
Spin= Alpha
 Occup= 0.013561
  1       0.000000000000
  2       0.000000000000
  3       0.000000000000
  4       0.000000000000
  5       0.000000000000
  6       0.000000000000
  7       0.000000000000
  8       0.000000000000
  9       0.000000000000
 10       0.000000000000
 11       0.000000000000
 12       0.000000000000
 13       0.000000000000
 14       0.000000000000
 15       0.000000000000
 16       0.000000000000
 17       0.000000000000
 18       0.000000000000
 19       0.000000000000
 20       0.000000000000
 21       0.000000000000
 22       0.000000000000
 23       0.000000000000
 24       0.000000000000
 25       0.000000000000
 26       0.000000000000
 27       0.000000000000
 28       0.000000000000
 29       0.000000000000
 30       0.000000000000
 31       0.000000000000
 32       0.000000000000
 33       0.000000000000
 34       0.000000000000
 35       0.000000000000
 36       0.000000000000
 37       0.000000000000
 38      -1.345403204827
 39       0.000000000000
 40       0.000000000000
 41       1.331801238245
 42       0.000000000000
 43       0.000000000000
 44      -0.433200531461
 45       0.000000000000
 46       0.000000000000
 47       0.000000000000
 48       0.000000000000
 49       0.000000000000
 50       0.000000000000
 51       0.000000000000
 52       0.000000000000
 53       0.000000000000
 54       0.000000000000
 55       0.000000000000
 56       0.000000000000
 57       0.000000000000
 58       0.000000000000
 59       0.000000000000
 60       0.000000000000
 61       0.000000000000
 62       0.000000000000
 63       0.000000000000
 64       0.000000000000
 65       0.000000000000
 66       0.000000000000
 67       0.000000000000
 68       0.000000000000
 69       0.000000000000
 70       0.000000000000
 71       0.000000000000
 72       0.000000000000
 73       0.000000000000
 74       0.000000000000
 75       0.000000000000
 76       0.000000000000
 77       0.000000000000
 78       0.000000000000
 79       0.000000000000
 80       0.000000000000
 81       0.000000000000
 82       0.000000000000
 83       0.000000000000
 84       0.000000000000
 85       0.000000000000
 86       0.000000000000
 87       0.000000000000
 88       0.000000000000
 89       0.000000000000
 90       0.000000000000
 91       0.000000000000
 92       0.000000000000
 93       0.000000000000
 94       0.000000000000
 95       0.000000000000
 96       0.000000000000
 97       0.000000000000
 98       0.000000000000
 99       0.000000000000
100       0.000000000000
101       0.000000000000
102       0.000000000000
103       0.000000000000
104       0.000000000000
105       0.000000000000
106       0.000000000000
107       0.000000000000
108       0.000000000000
109       0.000000000000
110       0.000000000000
111       0.000000000000
112       0.000000000000
113       0.000000000000
114       0.000000000000
115       0.000000000000
116       0.000000000000
117       0.000000000000
118       0.000000000000
119       0.000000000000
120       0.000000000000
121       0.000000000000
122       0.000000000000
123       0.000000000000
124       0.000000000000
125       0.000000000000
126       0.000000000000
127       0.000000000000
128       0.000000000000
129       0.000000000000
130       0.000000000000
131       0.000000000000
132       0.000000000000
133       0.000000000000
134       0.000000000000
135       0.000000000000
136       0.000000000000
137       0.000000000000
138       0.000000000000
139       0.000000000000
140       0.000000000000
141       0.000000000000
142       0.000000000000
143       0.000000000000
144       0.000000000000
145       0.000000000000
146       0.000000000000
147       0.000000000000
148       0.000000000000
149       0.000000000000
150       0.000000000000
151       0.000000000000
152       0.000000000000
153       0.000000000000
154       0.000000000000
155       0.000000000000
156       0.000000000000
157       0.000000000000
158       0.000000000000
159       0.000000000000
160       0.000000000000
161       0.000000000000
162       0.000000000000
163       0.000000000000
164       0.000000000000
165       0.000000000000
166       0.000000000000
167       0.000000000000
168       0.000000000000
169       0.000000000000
170       0.000000000000
171       0.000000000000
172       0.000000000000
 Sym=     1a
 Ene=  1.36693040149429E+00
Spin= Alpha
 Occup= 0.013561
  1       0.000000000000
  2       0.000000000000
  3       0.000000000000
  4       0.000000000000
  5       0.000000000000
  6       0.000000000000
  7       0.000000000000
  8       0.000000000000
  9       0.000000000000
 10       0.000000000000
 11       0.000000000000
 12       0.000000000000
 13       0.000000000000
 14       0.000000000000
 15       0.000000000000
 16       0.000000000000
 17       0.000000000000
 18       0.000000000000
 19       0.000000000000
 20       0.000000000000
 21       0.000000000000
 22       0.000000000000
 23       0.000000000000
 24       0.000000000000
 25       0.000000000000
 26       0.000000000000
 27       0.000000000000
 28       0.000000000000
 29       0.000000000000
 30       0.000000000000
 31       0.000000000000
 32       0.000000000000
 33       0.000000000000
 34       0.000000000000
 35       0.000000000000
 36       0.000000000000
 37       0.000000000000
 38       0.000000000000
 39      -1.345403204827
 40       0.000000000000
 41       0.000000000000
 42       1.331801238245
 43       0.000000000000
 44       0.000000000000
 45      -0.433200531461
 46       0.000000000000
 47       0.000000000000
 48       0.000000000000
 49       0.000000000000
 50       0.000000000000
 51       0.000000000000
 52       0.000000000000
 53       0.000000000000
 54       0.000000000000
 55       0.000000000000
 56       0.000000000000
 57       0.000000000000
 58       0.000000000000
 59       0.000000000000
 60       0.000000000000
 61       0.000000000000
 62       0.000000000000
 63       0.000000000000
 64       0.000000000000
 65       0.000000000000
 66       0.000000000000
 67       0.000000000000
 68       0.000000000000
 69       0.000000000000
 70       0.000000000000
 71       0.000000000000
 72       0.000000000000
 73       0.000000000000
 74       0.000000000000
 75       0.000000000000
 76       0.000000000000
 77       0.000000000000
 78       0.000000000000
 79       0.000000000000
 80       0.000000000000
 81       0.000000000000
 82       0.000000000000
 83       0.000000000000
 84       0.000000000000
 85       0.000000000000
 86       0.000000000000
 87       0.000000000000
 88       0.000000000000
 89       0.000000000000
 90       0.000000000000
 91       0.000000000000
 92       0.000000000000
 93       0.000000000000
 94       0.000000000000
 95       0.000000000000
 96       0.000000000000
 97       0.000000000000
 98       0.000000000000
 99       0.000000000000
100       0.000000000000
101       0.000000000000
102       0.000000000000
103       0.000000000000
104       0.000000000000
105       0.000000000000
106       0.000000000000
107       0.000000000000
108       0.000000000000
109       0.000000000000
110       0.000000000000
111       0.000000000000
112       0.000000000000
113       0.000000000000
114       0.000000000000
115       0.000000000000
116       0.000000000000
117       0.000000000000
118       0.000000000000
119       0.000000000000
120       0.000000000000
121       0.000000000000
122       0.000000000000
123       0.000000000000
124       0.000000000000
125       0.000000000000
126       0.000000000000
127       0.000000000000
128       0.000000000000
129       0.000000000000
130       0.000000000000
131       0.000000000000
132       0.000000000000
133       0.000000000000
134       0.000000000000
135       0.000000000000
136       0.000000000000
137       0.000000000000
138       0.000000000000
139       0.000000000000
140       0.000000000000
141       0.000000000000
142       0.000000000000
143       0.000000000000
144       0.000000000000
145       0.000000000000
146       0.000000000000
147       0.000000000000
148       0.000000000000
149       0.000000000000
150       0.000000000000
151       0.000000000000
152       0.000000000000
153       0.000000000000
154       0.000000000000
155       0.000000000000
156       0.000000000000
157       0.000000000000
158       0.000000000000
159       0.000000000000
160       0.000000000000
161       0.000000000000
162       0.000000000000
163       0.000000000000
164       0.000000000000
165       0.000000000000
166       0.000000000000
167       0.000000000000
168       0.000000000000
169       0.000000000000
170       0.000000000000
171       0.000000000000
172       0.000000000000
 Sym=     1a
 Ene=  5.45690044316644E-02
Spin= Alpha
 Occup= 0.329308
  1       0.000000000000
  2       0.000000000000
  3       0.000000000000
  4       0.000000000000
  5       0.000000000000
  6       0.000000000000
  7       0.000000000000
  8       0.000000000000
  9       0.000000000000
 10       0.000000000000
 11       0.000000000000
 12       0.000000000000
 13       0.000000000000
 14       0.000000000000
 15       0.000000000000
 16       0.000000000000
 17       0.000000000000
 18       0.000000000000
 19       0.000000000000
 20       0.000000000000
 21       0.000000000000
 22       0.000000000000
 23       0.000000000000
 24       0.000000000000
 25       0.000000000000
 26       0.000000000000
 27       0.000000000000
 28       0.000000000000
 29       0.000000000000
 30       0.000000000000
 31       0.000000000000
 32       0.000000000000
 33       0.000000000000
 34       0.000000000000
 35       0.000000000000
 36       0.000000000000
 37       0.066231661775
 38       0.000000000000
 39       0.000000000000
 40      -1.196101628256
 41       0.000000000000
 42       0.000000000000
 43       1.449079921600
 44       0.000000000000
 45       0.000000000000
 46       0.000000000000
 47       0.000000000000
 48       0.000000000000
 49       0.000000000000
 50       0.000000000000
 51       0.000000000000
 52       0.000000000000
 53       0.000000000000
 54       0.000000000000
 55       0.000000000000
 56       0.000000000000
 57       0.000000000000
 58       0.000000000000
 59       0.000000000000
 60       0.000000000000
 61       0.000000000000
 62       0.000000000000
 63       0.000000000000
 64       0.000000000000
 65       0.000000000000
 66       0.000000000000
 67       0.000000000000
 68       0.000000000000
 69       0.000000000000
 70       0.000000000000
 71       0.000000000000
 72       0.000000000000
 73       0.000000000000
 74       0.000000000000
 75       0.000000000000
 76       0.000000000000
 77       0.000000000000
 78       0.000000000000
 79       0.000000000000
 80       0.000000000000
 81       0.000000000000
 82       0.000000000000
 83       0.000000000000
 84       0.000000000000
 85       0.000000000000
 86       0.000000000000
 87       0.000000000000
 88       0.000000000000
 89       0.000000000000
 90       0.000000000000
 91       0.000000000000
 92       0.000000000000
 93       0.000000000000
 94       0.000000000000
 95       0.000000000000
 96       0.000000000000
 97       0.000000000000
 98       0.000000000000
 99       0.000000000000
100       0.000000000000
101       0.000000000000
102       0.000000000000
103       0.000000000000
104       0.000000000000
105       0.000000000000
106       0.000000000000
107       0.000000000000
108       0.000000000000
109       0.000000000000
110       0.000000000000
111       0.000000000000
112       0.000000000000
113       0.000000000000
114       0.000000000000
115       0.000000000000
116       0.000000000000
117       0.000000000000
118       0.000000000000
119       0.000000000000
120       0.000000000000
121       0.000000000000
122       0.000000000000
123       0.000000000000
124       0.000000000000
125       0.000000000000
126       0.000000000000
127       0.000000000000
128       0.000000000000
129       0.000000000000
130       0.000000000000
131       0.000000000000
132       0.000000000000
133       0.000000000000
134       0.000000000000
135       0.000000000000
136       0.000000000000
137       0.000000000000
138       0.000000000000
139       0.000000000000
140       0.000000000000
141       0.000000000000
142       0.000000000000
143       0.000000000000
144       0.000000000000
145       0.000000000000
146       0.000000000000
147       0.000000000000
148       0.000000000000
149       0.000000000000
150       0.000000000000
151       0.000000000000
152       0.000000000000
153       0.000000000000
154       0.000000000000
155       0.000000000000
156       0.000000000000
157       0.000000000000
158       0.000000000000
159       0.000000000000
160       0.000000000000
161       0.000000000000
162       0.000000000000
163       0.000000000000
164       0.000000000000
165       0.000000000000
166       0.000000000000
167       0.000000000000
168       0.000000000000
169       0.000000000000
170       0.000000000000
171       0.000000000000
172       0.000000000000
 Sym=     1a
 Ene=  1.71743403858678E-01
Spin= Alpha
 Occup= 0.329308
  1       0.000000000000
  2       0.000000000000
  3       0.000000000000
  4       0.000000000000
  5       0.000000000000
  6       0.000000000000
  7       0.000000000000
  8       0.000000000000
  9       0.000000000000
 10       0.000000000000
 11       0.000000000000
 12       0.000000000000
 13       0.000000000000
 14       0.000000000000
 15       0.000000000000
 16       0.000000000000
 17       0.000000000000
 18       0.000000000000
 19       0.000000000000
 20       0.000000000000
 21       0.000000000000
 22       0.000000000000
 23       0.000000000000
 24       0.000000000000
 25       0.000000000000
 26       0.000000000000
 27       0.000000000000
 28       0.000000000000
 29       0.000000000000
 30       0.000000000000
 31       0.000000000000
 32       0.000000000000
 33       0.000000000000
 34       0.000000000000
 35       0.000000000000
 36       0.000000000000
 37       0.000000000000
 38       0.066231661775
 39       0.000000000000
 40       0.000000000000
 41      -1.196101628256
 42       0.000000000000
 43       0.000000000000
 44       1.449079921600
 45       0.000000000000
 46       0.000000000000
 47       0.000000000000
 48       0.000000000000
 49       0.000000000000
 50       0.000000000000
 51       0.000000000000
 52       0.000000000000
 53       0.000000000000
 54       0.000000000000
 55       0.000000000000
 56       0.000000000000
 57       0.000000000000
 58       0.000000000000
 59       0.000000000000
 60       0.000000000000
 61       0.000000000000
 62       0.000000000000
 63       0.000000000000
 64       0.000000000000
 65       0.000000000000
 66       0.000000000000
 67       0.000000000000
 68       0.000000000000
 69       0.000000000000
 70       0.000000000000
 71       0.000000000000
 72       0.000000000000
 73       0.000000000000
 74       0.000000000000
 75       0.000000000000
 76       0.000000000000
 77       0.000000000000
 78       0.000000000000
 79       0.000000000000
 80       0.000000000000
 81       0.000000000000
 82       0.000000000000
 83       0.000000000000
 84       0.000000000000
 85       0.000000000000
 86       0.000000000000
 87       0.000000000000
 88       0.000000000000
 89       0.000000000000
 90       0.000000000000
 91       0.000000000000
 92       0.000000000000
 93       0.000000000000
 94       0.000000000000
 95       0.000000000000
 96       0.000000000000
 97       0.000000000000
 98       0.000000000000
 99       0.000000000000
100       0.000000000000
101       0.000000000000
102       0.000000000000
103       0.000000000000
104       0.000000000000
105       0.000000000000
106       0.000000000000
107       0.000000000000
108       0.000000000000
109       0.000000000000
110       0.000000000000
111       0.000000000000
112       0.000000000000
113       0.000000000000
114       0.000000000000
115       0.000000000000
116       0.000000000000
117       0.000000000000
118       0.000000000000
119       0.000000000000
120       0.000000000000
121       0.000000000000
122       0.000000000000
123       0.000000000000
124       0.000000000000
125       0.000000000000
126       0.000000000000
127       0.000000000000
128       0.000000000000
129       0.000000000000
130       0.000000000000
131       0.000000000000
132       0.000000000000
133       0.000000000000
134       0.000000000000
135       0.000000000000
136       0.000000000000
137       0.000000000000
138       0.000000000000
139       0.000000000000
140       0.000000000000
141       0.000000000000
142       0.000000000000
143       0.000000000000
144       0.000000000000
145       0.000000000000
146       0.000000000000
147       0.000000000000
148       0.000000000000
149       0.000000000000
150       0.000000000000
151       0.000000000000
152       0.000000000000
153       0.000000000000
154       0.000000000000
155       0.000000000000
156       0.000000000000
157       0.000000000000
158       0.000000000000
159       0.000000000000
160       0.000000000000
161       0.000000000000
162       0.000000000000
163       0.000000000000
164       0.000000000000
165       0.000000000000
166       0.000000000000
167       0.000000000000
168       0.000000000000
169       0.000000000000
170       0.000000000000
171       0.000000000000
172       0.000000000000
 Sym=     1a
 Ene=  3.27529511279496E-01
Spin= Alpha
 Occup= 0.329308
  1       0.000000000000
  2       0.000000000000
  3       0.000000000000
  4       0.000000000000
  5       0.000000000000
  6       0.000000000000
  7       0.000000000000
  8       0.000000000000
  9       0.000000000000
 10       0.000000000000
 11       0.000000000000
 12       0.000000000000
 13       0.000000000000
 14       0.000000000000
 15       0.000000000000
 16       0.000000000000
 17       0.000000000000
 18       0.000000000000
 19       0.000000000000
 20       0.000000000000
 21       0.000000000000
 22       0.000000000000
 23       0.000000000000
 24       0.000000000000
 25       0.000000000000
 26       0.000000000000
 27       0.000000000000
 28       0.000000000000
 29       0.000000000000
 30       0.000000000000
 31       0.000000000000
 32       0.000000000000
 33       0.000000000000
 34       0.000000000000
 35       0.000000000000
 36       0.000000000000
 37       0.000000000000
 38       0.000000000000
 39       0.066231661775
 40       0.000000000000
 41       0.000000000000
 42      -1.196101628256
 43       0.000000000000
 44       0.000000000000
 45       1.449079921600
 46       0.000000000000
 47       0.000000000000
 48       0.000000000000
 49       0.000000000000
 50       0.000000000000
 51       0.000000000000
 52       0.000000000000
 53       0.000000000000
 54       0.000000000000
 55       0.000000000000
 56       0.000000000000
 57       0.000000000000
 58       0.000000000000
 59       0.000000000000
 60       0.000000000000
 61       0.000000000000
 62       0.000000000000
 63       0.000000000000
 64       0.000000000000
 65       0.000000000000
 66       0.000000000000
 67       0.000000000000
 68       0.000000000000
 69       0.000000000000
 70       0.000000000000
 71       0.000000000000
 72       0.000000000000
 73       0.000000000000
 74       0.000000000000
 75       0.000000000000
 76       0.000000000000
 77       0.000000000000
 78       0.000000000000
 79       0.000000000000
 80       0.000000000000
 81       0.000000000000
 82       0.000000000000
 83       0.000000000000
 84       0.000000000000
 85       0.000000000000
 86       0.000000000000
 87       0.000000000000
 88       0.000000000000
 89       0.000000000000
 90       0.000000000000
 91       0.000000000000
 92       0.000000000000
 93       0.000000000000
 94       0.000000000000
 95       0.000000000000
 96       0.000000000000
 97       0.000000000000
 98       0.000000000000
 99       0.000000000000
100       0.000000000000
101       0.000000000000
102       0.000000000000
103       0.000000000000
104       0.000000000000
105       0.000000000000
106       0.000000000000
107       0.000000000000
108       0.000000000000
109       0.000000000000
110       0.000000000000
111       0.000000000000
112       0.000000000000
113       0.000000000000
114       0.000000000000
115       0.000000000000
116       0.000000000000
117       0.000000000000
118       0.000000000000
119       0.000000000000
120       0.000000000000
121       0.000000000000
122       0.000000000000
123       0.000000000000
124       0.000000000000
125       0.000000000000
126       0.000000000000
127       0.000000000000
128       0.000000000000
129       0.000000000000
130       0.000000000000
131       0.000000000000
132       0.000000000000
133       0.000000000000
134       0.000000000000
135       0.000000000000
136       0.000000000000
137       0.000000000000
138       0.000000000000
139       0.000000000000
140       0.000000000000
141       0.000000000000
142       0.000000000000
143       0.000000000000
144       0.000000000000
145       0.000000000000
146       0.000000000000
147       0.000000000000
148       0.000000000000
149       0.000000000000
150       0.000000000000
151       0.000000000000
152       0.000000000000
153       0.000000000000
154       0.000000000000
155       0.000000000000
156       0.000000000000
157       0.000000000000
158       0.000000000000
159       0.000000000000
160       0.000000000000
161       0.000000000000
162       0.000000000000
163       0.000000000000
164       0.000000000000
165       0.000000000000
166       0.000000000000
167       0.000000000000
168       0.000000000000
169       0.000000000000
170       0.000000000000
171       0.000000000000
172       0.000000000000
 Sym=     1a
 Ene= -4.82889191158226E-01
Spin= Alpha
 Occup= 1.772318
  1       0.000000000000
  2       0.000000000000
  3       0.000000000000
  4       0.000000000000
  5       0.000000000000
  6       0.000000000000
  7       0.000000000000
  8       0.000000000000
  9       0.000000000000
 10       0.000000000000
 11       0.000000000000
 12       0.000000000000
 13       0.000000000000
 14       0.000000000000
 15       0.000000000000
 16       0.000000000000
 17       0.000000000000
 18       0.000000000000
 19       0.000000000000
 20       0.000000000000
 21       0.000000000000
 22       0.000000000000
 23       0.000000000000
 24       0.000000000000
 25       0.000000000000
 26       0.000000000000
 27       0.000000000000
 28       0.000000000000
 29       0.000000000000
 30       0.000000000000
 31       0.000000000000
 32       0.000000000000
 33       0.000000000000
 34       0.000000000000
 35       0.000000000000
 36       0.000000000000
 37       0.254339091373
 38       0.000000000000
 39       0.000000000000
 40       0.637694258192
 41       0.000000000000
 42       0.000000000000
 43       0.251216735949
 44       0.000000000000
 45       0.000000000000
 46       0.000000000000
 47       0.000000000000
 48       0.000000000000
 49       0.000000000000
 50       0.000000000000
 51       0.000000000000
 52       0.000000000000
 53       0.000000000000
 54       0.000000000000
 55       0.000000000000
 56       0.000000000000
 57       0.000000000000
 58       0.000000000000
 59       0.000000000000
 60       0.000000000000
 61       0.000000000000
 62       0.000000000000
 63       0.000000000000
 64       0.000000000000
 65       0.000000000000
 66       0.000000000000
 67       0.000000000000
 68       0.000000000000
 69       0.000000000000
 70       0.000000000000
 71       0.000000000000
 72       0.000000000000
 73       0.000000000000
 74       0.000000000000
 75       0.000000000000
 76       0.000000000000
 77       0.000000000000
 78       0.000000000000
 79       0.000000000000
 80       0.000000000000
 81       0.000000000000
 82       0.000000000000
 83       0.000000000000
 84       0.000000000000
 85       0.000000000000
 86       0.000000000000
 87       0.000000000000
 88       0.000000000000
 89       0.000000000000
 90       0.000000000000
 91       0.000000000000
 92       0.000000000000
 93       0.000000000000
 94       0.000000000000
 95       0.000000000000
 96       0.000000000000
 97       0.000000000000
 98       0.000000000000
 99       0.000000000000
100       0.000000000000
101       0.000000000000
102       0.000000000000
103       0.000000000000
104       0.000000000000
105       0.000000000000
106       0.000000000000
107       0.000000000000
108       0.000000000000
109       0.000000000000
110       0.000000000000
111       0.000000000000
112       0.000000000000
113       0.000000000000
114       0.000000000000
115       0.000000000000
116       0.000000000000
117       0.000000000000
118       0.000000000000
119       0.000000000000
120       0.000000000000
121       0.000000000000
122       0.000000000000
123       0.000000000000
124       0.000000000000
125       0.000000000000
126       0.000000000000
127       0.000000000000
128       0.000000000000
129       0.000000000000
130       0.000000000000
131       0.000000000000
132       0.000000000000
133       0.000000000000
134       0.000000000000
135       0.000000000000
136       0.000000000000
137       0.000000000000
138       0.000000000000
139       0.000000000000
140       0.000000000000
141       0.000000000000
142       0.000000000000
143       0.000000000000
144       0.000000000000
145       0.000000000000
146       0.000000000000
147       0.000000000000
148       0.000000000000
149       0.000000000000
150       0.000000000000
151       0.000000000000
152       0.000000000000
153       0.000000000000
154       0.000000000000
155       0.000000000000
156       0.000000000000
157       0.000000000000
158       0.000000000000
159       0.000000000000
160       0.000000000000
161       0.000000000000
162       0.000000000000
163       0.000000000000
164       0.000000000000
165       0.000000000000
166       0.000000000000
167       0.000000000000
168       0.000000000000
169       0.000000000000
170       0.000000000000
171       0.000000000000
172       0.000000000000
 Sym=     1a
 Ene= -4.31424172387277E-01
Spin= Alpha
 Occup= 1.772318
  1       0.000000000000
  2       0.000000000000
  3       0.000000000000
  4       0.000000000000
  5       0.000000000000
  6       0.000000000000
  7       0.000000000000
  8       0.000000000000
  9       0.000000000000
 10       0.000000000000
 11       0.000000000000
 12       0.000000000000
 13       0.000000000000
 14       0.000000000000
 15       0.000000000000
 16       0.000000000000
 17       0.000000000000
 18       0.000000000000
 19       0.000000000000
 20       0.000000000000
 21       0.000000000000
 22       0.000000000000
 23       0.000000000000
 24       0.000000000000
 25       0.000000000000
 26       0.000000000000
 27       0.000000000000
 28       0.000000000000
 29       0.000000000000
 30       0.000000000000
 31       0.000000000000
 32       0.000000000000
 33       0.000000000000
 34       0.000000000000
 35       0.000000000000
 36       0.000000000000
 37       0.000000000000
 38       0.254339091373
 39       0.000000000000
 40       0.000000000000
 41       0.637694258192
 42       0.000000000000
 43       0.000000000000
 44       0.251216735949
 45       0.000000000000
 46       0.000000000000
 47       0.000000000000
 48       0.000000000000
 49       0.000000000000
 50       0.000000000000
 51       0.000000000000
 52       0.000000000000
 53       0.000000000000
 54       0.000000000000
 55       0.000000000000
 56       0.000000000000
 57       0.000000000000
 58       0.000000000000
 59       0.000000000000
 60       0.000000000000
 61       0.000000000000
 62       0.000000000000
 63       0.000000000000
 64       0.000000000000
 65       0.000000000000
 66       0.000000000000
 67       0.000000000000
 68       0.000000000000
 69       0.000000000000
 70       0.000000000000
 71       0.000000000000
 72       0.000000000000
 73       0.000000000000
 74       0.000000000000
 75       0.000000000000
 76       0.000000000000
 77       0.000000000000
 78       0.000000000000
 79       0.000000000000
 80       0.000000000000
 81       0.000000000000
 82       0.000000000000
 83       0.000000000000
 84       0.000000000000
 85       0.000000000000
 86       0.000000000000
 87       0.000000000000
 88       0.000000000000
 89       0.000000000000
 90       0.000000000000
 91       0.000000000000
 92       0.000000000000
 93       0.000000000000
 94       0.000000000000
 95       0.000000000000
 96       0.000000000000
 97       0.000000000000
 98       0.000000000000
 99       0.000000000000
100       0.000000000000
101       0.000000000000
102       0.000000000000
103       0.000000000000
104       0.000000000000
105       0.000000000000
106       0.000000000000
107       0.000000000000
108       0.000000000000
109       0.000000000000
110       0.000000000000
111       0.000000000000
112       0.000000000000
113       0.000000000000
114       0.000000000000
115       0.000000000000
116       0.000000000000
117       0.000000000000
118       0.000000000000
119       0.000000000000
120       0.000000000000
121       0.000000000000
122       0.000000000000
123       0.000000000000
124       0.000000000000
125       0.000000000000
126       0.000000000000
127       0.000000000000
128       0.000000000000
129       0.000000000000
130       0.000000000000
131       0.000000000000
132       0.000000000000
133       0.000000000000
134       0.000000000000
135       0.000000000000
136       0.000000000000
137       0.000000000000
138       0.000000000000
139       0.000000000000
140       0.000000000000
141       0.000000000000
142       0.000000000000
143       0.000000000000
144       0.000000000000
145       0.000000000000
146       0.000000000000
147       0.000000000000
148       0.000000000000
149       0.000000000000
150       0.000000000000
151       0.000000000000
152       0.000000000000
153       0.000000000000
154       0.000000000000
155       0.000000000000
156       0.000000000000
157       0.000000000000
158       0.000000000000
159       0.000000000000
160       0.000000000000
161       0.000000000000
162       0.000000000000
163       0.000000000000
164       0.000000000000
165       0.000000000000
166       0.000000000000
167       0.000000000000
168       0.000000000000
169       0.000000000000
170       0.000000000000
171       0.000000000000
172       0.000000000000
 Sym=     1a
 Ene= -3.89653532314058E-01
Spin= Alpha
 Occup= 1.772318
  1       0.000000000000
  2       0.000000000000
  3       0.000000000000
  4       0.000000000000
  5       0.000000000000
  6       0.000000000000
  7       0.000000000000
  8       0.000000000000
  9       0.000000000000
 10       0.000000000000
 11       0.000000000000
 12       0.000000000000
 13       0.000000000000
 14       0.000000000000
 15       0.000000000000
 16       0.000000000000
 17       0.000000000000
 18       0.000000000000
 19       0.000000000000
 20       0.000000000000
 21       0.000000000000
 22       0.000000000000
 23       0.000000000000
 24       0.000000000000
 25       0.000000000000
 26       0.000000000000
 27       0.000000000000
 28       0.000000000000
 29       0.000000000000
 30       0.000000000000
 31       0.000000000000
 32       0.000000000000
 33       0.000000000000
 34       0.000000000000
 35       0.000000000000
 36       0.000000000000
 37       0.000000000000
 38       0.000000000000
 39       0.254339091373
 40       0.000000000000
 41       0.000000000000
 42       0.637694258192
 43       0.000000000000
 44       0.000000000000
 45       0.251216735949
 46       0.000000000000
 47       0.000000000000
 48       0.000000000000
 49       0.000000000000
 50       0.000000000000
 51       0.000000000000
 52       0.000000000000
 53       0.000000000000
 54       0.000000000000
 55       0.000000000000
 56       0.000000000000
 57       0.000000000000
 58       0.000000000000
 59       0.000000000000
 60       0.000000000000
 61       0.000000000000
 62       0.000000000000
 63       0.000000000000
 64       0.000000000000
 65       0.000000000000
 66       0.000000000000
 67       0.000000000000
 68       0.000000000000
 69       0.000000000000
 70       0.000000000000
 71       0.000000000000
 72       0.000000000000
 73       0.000000000000
 74       0.000000000000
 75       0.000000000000
 76       0.000000000000
 77       0.000000000000
 78       0.000000000000
 79       0.000000000000
 80       0.000000000000
 81       0.000000000000
 82       0.000000000000
 83       0.000000000000
 84       0.000000000000
 85       0.000000000000
 86       0.000000000000
 87       0.000000000000
 88       0.000000000000
 89       0.000000000000
 90       0.000000000000
 91       0.000000000000
 92       0.000000000000
 93       0.000000000000
 94       0.000000000000
 95       0.000000000000
 96       0.000000000000
 97       0.000000000000
 98       0.000000000000
 99       0.000000000000
100       0.000000000000
101       0.000000000000
102       0.000000000000
103       0.000000000000
104       0.000000000000
105       0.000000000000
106       0.000000000000
107       0.000000000000
108       0.000000000000
109       0.000000000000
110       0.000000000000
111       0.000000000000
112       0.000000000000
113       0.000000000000
114       0.000000000000
115       0.000000000000
116       0.000000000000
117       0.000000000000
118       0.000000000000
119       0.000000000000
120       0.000000000000
121       0.000000000000
122       0.000000000000
123       0.000000000000
124       0.000000000000
125       0.000000000000
126       0.000000000000
127       0.000000000000
128       0.000000000000
129       0.000000000000
130       0.000000000000
131       0.000000000000
132       0.000000000000
133       0.000000000000
134       0.000000000000
135       0.000000000000
136       0.000000000000
137       0.000000000000
138       0.000000000000
139       0.000000000000
140       0.000000000000
141       0.000000000000
142       0.000000000000
143       0.000000000000
144       0.000000000000
145       0.000000000000
146       0.000000000000
147       0.000000000000
148       0.000000000000
149       0.000000000000
150       0.000000000000
151       0.000000000000
152       0.000000000000
153       0.000000000000
154       0.000000000000
155       0.000000000000
156       0.000000000000
157       0.000000000000
158       0.000000000000
159       0.000000000000
160       0.000000000000
161       0.000000000000
162       0.000000000000
163       0.000000000000
164       0.000000000000
165       0.000000000000
166       0.000000000000
167       0.000000000000
168       0.000000000000
169       0.000000000000
170       0.000000000000
171       0.000000000000
172       0.000000000000
 Sym=     1a
 Ene=  2.89433466600791E+00
Spin= Alpha
 Occup= 0.007028
  1       0.000000000000
  2       0.000000000000
  3       0.000000000000
  4       0.000000000000
  5       0.000000000000
  6       0.000000000000
  7       0.000000000000
  8       0.000000000000
  9       0.000000000000
 10       0.000000000000
 11       0.000000000000
 12       0.000000000000
 13       0.000000000000
 14       0.000000000000
 15       0.000000000000
 16       0.000000000000
 17       0.000000000000
 18       0.000000000000
 19       0.000000000000
 20       0.000000000000
 21       0.000000000000
 22       0.000000000000
 23       0.000000000000
 24       0.000000000000
 25       0.000000000000
 26       0.000000000000
 27       0.000000000000
 28       0.000000000000
 29       0.000000000000
 30       0.000000000000
 31       0.000000000000
 32       0.000000000000
 33       0.000000000000
 34       0.000000000000
 35       0.000000000000
 36       0.000000000000
 37       0.000000000000
 38       0.000000000000
 39       0.000000000000
 40       0.000000000000
 41       0.000000000000
 42       0.000000000000
 43       0.000000000000
 44       0.000000000000
 45       0.000000000000
 46      -1.145971990255
 47       0.000000000000
 48       0.000000000000
 49       0.000000000000
 50       0.000000000000
 51       0.368673942033
 52       0.000000000000
 53       0.000000000000
 54       0.000000000000
 55       0.000000000000
 56       0.000000000000
 57       0.000000000000
 58       0.000000000000
 59       0.000000000000
 60       0.000000000000
 61       0.000000000000
 62       0.000000000000
 63       0.000000000000
 64       0.000000000000
 65       0.000000000000
 66       0.000000000000
 67       0.000000000000
 68       0.000000000000
 69       0.000000000000
 70       0.000000000000
 71       0.000000000000
 72       0.000000000000
 73       0.000000000000
 74       0.000000000000
 75       0.000000000000
 76       0.000000000000
 77       0.000000000000
 78       0.000000000000
 79       0.000000000000
 80       0.000000000000
 81       0.000000000000
 82       0.000000000000
 83       0.000000000000
 84       0.000000000000
 85       0.000000000000
 86       0.000000000000
 87       0.000000000000
 88       0.000000000000
 89       0.000000000000
 90       0.000000000000
 91       0.000000000000
 92       0.000000000000
 93       0.000000000000
 94       0.000000000000
 95       0.000000000000
 96       0.000000000000
 97       0.000000000000
 98       0.000000000000
 99       0.000000000000
100       0.000000000000
101       0.000000000000
102       0.000000000000
103       0.000000000000
104       0.000000000000
105       0.000000000000
106       0.000000000000
107       0.000000000000
108       0.000000000000
109       0.000000000000
110       0.000000000000
111       0.000000000000
112       0.000000000000
113       0.000000000000
114       0.000000000000
115       0.000000000000
116       0.000000000000
117       0.000000000000
118       0.000000000000
119       0.000000000000
120       0.000000000000
121       0.000000000000
122       0.000000000000
123       0.000000000000
124       0.000000000000
125       0.000000000000
126       0.000000000000
127       0.000000000000
128       0.000000000000
129       0.000000000000
130       0.000000000000
131       0.000000000000
132       0.000000000000
133       0.000000000000
134       0.000000000000
135       0.000000000000
136       0.000000000000
137       0.000000000000
138       0.000000000000
139       0.000000000000
140       0.000000000000
141       0.000000000000
142       0.000000000000
143       0.000000000000
144       0.000000000000
145       0.000000000000
146       0.000000000000
147       0.000000000000
148       0.000000000000
149       0.000000000000
150       0.000000000000
151       0.000000000000
152       0.000000000000
153       0.000000000000
154       0.000000000000
155       0.000000000000
156       0.000000000000
157       0.000000000000
158       0.000000000000
159       0.000000000000
160       0.000000000000
161       0.000000000000
162       0.000000000000
163       0.000000000000
164       0.000000000000
165       0.000000000000
166       0.000000000000
167       0.000000000000
168       0.000000000000
169       0.000000000000
170       0.000000000000
171       0.000000000000
172       0.000000000000
 Sym=     1a
 Ene=  2.92479547600582E+00
Spin= Alpha
 Occup= 0.007028
  1       0.000000000000
  2       0.000000000000
  3       0.000000000000
  4       0.000000000000
  5       0.000000000000
  6       0.000000000000
  7       0.000000000000
  8       0.000000000000
  9       0.000000000000
 10       0.000000000000
 11       0.000000000000
 12       0.000000000000
 13       0.000000000000
 14       0.000000000000
 15       0.000000000000
 16       0.000000000000
 17       0.000000000000
 18       0.000000000000
 19       0.000000000000
 20       0.000000000000
 21       0.000000000000
 22       0.000000000000
 23       0.000000000000
 24       0.000000000000
 25       0.000000000000
 26       0.000000000000
 27       0.000000000000
 28       0.000000000000
 29       0.000000000000
 30       0.000000000000
 31       0.000000000000
 32       0.000000000000
 33       0.000000000000
 34       0.000000000000
 35       0.000000000000
 36       0.000000000000
 37       0.000000000000
 38       0.000000000000
 39       0.000000000000
 40       0.000000000000
 41       0.000000000000
 42       0.000000000000
 43       0.000000000000
 44       0.000000000000
 45       0.000000000000
 46       0.000000000000
 47      -1.145971990255
 48       0.000000000000
 49       0.000000000000
 50       0.000000000000
 51       0.000000000000
 52       0.368673942033
 53       0.000000000000
 54       0.000000000000
 55       0.000000000000
 56       0.000000000000
 57       0.000000000000
 58       0.000000000000
 59       0.000000000000
 60       0.000000000000
 61       0.000000000000
 62       0.000000000000
 63       0.000000000000
 64       0.000000000000
 65       0.000000000000
 66       0.000000000000
 67       0.000000000000
 68       0.000000000000
 69       0.000000000000
 70       0.000000000000
 71       0.000000000000
 72       0.000000000000
 73       0.000000000000
 74       0.000000000000
 75       0.000000000000
 76       0.000000000000
 77       0.000000000000
 78       0.000000000000
 79       0.000000000000
 80       0.000000000000
 81       0.000000000000
 82       0.000000000000
 83       0.000000000000
 84       0.000000000000
 85       0.000000000000
 86       0.000000000000
 87       0.000000000000
 88       0.000000000000
 89       0.000000000000
 90       0.000000000000
 91       0.000000000000
 92       0.000000000000
 93       0.000000000000
 94       0.000000000000
 95       0.000000000000
 96       0.000000000000
 97       0.000000000000
 98       0.000000000000
 99       0.000000000000
100       0.000000000000
101       0.000000000000
102       0.000000000000
103       0.000000000000
104       0.000000000000
105       0.000000000000
106       0.000000000000
107       0.000000000000
108       0.000000000000
109       0.000000000000
110       0.000000000000
111       0.000000000000
112       0.000000000000
113       0.000000000000
114       0.000000000000
115       0.000000000000
116       0.000000000000
117       0.000000000000
118       0.000000000000
119       0.000000000000
120       0.000000000000
121       0.000000000000
122       0.000000000000
123       0.000000000000
124       0.000000000000
125       0.000000000000
126       0.000000000000
127       0.000000000000
128       0.000000000000
129       0.000000000000
130       0.000000000000
131       0.000000000000
132       0.000000000000
133       0.000000000000
134       0.000000000000
135       0.000000000000
136       0.000000000000
137       0.000000000000
138       0.000000000000
139       0.000000000000
140       0.000000000000
141       0.000000000000
142       0.000000000000
143       0.000000000000
144       0.000000000000
145       0.000000000000
146       0.000000000000
147       0.000000000000
148       0.000000000000
149       0.000000000000
150       0.000000000000
151       0.000000000000
152       0.000000000000
153       0.000000000000
154       0.000000000000
155       0.000000000000
156       0.000000000000
157       0.000000000000
158       0.000000000000
159       0.000000000000
160       0.000000000000
161       0.000000000000
162       0.000000000000
163       0.000000000000
164       0.000000000000
165       0.000000000000
166       0.000000000000
167       0.000000000000
168       0.000000000000
169       0.000000000000
170       0.000000000000
171       0.000000000000
172       0.000000000000
 Sym=     1a
 Ene=  2.88506763885928E+00
Spin= Alpha
 Occup= 0.007028
  1       0.000000000000
  2       0.000000000000
  3       0.000000000000
  4       0.000000000000
  5       0.000000000000
  6       0.000000000000
  7       0.000000000000
  8       0.000000000000
  9       0.000000000000
 10       0.000000000000
 11       0.000000000000
 12       0.000000000000
 13       0.000000000000
 14       0.000000000000
 15       0.000000000000
 16       0.000000000000
 17       0.000000000000
 18       0.000000000000
 19       0.000000000000
 20       0.000000000000
 21       0.000000000000
 22       0.000000000000
 23       0.000000000000
 24       0.000000000000
 25       0.000000000000
 26       0.000000000000
 27       0.000000000000
 28       0.000000000000
 29       0.000000000000
 30       0.000000000000
 31       0.000000000000
 32       0.000000000000
 33       0.000000000000
 34       0.000000000000
 35       0.000000000000
 36       0.000000000000
 37       0.000000000000
 38       0.000000000000
 39       0.000000000000
 40       0.000000000000
 41       0.000000000000
 42       0.000000000000
 43       0.000000000000
 44       0.000000000000
 45       0.000000000000
 46       0.000000000000
 47       0.000000000000
 48      -1.145971990255
 49       0.000000000000
 50       0.000000000000
 51       0.000000000000
 52       0.000000000000
 53       0.368673942033
 54       0.000000000000
 55       0.000000000000
 56       0.000000000000
 57       0.000000000000
 58       0.000000000000
 59       0.000000000000
 60       0.000000000000
 61       0.000000000000
 62       0.000000000000
 63       0.000000000000
 64       0.000000000000
 65       0.000000000000
 66       0.000000000000
 67       0.000000000000
 68       0.000000000000
 69       0.000000000000
 70       0.000000000000
 71       0.000000000000
 72       0.000000000000
 73       0.000000000000
 74       0.000000000000
 75       0.000000000000
 76       0.000000000000
 77       0.000000000000
 78       0.000000000000
 79       0.000000000000
 80       0.000000000000
 81       0.000000000000
 82       0.000000000000
 83       0.000000000000
 84       0.000000000000
 85       0.000000000000
 86       0.000000000000
 87       0.000000000000
 88       0.000000000000
 89       0.000000000000
 90       0.000000000000
 91       0.000000000000
 92       0.000000000000
 93       0.000000000000
 94       0.000000000000
 95       0.000000000000
 96       0.000000000000
 97       0.000000000000
 98       0.000000000000
 99       0.000000000000
100       0.000000000000
101       0.000000000000
102       0.000000000000
103       0.000000000000
104       0.000000000000
105       0.000000000000
106       0.000000000000
107       0.000000000000
108       0.000000000000
109       0.000000000000
110       0.000000000000
111       0.000000000000
112       0.000000000000
113       0.000000000000
114       0.000000000000
115       0.000000000000
116       0.000000000000
117       0.000000000000
118       0.000000000000
119       0.000000000000
120       0.000000000000
121       0.000000000000
122       0.000000000000
123       0.000000000000
124       0.000000000000
125       0.000000000000
126       0.000000000000
127       0.000000000000
128       0.000000000000
129       0.000000000000
130       0.000000000000
131       0.000000000000
132       0.000000000000
133       0.000000000000
134       0.000000000000
135       0.000000000000
136       0.000000000000
137       0.000000000000
138       0.000000000000
139       0.000000000000
140       0.000000000000
141       0.000000000000
142       0.000000000000
143       0.000000000000
144       0.000000000000
145       0.000000000000
146       0.000000000000
147       0.000000000000
148       0.000000000000
149       0.000000000000
150       0.000000000000
151       0.000000000000
152       0.000000000000
153       0.000000000000
154       0.000000000000
155       0.000000000000
156       0.000000000000
157       0.000000000000
158       0.000000000000
159       0.000000000000
160       0.000000000000
161       0.000000000000
162       0.000000000000
163       0.000000000000
164       0.000000000000
165       0.000000000000
166       0.000000000000
167       0.000000000000
168       0.000000000000
169       0.000000000000
170       0.000000000000
171       0.000000000000
172       0.000000000000
 Sym=     1a
 Ene=  2.90643881164941E+00
Spin= Alpha
 Occup= 0.007028
  1       0.000000000000
  2       0.000000000000
  3       0.000000000000
  4       0.000000000000
  5       0.000000000000
  6       0.000000000000
  7       0.000000000000
  8       0.000000000000
  9       0.000000000000
 10       0.000000000000
 11       0.000000000000
 12       0.000000000000
 13       0.000000000000
 14       0.000000000000
 15       0.000000000000
 16       0.000000000000
 17       0.000000000000
 18       0.000000000000
 19       0.000000000000
 20       0.000000000000
 21       0.000000000000
 22       0.000000000000
 23       0.000000000000
 24       0.000000000000
 25       0.000000000000
 26       0.000000000000
 27       0.000000000000
 28       0.000000000000
 29       0.000000000000
 30       0.000000000000
 31       0.000000000000
 32       0.000000000000
 33       0.000000000000
 34       0.000000000000
 35       0.000000000000
 36       0.000000000000
 37       0.000000000000
 38       0.000000000000
 39       0.000000000000
 40       0.000000000000
 41       0.000000000000
 42       0.000000000000
 43       0.000000000000
 44       0.000000000000
 45       0.000000000000
 46       0.000000000000
 47       0.000000000000
 48       0.000000000000
 49      -1.145971990255
 50       0.000000000000
 51       0.000000000000
 52       0.000000000000
 53       0.000000000000
 54       0.368673942033
 55       0.000000000000
 56       0.000000000000
 57       0.000000000000
 58       0.000000000000
 59       0.000000000000
 60       0.000000000000
 61       0.000000000000
 62       0.000000000000
 63       0.000000000000
 64       0.000000000000
 65       0.000000000000
 66       0.000000000000
 67       0.000000000000
 68       0.000000000000
 69       0.000000000000
 70       0.000000000000
 71       0.000000000000
 72       0.000000000000
 73       0.000000000000
 74       0.000000000000
 75       0.000000000000
 76       0.000000000000
 77       0.000000000000
 78       0.000000000000
 79       0.000000000000
 80       0.000000000000
 81       0.000000000000
 82       0.000000000000
 83       0.000000000000
 84       0.000000000000
 85       0.000000000000
 86       0.000000000000
 87       0.000000000000
 88       0.000000000000
 89       0.000000000000
 90       0.000000000000
 91       0.000000000000
 92       0.000000000000
 93       0.000000000000
 94       0.000000000000
 95       0.000000000000
 96       0.000000000000
 97       0.000000000000
 98       0.000000000000
 99       0.000000000000
100       0.000000000000
101       0.000000000000
102       0.000000000000
103       0.000000000000
104       0.000000000000
105       0.000000000000
106       0.000000000000
107       0.000000000000
108       0.000000000000
109       0.000000000000
110       0.000000000000
111       0.000000000000
112       0.000000000000
113       0.000000000000
114       0.000000000000
115       0.000000000000
116       0.000000000000
117       0.000000000000
118       0.000000000000
119       0.000000000000
120       0.000000000000
121       0.000000000000
122       0.000000000000
123       0.000000000000
124       0.000000000000
125       0.000000000000
126       0.000000000000
127       0.000000000000
128       0.000000000000
129       0.000000000000
130       0.000000000000
131       0.000000000000
132       0.000000000000
133       0.000000000000
134       0.000000000000
135       0.000000000000
136       0.000000000000
137       0.000000000000
138       0.000000000000
139       0.000000000000
140       0.000000000000
141       0.000000000000
142       0.000000000000
143       0.000000000000
144       0.000000000000
145       0.000000000000
146       0.000000000000
147       0.000000000000
148       0.000000000000
149       0.000000000000
150       0.000000000000
151       0.000000000000
152       0.000000000000
153       0.000000000000
154       0.000000000000
155       0.000000000000
156       0.000000000000
157       0.000000000000
158       0.000000000000
159       0.000000000000
160       0.000000000000
161       0.000000000000
162       0.000000000000
163       0.000000000000
164       0.000000000000
165       0.000000000000
166       0.000000000000
167       0.000000000000
168       0.000000000000
169       0.000000000000
170       0.000000000000
171       0.000000000000
172       0.000000000000
 Sym=     1a
 Ene=  2.87240087339120E+00
Spin= Alpha
 Occup= 0.007028
  1       0.000000000000
  2       0.000000000000
  3       0.000000000000
  4       0.000000000000
  5       0.000000000000
  6       0.000000000000
  7       0.000000000000
  8       0.000000000000
  9       0.000000000000
 10       0.000000000000
 11       0.000000000000
 12       0.000000000000
 13       0.000000000000
 14       0.000000000000
 15       0.000000000000
 16       0.000000000000
 17       0.000000000000
 18       0.000000000000
 19       0.000000000000
 20       0.000000000000
 21       0.000000000000
 22       0.000000000000
 23       0.000000000000
 24       0.000000000000
 25       0.000000000000
 26       0.000000000000
 27       0.000000000000
 28       0.000000000000
 29       0.000000000000
 30       0.000000000000
 31       0.000000000000
 32       0.000000000000
 33       0.000000000000
 34       0.000000000000
 35       0.000000000000
 36       0.000000000000
 37       0.000000000000
 38       0.000000000000
 39       0.000000000000
 40       0.000000000000
 41       0.000000000000
 42       0.000000000000
 43       0.000000000000
 44       0.000000000000
 45       0.000000000000
 46       0.000000000000
 47       0.000000000000
 48       0.000000000000
 49       0.000000000000
 50      -1.145971990255
 51       0.000000000000
 52       0.000000000000
 53       0.000000000000
 54       0.000000000000
 55       0.368673942033
 56       0.000000000000
 57       0.000000000000
 58       0.000000000000
 59       0.000000000000
 60       0.000000000000
 61       0.000000000000
 62       0.000000000000
 63       0.000000000000
 64       0.000000000000
 65       0.000000000000
 66       0.000000000000
 67       0.000000000000
 68       0.000000000000
 69       0.000000000000
 70       0.000000000000
 71       0.000000000000
 72       0.000000000000
 73       0.000000000000
 74       0.000000000000
 75       0.000000000000
 76       0.000000000000
 77       0.000000000000
 78       0.000000000000
 79       0.000000000000
 80       0.000000000000
 81       0.000000000000
 82       0.000000000000
 83       0.000000000000
 84       0.000000000000
 85       0.000000000000
 86       0.000000000000
 87       0.000000000000
 88       0.000000000000
 89       0.000000000000
 90       0.000000000000
 91       0.000000000000
 92       0.000000000000
 93       0.000000000000
 94       0.000000000000
 95       0.000000000000
 96       0.000000000000
 97       0.000000000000
 98       0.000000000000
 99       0.000000000000
100       0.000000000000
101       0.000000000000
102       0.000000000000
103       0.000000000000
104       0.000000000000
105       0.000000000000
106       0.000000000000
107       0.000000000000
108       0.000000000000
109       0.000000000000
110       0.000000000000
111       0.000000000000
112       0.000000000000
113       0.000000000000
114       0.000000000000
115       0.000000000000
116       0.000000000000
117       0.000000000000
118       0.000000000000
119       0.000000000000
120       0.000000000000
121       0.000000000000
122       0.000000000000
123       0.000000000000
124       0.000000000000
125       0.000000000000
126       0.000000000000
127       0.000000000000
128       0.000000000000
129       0.000000000000
130       0.000000000000
131       0.000000000000
132       0.000000000000
133       0.000000000000
134       0.000000000000
135       0.000000000000
136       0.000000000000
137       0.000000000000
138       0.000000000000
139       0.000000000000
140       0.000000000000
141       0.000000000000
142       0.000000000000
143       0.000000000000
144       0.000000000000
145       0.000000000000
146       0.000000000000
147       0.000000000000
148       0.000000000000
149       0.000000000000
150       0.000000000000
151       0.000000000000
152       0.000000000000
153       0.000000000000
154       0.000000000000
155       0.000000000000
156       0.000000000000
157       0.000000000000
158       0.000000000000
159       0.000000000000
160       0.000000000000
161       0.000000000000
162       0.000000000000
163       0.000000000000
164       0.000000000000
165       0.000000000000
166       0.000000000000
167       0.000000000000
168       0.000000000000
169       0.000000000000
170       0.000000000000
171       0.000000000000
172       0.000000000000
 Sym=     1a
 Ene=  5.66208474757843E-01
Spin= Alpha
 Occup= 0.224788
  1       0.000000000000
  2       0.000000000000
  3       0.000000000000
  4       0.000000000000
  5       0.000000000000
  6       0.000000000000
  7       0.000000000000
  8       0.000000000000
  9       0.000000000000
 10       0.000000000000
 11       0.000000000000
 12       0.000000000000
 13       0.000000000000
 14       0.000000000000
 15       0.000000000000
 16       0.000000000000
 17       0.000000000000
 18       0.000000000000
 19       0.000000000000
 20       0.000000000000
 21       0.000000000000
 22       0.000000000000
 23       0.000000000000
 24       0.000000000000
 25       0.000000000000
 26       0.000000000000
 27       0.000000000000
 28       0.000000000000
 29       0.000000000000
 30       0.000000000000
 31       0.000000000000
 32       0.000000000000
 33       0.000000000000
 34       0.000000000000
 35       0.000000000000
 36       0.000000000000
 37       0.000000000000
 38       0.000000000000
 39       0.000000000000
 40       0.000000000000
 41       0.000000000000
 42       0.000000000000
 43       0.000000000000
 44       0.000000000000
 45       0.000000000000
 46      -0.283938725530
 47       0.000000000000
 48       0.000000000000
 49       0.000000000000
 50       0.000000000000
 51       1.121584828165
 52       0.000000000000
 53       0.000000000000
 54       0.000000000000
 55       0.000000000000
 56       0.000000000000
 57       0.000000000000
 58       0.000000000000
 59       0.000000000000
 60       0.000000000000
 61       0.000000000000
 62       0.000000000000
 63       0.000000000000
 64       0.000000000000
 65       0.000000000000
 66       0.000000000000
 67       0.000000000000
 68       0.000000000000
 69       0.000000000000
 70       0.000000000000
 71       0.000000000000
 72       0.000000000000
 73       0.000000000000
 74       0.000000000000
 75       0.000000000000
 76       0.000000000000
 77       0.000000000000
 78       0.000000000000
 79       0.000000000000
 80       0.000000000000
 81       0.000000000000
 82       0.000000000000
 83       0.000000000000
 84       0.000000000000
 85       0.000000000000
 86       0.000000000000
 87       0.000000000000
 88       0.000000000000
 89       0.000000000000
 90       0.000000000000
 91       0.000000000000
 92       0.000000000000
 93       0.000000000000
 94       0.000000000000
 95       0.000000000000
 96       0.000000000000
 97       0.000000000000
 98       0.000000000000
 99       0.000000000000
100       0.000000000000
101       0.000000000000
102       0.000000000000
103       0.000000000000
104       0.000000000000
105       0.000000000000
106       0.000000000000
107       0.000000000000
108       0.000000000000
109       0.000000000000
110       0.000000000000
111       0.000000000000
112       0.000000000000
113       0.000000000000
114       0.000000000000
115       0.000000000000
116       0.000000000000
117       0.000000000000
118       0.000000000000
119       0.000000000000
120       0.000000000000
121       0.000000000000
122       0.000000000000
123       0.000000000000
124       0.000000000000
125       0.000000000000
126       0.000000000000
127       0.000000000000
128       0.000000000000
129       0.000000000000
130       0.000000000000
131       0.000000000000
132       0.000000000000
133       0.000000000000
134       0.000000000000
135       0.000000000000
136       0.000000000000
137       0.000000000000
138       0.000000000000
139       0.000000000000
140       0.000000000000
141       0.000000000000
142       0.000000000000
143       0.000000000000
144       0.000000000000
145       0.000000000000
146       0.000000000000
147       0.000000000000
148       0.000000000000
149       0.000000000000
150       0.000000000000
151       0.000000000000
152       0.000000000000
153       0.000000000000
154       0.000000000000
155       0.000000000000
156       0.000000000000
157       0.000000000000
158       0.000000000000
159       0.000000000000
160       0.000000000000
161       0.000000000000
162       0.000000000000
163       0.000000000000
164       0.000000000000
165       0.000000000000
166       0.000000000000
167       0.000000000000
168       0.000000000000
169       0.000000000000
170       0.000000000000
171       0.000000000000
172       0.000000000000
 Sym=     1a
 Ene=  7.18658906432146E-01
Spin= Alpha
 Occup= 0.224788
  1       0.000000000000
  2       0.000000000000
  3       0.000000000000
  4       0.000000000000
  5       0.000000000000
  6       0.000000000000
  7       0.000000000000
  8       0.000000000000
  9       0.000000000000
 10       0.000000000000
 11       0.000000000000
 12       0.000000000000
 13       0.000000000000
 14       0.000000000000
 15       0.000000000000
 16       0.000000000000
 17       0.000000000000
 18       0.000000000000
 19       0.000000000000
 20       0.000000000000
 21       0.000000000000
 22       0.000000000000
 23       0.000000000000
 24       0.000000000000
 25       0.000000000000
 26       0.000000000000
 27       0.000000000000
 28       0.000000000000
 29       0.000000000000
 30       0.000000000000
 31       0.000000000000
 32       0.000000000000
 33       0.000000000000
 34       0.000000000000
 35       0.000000000000
 36       0.000000000000
 37       0.000000000000
 38       0.000000000000
 39       0.000000000000
 40       0.000000000000
 41       0.000000000000
 42       0.000000000000
 43       0.000000000000
 44       0.000000000000
 45       0.000000000000
 46       0.000000000000
 47      -0.283938725530
 48       0.000000000000
 49       0.000000000000
 50       0.000000000000
 51       0.000000000000
 52       1.121584828165
 53       0.000000000000
 54       0.000000000000
 55       0.000000000000
 56       0.000000000000
 57       0.000000000000
 58       0.000000000000
 59       0.000000000000
 60       0.000000000000
 61       0.000000000000
 62       0.000000000000
 63       0.000000000000
 64       0.000000000000
 65       0.000000000000
 66       0.000000000000
 67       0.000000000000
 68       0.000000000000
 69       0.000000000000
 70       0.000000000000
 71       0.000000000000
 72       0.000000000000
 73       0.000000000000
 74       0.000000000000
 75       0.000000000000
 76       0.000000000000
 77       0.000000000000
 78       0.000000000000
 79       0.000000000000
 80       0.000000000000
 81       0.000000000000
 82       0.000000000000
 83       0.000000000000
 84       0.000000000000
 85       0.000000000000
 86       0.000000000000
 87       0.000000000000
 88       0.000000000000
 89       0.000000000000
 90       0.000000000000
 91       0.000000000000
 92       0.000000000000
 93       0.000000000000
 94       0.000000000000
 95       0.000000000000
 96       0.000000000000
 97       0.000000000000
 98       0.000000000000
 99       0.000000000000
100       0.000000000000
101       0.000000000000
102       0.000000000000
103       0.000000000000
104       0.000000000000
105       0.000000000000
106       0.000000000000
107       0.000000000000
108       0.000000000000
109       0.000000000000
110       0.000000000000
111       0.000000000000
112       0.000000000000
113       0.000000000000
114       0.000000000000
115       0.000000000000
116       0.000000000000
117       0.000000000000
118       0.000000000000
119       0.000000000000
120       0.000000000000
121       0.000000000000
122       0.000000000000
123       0.000000000000
124       0.000000000000
125       0.000000000000
126       0.000000000000
127       0.000000000000
128       0.000000000000
129       0.000000000000
130       0.000000000000
131       0.000000000000
132       0.000000000000
133       0.000000000000
134       0.000000000000
135       0.000000000000
136       0.000000000000
137       0.000000000000
138       0.000000000000
139       0.000000000000
140       0.000000000000
141       0.000000000000
142       0.000000000000
143       0.000000000000
144       0.000000000000
145       0.000000000000
146       0.000000000000
147       0.000000000000
148       0.000000000000
149       0.000000000000
150       0.000000000000
151       0.000000000000
152       0.000000000000
153       0.000000000000
154       0.000000000000
155       0.000000000000
156       0.000000000000
157       0.000000000000
158       0.000000000000
159       0.000000000000
160       0.000000000000
161       0.000000000000
162       0.000000000000
163       0.000000000000
164       0.000000000000
165       0.000000000000
166       0.000000000000
167       0.000000000000
168       0.000000000000
169       0.000000000000
170       0.000000000000
171       0.000000000000
172       0.000000000000
 Sym=     1a
 Ene=  5.62305883307112E-01
Spin= Alpha
 Occup= 0.224788
  1       0.000000000000
  2       0.000000000000
  3       0.000000000000
  4       0.000000000000
  5       0.000000000000
  6       0.000000000000
  7       0.000000000000
  8       0.000000000000
  9       0.000000000000
 10       0.000000000000
 11       0.000000000000
 12       0.000000000000
 13       0.000000000000
 14       0.000000000000
 15       0.000000000000
 16       0.000000000000
 17       0.000000000000
 18       0.000000000000
 19       0.000000000000
 20       0.000000000000
 21       0.000000000000
 22       0.000000000000
 23       0.000000000000
 24       0.000000000000
 25       0.000000000000
 26       0.000000000000
 27       0.000000000000
 28       0.000000000000
 29       0.000000000000
 30       0.000000000000
 31       0.000000000000
 32       0.000000000000
 33       0.000000000000
 34       0.000000000000
 35       0.000000000000
 36       0.000000000000
 37       0.000000000000
 38       0.000000000000
 39       0.000000000000
 40       0.000000000000
 41       0.000000000000
 42       0.000000000000
 43       0.000000000000
 44       0.000000000000
 45       0.000000000000
 46       0.000000000000
 47       0.000000000000
 48      -0.283938725530
 49       0.000000000000
 50       0.000000000000
 51       0.000000000000
 52       0.000000000000
 53       1.121584828165
 54       0.000000000000
 55       0.000000000000
 56       0.000000000000
 57       0.000000000000
 58       0.000000000000
 59       0.000000000000
 60       0.000000000000
 61       0.000000000000
 62       0.000000000000
 63       0.000000000000
 64       0.000000000000
 65       0.000000000000
 66       0.000000000000
 67       0.000000000000
 68       0.000000000000
 69       0.000000000000
 70       0.000000000000
 71       0.000000000000
 72       0.000000000000
 73       0.000000000000
 74       0.000000000000
 75       0.000000000000
 76       0.000000000000
 77       0.000000000000
 78       0.000000000000
 79       0.000000000000
 80       0.000000000000
 81       0.000000000000
 82       0.000000000000
 83       0.000000000000
 84       0.000000000000
 85       0.000000000000
 86       0.000000000000
 87       0.000000000000
 88       0.000000000000
 89       0.000000000000
 90       0.000000000000
 91       0.000000000000
 92       0.000000000000
 93       0.000000000000
 94       0.000000000000
 95       0.000000000000
 96       0.000000000000
 97       0.000000000000
 98       0.000000000000
 99       0.000000000000
100       0.000000000000
101       0.000000000000
102       0.000000000000
103       0.000000000000
104       0.000000000000
105       0.000000000000
106       0.000000000000
107       0.000000000000
108       0.000000000000
109       0.000000000000
110       0.000000000000
111       0.000000000000
112       0.000000000000
113       0.000000000000
114       0.000000000000
115       0.000000000000
116       0.000000000000
117       0.000000000000
118       0.000000000000
119       0.000000000000
120       0.000000000000
121       0.000000000000
122       0.000000000000
123       0.000000000000
124       0.000000000000
125       0.000000000000
126       0.000000000000
127       0.000000000000
128       0.000000000000
129       0.000000000000
130       0.000000000000
131       0.000000000000
132       0.000000000000
133       0.000000000000
134       0.000000000000
135       0.000000000000
136       0.000000000000
137       0.000000000000
138       0.000000000000
139       0.000000000000
140       0.000000000000
141       0.000000000000
142       0.000000000000
143       0.000000000000
144       0.000000000000
145       0.000000000000
146       0.000000000000
147       0.000000000000
148       0.000000000000
149       0.000000000000
150       0.000000000000
151       0.000000000000
152       0.000000000000
153       0.000000000000
154       0.000000000000
155       0.000000000000
156       0.000000000000
157       0.000000000000
158       0.000000000000
159       0.000000000000
160       0.000000000000
161       0.000000000000
162       0.000000000000
163       0.000000000000
164       0.000000000000
165       0.000000000000
166       0.000000000000
167       0.000000000000
168       0.000000000000
169       0.000000000000
170       0.000000000000
171       0.000000000000
172       0.000000000000
 Sym=     1a
 Ene=  5.89394829469203E-01
Spin= Alpha
 Occup= 0.224788
  1       0.000000000000
  2       0.000000000000
  3       0.000000000000
  4       0.000000000000
  5       0.000000000000
  6       0.000000000000
  7       0.000000000000
  8       0.000000000000
  9       0.000000000000
 10       0.000000000000
 11       0.000000000000
 12       0.000000000000
 13       0.000000000000
 14       0.000000000000
 15       0.000000000000
 16       0.000000000000
 17       0.000000000000
 18       0.000000000000
 19       0.000000000000
 20       0.000000000000
 21       0.000000000000
 22       0.000000000000
 23       0.000000000000
 24       0.000000000000
 25       0.000000000000
 26       0.000000000000
 27       0.000000000000
 28       0.000000000000
 29       0.000000000000
 30       0.000000000000
 31       0.000000000000
 32       0.000000000000
 33       0.000000000000
 34       0.000000000000
 35       0.000000000000
 36       0.000000000000
 37       0.000000000000
 38       0.000000000000
 39       0.000000000000
 40       0.000000000000
 41       0.000000000000
 42       0.000000000000
 43       0.000000000000
 44       0.000000000000
 45       0.000000000000
 46       0.000000000000
 47       0.000000000000
 48       0.000000000000
 49      -0.283938725530
 50       0.000000000000
 51       0.000000000000
 52       0.000000000000
 53       0.000000000000
 54       1.121584828165
 55       0.000000000000
 56       0.000000000000
 57       0.000000000000
 58       0.000000000000
 59       0.000000000000
 60       0.000000000000
 61       0.000000000000
 62       0.000000000000
 63       0.000000000000
 64       0.000000000000
 65       0.000000000000
 66       0.000000000000
 67       0.000000000000
 68       0.000000000000
 69       0.000000000000
 70       0.000000000000
 71       0.000000000000
 72       0.000000000000
 73       0.000000000000
 74       0.000000000000
 75       0.000000000000
 76       0.000000000000
 77       0.000000000000
 78       0.000000000000
 79       0.000000000000
 80       0.000000000000
 81       0.000000000000
 82       0.000000000000
 83       0.000000000000
 84       0.000000000000
 85       0.000000000000
 86       0.000000000000
 87       0.000000000000
 88       0.000000000000
 89       0.000000000000
 90       0.000000000000
 91       0.000000000000
 92       0.000000000000
 93       0.000000000000
 94       0.000000000000
 95       0.000000000000
 96       0.000000000000
 97       0.000000000000
 98       0.000000000000
 99       0.000000000000
100       0.000000000000
101       0.000000000000
102       0.000000000000
103       0.000000000000
104       0.000000000000
105       0.000000000000
106       0.000000000000
107       0.000000000000
108       0.000000000000
109       0.000000000000
110       0.000000000000
111       0.000000000000
112       0.000000000000
113       0.000000000000
114       0.000000000000
115       0.000000000000
116       0.000000000000
117       0.000000000000
118       0.000000000000
119       0.000000000000
120       0.000000000000
121       0.000000000000
122       0.000000000000
123       0.000000000000
124       0.000000000000
125       0.000000000000
126       0.000000000000
127       0.000000000000
128       0.000000000000
129       0.000000000000
130       0.000000000000
131       0.000000000000
132       0.000000000000
133       0.000000000000
134       0.000000000000
135       0.000000000000
136       0.000000000000
137       0.000000000000
138       0.000000000000
139       0.000000000000
140       0.000000000000
141       0.000000000000
142       0.000000000000
143       0.000000000000
144       0.000000000000
145       0.000000000000
146       0.000000000000
147       0.000000000000
148       0.000000000000
149       0.000000000000
150       0.000000000000
151       0.000000000000
152       0.000000000000
153       0.000000000000
154       0.000000000000
155       0.000000000000
156       0.000000000000
157       0.000000000000
158       0.000000000000
159       0.000000000000
160       0.000000000000
161       0.000000000000
162       0.000000000000
163       0.000000000000
164       0.000000000000
165       0.000000000000
166       0.000000000000
167       0.000000000000
168       0.000000000000
169       0.000000000000
170       0.000000000000
171       0.000000000000
172       0.000000000000
 Sym=     1a
 Ene=  3.79258922639313E-01
Spin= Alpha
 Occup= 0.224788
  1       0.000000000000
  2       0.000000000000
  3       0.000000000000
  4       0.000000000000
  5       0.000000000000
  6       0.000000000000
  7       0.000000000000
  8       0.000000000000
  9       0.000000000000
 10       0.000000000000
 11       0.000000000000
 12       0.000000000000
 13       0.000000000000
 14       0.000000000000
 15       0.000000000000
 16       0.000000000000
 17       0.000000000000
 18       0.000000000000
 19       0.000000000000
 20       0.000000000000
 21       0.000000000000
 22       0.000000000000
 23       0.000000000000
 24       0.000000000000
 25       0.000000000000
 26       0.000000000000
 27       0.000000000000
 28       0.000000000000
 29       0.000000000000
 30       0.000000000000
 31       0.000000000000
 32       0.000000000000
 33       0.000000000000
 34       0.000000000000
 35       0.000000000000
 36       0.000000000000
 37       0.000000000000
 38       0.000000000000
 39       0.000000000000
 40       0.000000000000
 41       0.000000000000
 42       0.000000000000
 43       0.000000000000
 44       0.000000000000
 45       0.000000000000
 46       0.000000000000
 47       0.000000000000
 48       0.000000000000
 49       0.000000000000
 50      -0.283938725530
 51       0.000000000000
 52       0.000000000000
 53       0.000000000000
 54       0.000000000000
 55       1.121584828165
 56       0.000000000000
 57       0.000000000000
 58       0.000000000000
 59       0.000000000000
 60       0.000000000000
 61       0.000000000000
 62       0.000000000000
 63       0.000000000000
 64       0.000000000000
 65       0.000000000000
 66       0.000000000000
 67       0.000000000000
 68       0.000000000000
 69       0.000000000000
 70       0.000000000000
 71       0.000000000000
 72       0.000000000000
 73       0.000000000000
 74       0.000000000000
 75       0.000000000000
 76       0.000000000000
 77       0.000000000000
 78       0.000000000000
 79       0.000000000000
 80       0.000000000000
 81       0.000000000000
 82       0.000000000000
 83       0.000000000000
 84       0.000000000000
 85       0.000000000000
 86       0.000000000000
 87       0.000000000000
 88       0.000000000000
 89       0.000000000000
 90       0.000000000000
 91       0.000000000000
 92       0.000000000000
 93       0.000000000000
 94       0.000000000000
 95       0.000000000000
 96       0.000000000000
 97       0.000000000000
 98       0.000000000000
 99       0.000000000000
100       0.000000000000
101       0.000000000000
102       0.000000000000
103       0.000000000000
104       0.000000000000
105       0.000000000000
106       0.000000000000
107       0.000000000000
108       0.000000000000
109       0.000000000000
110       0.000000000000
111       0.000000000000
112       0.000000000000
113       0.000000000000
114       0.000000000000
115       0.000000000000
116       0.000000000000
117       0.000000000000
118       0.000000000000
119       0.000000000000
120       0.000000000000
121       0.000000000000
122       0.000000000000
123       0.000000000000
124       0.000000000000
125       0.000000000000
126       0.000000000000
127       0.000000000000
128       0.000000000000
129       0.000000000000
130       0.000000000000
131       0.000000000000
132       0.000000000000
133       0.000000000000
134       0.000000000000
135       0.000000000000
136       0.000000000000
137       0.000000000000
138       0.000000000000
139       0.000000000000
140       0.000000000000
141       0.000000000000
142       0.000000000000
143       0.000000000000
144       0.000000000000
145       0.000000000000
146       0.000000000000
147       0.000000000000
148       0.000000000000
149       0.000000000000
150       0.000000000000
151       0.000000000000
152       0.000000000000
153       0.000000000000
154       0.000000000000
155       0.000000000000
156       0.000000000000
157       0.000000000000
158       0.000000000000
159       0.000000000000
160       0.000000000000
161       0.000000000000
162       0.000000000000
163       0.000000000000
164       0.000000000000
165       0.000000000000
166       0.000000000000
167       0.000000000000
168       0.000000000000
169       0.000000000000
170       0.000000000000
171       0.000000000000
172       0.000000000000
 Sym=     1a
 Ene=  2.64018667018225E+00
Spin= Alpha
 Occup= 0.017652
  1       0.000000000000
  2       0.000000000000
  3       0.000000000000
  4       0.000000000000
  5       0.000000000000
  6       0.000000000000
  7       0.000000000000
  8       0.000000000000
  9       0.000000000000
 10       0.000000000000
 11       0.000000000000
 12       0.000000000000
 13       0.000000000000
 14       0.000000000000
 15       0.000000000000
 16       0.000000000000
 17       0.000000000000
 18       0.000000000000
 19       0.000000000000
 20       0.000000000000
 21       0.000000000000
 22       0.000000000000
 23       0.000000000000
 24       0.000000000000
 25       0.000000000000
 26       0.000000000000
 27       0.000000000000
 28       0.000000000000
 29       0.000000000000
 30       0.000000000000
 31       0.000000000000
 32       0.000000000000
 33       0.000000000000
 34       0.000000000000
 35       0.000000000000
 36       0.000000000000
 37       0.000000000000
 38       0.000000000000
 39       0.000000000000
 40       0.000000000000
 41       0.000000000000
 42       0.000000000000
 43       0.000000000000
 44       0.000000000000
 45       0.000000000000
 46       0.000000000000
 47       0.000000000000
 48       0.000000000000
 49       0.000000000000
 50       0.000000000000
 51       0.000000000000
 52       0.000000000000
 53       0.000000000000
 54       0.000000000000
 55       0.000000000000
 56       1.000000000000
 57       0.000000000000
 58       0.000000000000
 59       0.000000000000
 60       0.000000000000
 61       0.000000000000
 62       0.000000000000
 63       0.000000000000
 64       0.000000000000
 65       0.000000000000
 66       0.000000000000
 67       0.000000000000
 68       0.000000000000
 69       0.000000000000
 70       0.000000000000
 71       0.000000000000
 72       0.000000000000
 73       0.000000000000
 74       0.000000000000
 75       0.000000000000
 76       0.000000000000
 77       0.000000000000
 78       0.000000000000
 79       0.000000000000
 80       0.000000000000
 81       0.000000000000
 82       0.000000000000
 83       0.000000000000
 84       0.000000000000
 85       0.000000000000
 86       0.000000000000
 87       0.000000000000
 88       0.000000000000
 89       0.000000000000
 90       0.000000000000
 91       0.000000000000
 92       0.000000000000
 93       0.000000000000
 94       0.000000000000
 95       0.000000000000
 96       0.000000000000
 97       0.000000000000
 98       0.000000000000
 99       0.000000000000
100       0.000000000000
101       0.000000000000
102       0.000000000000
103       0.000000000000
104       0.000000000000
105       0.000000000000
106       0.000000000000
107       0.000000000000
108       0.000000000000
109       0.000000000000
110       0.000000000000
111       0.000000000000
112       0.000000000000
113       0.000000000000
114       0.000000000000
115       0.000000000000
116       0.000000000000
117       0.000000000000
118       0.000000000000
119       0.000000000000
120       0.000000000000
121       0.000000000000
122       0.000000000000
123       0.000000000000
124       0.000000000000
125       0.000000000000
126       0.000000000000
127       0.000000000000
128       0.000000000000
129       0.000000000000
130       0.000000000000
131       0.000000000000
132       0.000000000000
133       0.000000000000
134       0.000000000000
135       0.000000000000
136       0.000000000000
137       0.000000000000
138       0.000000000000
139       0.000000000000
140       0.000000000000
141       0.000000000000
142       0.000000000000
143       0.000000000000
144       0.000000000000
145       0.000000000000
146       0.000000000000
147       0.000000000000
148       0.000000000000
149       0.000000000000
150       0.000000000000
151       0.000000000000
152       0.000000000000
153       0.000000000000
154       0.000000000000
155       0.000000000000
156       0.000000000000
157       0.000000000000
158       0.000000000000
159       0.000000000000
160       0.000000000000
161       0.000000000000
162       0.000000000000
163       0.000000000000
164       0.000000000000
165       0.000000000000
166       0.000000000000
167       0.000000000000
168       0.000000000000
169       0.000000000000
170       0.000000000000
171       0.000000000000
172       0.000000000000
 Sym=     1a
 Ene=  2.62121158029895E+00
Spin= Alpha
 Occup= 0.017652
  1       0.000000000000
  2       0.000000000000
  3       0.000000000000
  4       0.000000000000
  5       0.000000000000
  6       0.000000000000
  7       0.000000000000
  8       0.000000000000
  9       0.000000000000
 10       0.000000000000
 11       0.000000000000
 12       0.000000000000
 13       0.000000000000
 14       0.000000000000
 15       0.000000000000
 16       0.000000000000
 17       0.000000000000
 18       0.000000000000
 19       0.000000000000
 20       0.000000000000
 21       0.000000000000
 22       0.000000000000
 23       0.000000000000
 24       0.000000000000
 25       0.000000000000
 26       0.000000000000
 27       0.000000000000
 28       0.000000000000
 29       0.000000000000
 30       0.000000000000
 31       0.000000000000
 32       0.000000000000
 33       0.000000000000
 34       0.000000000000
 35       0.000000000000
 36       0.000000000000
 37       0.000000000000
 38       0.000000000000
 39       0.000000000000
 40       0.000000000000
 41       0.000000000000
 42       0.000000000000
 43       0.000000000000
 44       0.000000000000
 45       0.000000000000
 46       0.000000000000
 47       0.000000000000
 48       0.000000000000
 49       0.000000000000
 50       0.000000000000
 51       0.000000000000
 52       0.000000000000
 53       0.000000000000
 54       0.000000000000
 55       0.000000000000
 56       0.000000000000
 57       1.000000000000
 58       0.000000000000
 59       0.000000000000
 60       0.000000000000
 61       0.000000000000
 62       0.000000000000
 63       0.000000000000
 64       0.000000000000
 65       0.000000000000
 66       0.000000000000
 67       0.000000000000
 68       0.000000000000
 69       0.000000000000
 70       0.000000000000
 71       0.000000000000
 72       0.000000000000
 73       0.000000000000
 74       0.000000000000
 75       0.000000000000
 76       0.000000000000
 77       0.000000000000
 78       0.000000000000
 79       0.000000000000
 80       0.000000000000
 81       0.000000000000
 82       0.000000000000
 83       0.000000000000
 84       0.000000000000
 85       0.000000000000
 86       0.000000000000
 87       0.000000000000
 88       0.000000000000
 89       0.000000000000
 90       0.000000000000
 91       0.000000000000
 92       0.000000000000
 93       0.000000000000
 94       0.000000000000
 95       0.000000000000
 96       0.000000000000
 97       0.000000000000
 98       0.000000000000
 99       0.000000000000
100       0.000000000000
101       0.000000000000
102       0.000000000000
103       0.000000000000
104       0.000000000000
105       0.000000000000
106       0.000000000000
107       0.000000000000
108       0.000000000000
109       0.000000000000
110       0.000000000000
111       0.000000000000
112       0.000000000000
113       0.000000000000
114       0.000000000000
115       0.000000000000
116       0.000000000000
117       0.000000000000
118       0.000000000000
119       0.000000000000
120       0.000000000000
121       0.000000000000
122       0.000000000000
123       0.000000000000
124       0.000000000000
125       0.000000000000
126       0.000000000000
127       0.000000000000
128       0.000000000000
129       0.000000000000
130       0.000000000000
131       0.000000000000
132       0.000000000000
133       0.000000000000
134       0.000000000000
135       0.000000000000
136       0.000000000000
137       0.000000000000
138       0.000000000000
139       0.000000000000
140       0.000000000000
141       0.000000000000
142       0.000000000000
143       0.000000000000
144       0.000000000000
145       0.000000000000
146       0.000000000000
147       0.000000000000
148       0.000000000000
149       0.000000000000
150       0.000000000000
151       0.000000000000
152       0.000000000000
153       0.000000000000
154       0.000000000000
155       0.000000000000
156       0.000000000000
157       0.000000000000
158       0.000000000000
159       0.000000000000
160       0.000000000000
161       0.000000000000
162       0.000000000000
163       0.000000000000
164       0.000000000000
165       0.000000000000
166       0.000000000000
167       0.000000000000
168       0.000000000000
169       0.000000000000
170       0.000000000000
171       0.000000000000
172       0.000000000000
 Sym=     1a
 Ene=  2.49875371610791E+00
Spin= Alpha
 Occup= 0.017652
  1       0.000000000000
  2       0.000000000000
  3       0.000000000000
  4       0.000000000000
  5       0.000000000000
  6       0.000000000000
  7       0.000000000000
  8       0.000000000000
  9       0.000000000000
 10       0.000000000000
 11       0.000000000000
 12       0.000000000000
 13       0.000000000000
 14       0.000000000000
 15       0.000000000000
 16       0.000000000000
 17       0.000000000000
 18       0.000000000000
 19       0.000000000000
 20       0.000000000000
 21       0.000000000000
 22       0.000000000000
 23       0.000000000000
 24       0.000000000000
 25       0.000000000000
 26       0.000000000000
 27       0.000000000000
 28       0.000000000000
 29       0.000000000000
 30       0.000000000000
 31       0.000000000000
 32       0.000000000000
 33       0.000000000000
 34       0.000000000000
 35       0.000000000000
 36       0.000000000000
 37       0.000000000000
 38       0.000000000000
 39       0.000000000000
 40       0.000000000000
 41       0.000000000000
 42       0.000000000000
 43       0.000000000000
 44       0.000000000000
 45       0.000000000000
 46       0.000000000000
 47       0.000000000000
 48       0.000000000000
 49       0.000000000000
 50       0.000000000000
 51       0.000000000000
 52       0.000000000000
 53       0.000000000000
 54       0.000000000000
 55       0.000000000000
 56       0.000000000000
 57       0.000000000000
 58       1.000000000000
 59       0.000000000000
 60       0.000000000000
 61       0.000000000000
 62       0.000000000000
 63       0.000000000000
 64       0.000000000000
 65       0.000000000000
 66       0.000000000000
 67       0.000000000000
 68       0.000000000000
 69       0.000000000000
 70       0.000000000000
 71       0.000000000000
 72       0.000000000000
 73       0.000000000000
 74       0.000000000000
 75       0.000000000000
 76       0.000000000000
 77       0.000000000000
 78       0.000000000000
 79       0.000000000000
 80       0.000000000000
 81       0.000000000000
 82       0.000000000000
 83       0.000000000000
 84       0.000000000000
 85       0.000000000000
 86       0.000000000000
 87       0.000000000000
 88       0.000000000000
 89       0.000000000000
 90       0.000000000000
 91       0.000000000000
 92       0.000000000000
 93       0.000000000000
 94       0.000000000000
 95       0.000000000000
 96       0.000000000000
 97       0.000000000000
 98       0.000000000000
 99       0.000000000000
100       0.000000000000
101       0.000000000000
102       0.000000000000
103       0.000000000000
104       0.000000000000
105       0.000000000000
106       0.000000000000
107       0.000000000000
108       0.000000000000
109       0.000000000000
110       0.000000000000
111       0.000000000000
112       0.000000000000
113       0.000000000000
114       0.000000000000
115       0.000000000000
116       0.000000000000
117       0.000000000000
118       0.000000000000
119       0.000000000000
120       0.000000000000
121       0.000000000000
122       0.000000000000
123       0.000000000000
124       0.000000000000
125       0.000000000000
126       0.000000000000
127       0.000000000000
128       0.000000000000
129       0.000000000000
130       0.000000000000
131       0.000000000000
132       0.000000000000
133       0.000000000000
134       0.000000000000
135       0.000000000000
136       0.000000000000
137       0.000000000000
138       0.000000000000
139       0.000000000000
140       0.000000000000
141       0.000000000000
142       0.000000000000
143       0.000000000000
144       0.000000000000
145       0.000000000000
146       0.000000000000
147       0.000000000000
148       0.000000000000
149       0.000000000000
150       0.000000000000
151       0.000000000000
152       0.000000000000
153       0.000000000000
154       0.000000000000
155       0.000000000000
156       0.000000000000
157       0.000000000000
158       0.000000000000
159       0.000000000000
160       0.000000000000
161       0.000000000000
162       0.000000000000
163       0.000000000000
164       0.000000000000
165       0.000000000000
166       0.000000000000
167       0.000000000000
168       0.000000000000
169       0.000000000000
170       0.000000000000
171       0.000000000000
172       0.000000000000
 Sym=     1a
 Ene=  2.60902255459641E+00
Spin= Alpha
 Occup= 0.017652
  1       0.000000000000
  2       0.000000000000
  3       0.000000000000
  4       0.000000000000
  5       0.000000000000
  6       0.000000000000
  7       0.000000000000
  8       0.000000000000
  9       0.000000000000
 10       0.000000000000
 11       0.000000000000
 12       0.000000000000
 13       0.000000000000
 14       0.000000000000
 15       0.000000000000
 16       0.000000000000
 17       0.000000000000
 18       0.000000000000
 19       0.000000000000
 20       0.000000000000
 21       0.000000000000
 22       0.000000000000
 23       0.000000000000
 24       0.000000000000
 25       0.000000000000
 26       0.000000000000
 27       0.000000000000
 28       0.000000000000
 29       0.000000000000
 30       0.000000000000
 31       0.000000000000
 32       0.000000000000
 33       0.000000000000
 34       0.000000000000
 35       0.000000000000
 36       0.000000000000
 37       0.000000000000
 38       0.000000000000
 39       0.000000000000
 40       0.000000000000
 41       0.000000000000
 42       0.000000000000
 43       0.000000000000
 44       0.000000000000
 45       0.000000000000
 46       0.000000000000
 47       0.000000000000
 48       0.000000000000
 49       0.000000000000
 50       0.000000000000
 51       0.000000000000
 52       0.000000000000
 53       0.000000000000
 54       0.000000000000
 55       0.000000000000
 56       0.000000000000
 57       0.000000000000
 58       0.000000000000
 59       1.000000000000
 60       0.000000000000
 61       0.000000000000
 62       0.000000000000
 63       0.000000000000
 64       0.000000000000
 65       0.000000000000
 66       0.000000000000
 67       0.000000000000
 68       0.000000000000
 69       0.000000000000
 70       0.000000000000
 71       0.000000000000
 72       0.000000000000
 73       0.000000000000
 74       0.000000000000
 75       0.000000000000
 76       0.000000000000
 77       0.000000000000
 78       0.000000000000
 79       0.000000000000
 80       0.000000000000
 81       0.000000000000
 82       0.000000000000
 83       0.000000000000
 84       0.000000000000
 85       0.000000000000
 86       0.000000000000
 87       0.000000000000
 88       0.000000000000
 89       0.000000000000
 90       0.000000000000
 91       0.000000000000
 92       0.000000000000
 93       0.000000000000
 94       0.000000000000
 95       0.000000000000
 96       0.000000000000
 97       0.000000000000
 98       0.000000000000
 99       0.000000000000
100       0.000000000000
101       0.000000000000
102       0.000000000000
103       0.000000000000
104       0.000000000000
105       0.000000000000
106       0.000000000000
107       0.000000000000
108       0.000000000000
109       0.000000000000
110       0.000000000000
111       0.000000000000
112       0.000000000000
113       0.000000000000
114       0.000000000000
115       0.000000000000
116       0.000000000000
117       0.000000000000
118       0.000000000000
119       0.000000000000
120       0.000000000000
121       0.000000000000
122       0.000000000000
123       0.000000000000
124       0.000000000000
125       0.000000000000
126       0.000000000000
127       0.000000000000
128       0.000000000000
129       0.000000000000
130       0.000000000000
131       0.000000000000
132       0.000000000000
133       0.000000000000
134       0.000000000000
135       0.000000000000
136       0.000000000000
137       0.000000000000
138       0.000000000000
139       0.000000000000
140       0.000000000000
141       0.000000000000
142       0.000000000000
143       0.000000000000
144       0.000000000000
145       0.000000000000
146       0.000000000000
147       0.000000000000
148       0.000000000000
149       0.000000000000
150       0.000000000000
151       0.000000000000
152       0.000000000000
153       0.000000000000
154       0.000000000000
155       0.000000000000
156       0.000000000000
157       0.000000000000
158       0.000000000000
159       0.000000000000
160       0.000000000000
161       0.000000000000
162       0.000000000000
163       0.000000000000
164       0.000000000000
165       0.000000000000
166       0.000000000000
167       0.000000000000
168       0.000000000000
169       0.000000000000
170       0.000000000000
171       0.000000000000
172       0.000000000000
 Sym=     1a
 Ene=  2.62772038612133E+00
Spin= Alpha
 Occup= 0.017652
  1       0.000000000000
  2       0.000000000000
  3       0.000000000000
  4       0.000000000000
  5       0.000000000000
  6       0.000000000000
  7       0.000000000000
  8       0.000000000000
  9       0.000000000000
 10       0.000000000000
 11       0.000000000000
 12       0.000000000000
 13       0.000000000000
 14       0.000000000000
 15       0.000000000000
 16       0.000000000000
 17       0.000000000000
 18       0.000000000000
 19       0.000000000000
 20       0.000000000000
 21       0.000000000000
 22       0.000000000000
 23       0.000000000000
 24       0.000000000000
 25       0.000000000000
 26       0.000000000000
 27       0.000000000000
 28       0.000000000000
 29       0.000000000000
 30       0.000000000000
 31       0.000000000000
 32       0.000000000000
 33       0.000000000000
 34       0.000000000000
 35       0.000000000000
 36       0.000000000000
 37       0.000000000000
 38       0.000000000000
 39       0.000000000000
 40       0.000000000000
 41       0.000000000000
 42       0.000000000000
 43       0.000000000000
 44       0.000000000000
 45       0.000000000000
 46       0.000000000000
 47       0.000000000000
 48       0.000000000000
 49       0.000000000000
 50       0.000000000000
 51       0.000000000000
 52       0.000000000000
 53       0.000000000000
 54       0.000000000000
 55       0.000000000000
 56       0.000000000000
 57       0.000000000000
 58       0.000000000000
 59       0.000000000000
 60       1.000000000000
 61       0.000000000000
 62       0.000000000000
 63       0.000000000000
 64       0.000000000000
 65       0.000000000000
 66       0.000000000000
 67       0.000000000000
 68       0.000000000000
 69       0.000000000000
 70       0.000000000000
 71       0.000000000000
 72       0.000000000000
 73       0.000000000000
 74       0.000000000000
 75       0.000000000000
 76       0.000000000000
 77       0.000000000000
 78       0.000000000000
 79       0.000000000000
 80       0.000000000000
 81       0.000000000000
 82       0.000000000000
 83       0.000000000000
 84       0.000000000000
 85       0.000000000000
 86       0.000000000000
 87       0.000000000000
 88       0.000000000000
 89       0.000000000000
 90       0.000000000000
 91       0.000000000000
 92       0.000000000000
 93       0.000000000000
 94       0.000000000000
 95       0.000000000000
 96       0.000000000000
 97       0.000000000000
 98       0.000000000000
 99       0.000000000000
100       0.000000000000
101       0.000000000000
102       0.000000000000
103       0.000000000000
104       0.000000000000
105       0.000000000000
106       0.000000000000
107       0.000000000000
108       0.000000000000
109       0.000000000000
110       0.000000000000
111       0.000000000000
112       0.000000000000
113       0.000000000000
114       0.000000000000
115       0.000000000000
116       0.000000000000
117       0.000000000000
118       0.000000000000
119       0.000000000000
120       0.000000000000
121       0.000000000000
122       0.000000000000
123       0.000000000000
124       0.000000000000
125       0.000000000000
126       0.000000000000
127       0.000000000000
128       0.000000000000
129       0.000000000000
130       0.000000000000
131       0.000000000000
132       0.000000000000
133       0.000000000000
134       0.000000000000
135       0.000000000000
136       0.000000000000
137       0.000000000000
138       0.000000000000
139       0.000000000000
140       0.000000000000
141       0.000000000000
142       0.000000000000
143       0.000000000000
144       0.000000000000
145       0.000000000000
146       0.000000000000
147       0.000000000000
148       0.000000000000
149       0.000000000000
150       0.000000000000
151       0.000000000000
152       0.000000000000
153       0.000000000000
154       0.000000000000
155       0.000000000000
156       0.000000000000
157       0.000000000000
158       0.000000000000
159       0.000000000000
160       0.000000000000
161       0.000000000000
162       0.000000000000
163       0.000000000000
164       0.000000000000
165       0.000000000000
166       0.000000000000
167       0.000000000000
168       0.000000000000
169       0.000000000000
170       0.000000000000
171       0.000000000000
172       0.000000000000
 Sym=     1a
 Ene=  2.61278301400989E+00
Spin= Alpha
 Occup= 0.017652
  1       0.000000000000
  2       0.000000000000
  3       0.000000000000
  4       0.000000000000
  5       0.000000000000
  6       0.000000000000
  7       0.000000000000
  8       0.000000000000
  9       0.000000000000
 10       0.000000000000
 11       0.000000000000
 12       0.000000000000
 13       0.000000000000
 14       0.000000000000
 15       0.000000000000
 16       0.000000000000
 17       0.000000000000
 18       0.000000000000
 19       0.000000000000
 20       0.000000000000
 21       0.000000000000
 22       0.000000000000
 23       0.000000000000
 24       0.000000000000
 25       0.000000000000
 26       0.000000000000
 27       0.000000000000
 28       0.000000000000
 29       0.000000000000
 30       0.000000000000
 31       0.000000000000
 32       0.000000000000
 33       0.000000000000
 34       0.000000000000
 35       0.000000000000
 36       0.000000000000
 37       0.000000000000
 38       0.000000000000
 39       0.000000000000
 40       0.000000000000
 41       0.000000000000
 42       0.000000000000
 43       0.000000000000
 44       0.000000000000
 45       0.000000000000
 46       0.000000000000
 47       0.000000000000
 48       0.000000000000
 49       0.000000000000
 50       0.000000000000
 51       0.000000000000
 52       0.000000000000
 53       0.000000000000
 54       0.000000000000
 55       0.000000000000
 56       0.000000000000
 57       0.000000000000
 58       0.000000000000
 59       0.000000000000
 60       0.000000000000
 61       1.000000000000
 62       0.000000000000
 63       0.000000000000
 64       0.000000000000
 65       0.000000000000
 66       0.000000000000
 67       0.000000000000
 68       0.000000000000
 69       0.000000000000
 70       0.000000000000
 71       0.000000000000
 72       0.000000000000
 73       0.000000000000
 74       0.000000000000
 75       0.000000000000
 76       0.000000000000
 77       0.000000000000
 78       0.000000000000
 79       0.000000000000
 80       0.000000000000
 81       0.000000000000
 82       0.000000000000
 83       0.000000000000
 84       0.000000000000
 85       0.000000000000
 86       0.000000000000
 87       0.000000000000
 88       0.000000000000
 89       0.000000000000
 90       0.000000000000
 91       0.000000000000
 92       0.000000000000
 93       0.000000000000
 94       0.000000000000
 95       0.000000000000
 96       0.000000000000
 97       0.000000000000
 98       0.000000000000
 99       0.000000000000
100       0.000000000000
101       0.000000000000
102       0.000000000000
103       0.000000000000
104       0.000000000000
105       0.000000000000
106       0.000000000000
107       0.000000000000
108       0.000000000000
109       0.000000000000
110       0.000000000000
111       0.000000000000
112       0.000000000000
113       0.000000000000
114       0.000000000000
115       0.000000000000
116       0.000000000000
117       0.000000000000
118       0.000000000000
119       0.000000000000
120       0.000000000000
121       0.000000000000
122       0.000000000000
123       0.000000000000
124       0.000000000000
125       0.000000000000
126       0.000000000000
127       0.000000000000
128       0.000000000000
129       0.000000000000
130       0.000000000000
131       0.000000000000
132       0.000000000000
133       0.000000000000
134       0.000000000000
135       0.000000000000
136       0.000000000000
137       0.000000000000
138       0.000000000000
139       0.000000000000
140       0.000000000000
141       0.000000000000
142       0.000000000000
143       0.000000000000
144       0.000000000000
145       0.000000000000
146       0.000000000000
147       0.000000000000
148       0.000000000000
149       0.000000000000
150       0.000000000000
151       0.000000000000
152       0.000000000000
153       0.000000000000
154       0.000000000000
155       0.000000000000
156       0.000000000000
157       0.000000000000
158       0.000000000000
159       0.000000000000
160       0.000000000000
161       0.000000000000
162       0.000000000000
163       0.000000000000
164       0.000000000000
165       0.000000000000
166       0.000000000000
167       0.000000000000
168       0.000000000000
169       0.000000000000
170       0.000000000000
171       0.000000000000
172       0.000000000000
 Sym=     1a
 Ene=  2.52950697354810E+00
Spin= Alpha
 Occup= 0.017652
  1       0.000000000000
  2       0.000000000000
  3       0.000000000000
  4       0.000000000000
  5       0.000000000000
  6       0.000000000000
  7       0.000000000000
  8       0.000000000000
  9       0.000000000000
 10       0.000000000000
 11       0.000000000000
 12       0.000000000000
 13       0.000000000000
 14       0.000000000000
 15       0.000000000000
 16       0.000000000000
 17       0.000000000000
 18       0.000000000000
 19       0.000000000000
 20       0.000000000000
 21       0.000000000000
 22       0.000000000000
 23       0.000000000000
 24       0.000000000000
 25       0.000000000000
 26       0.000000000000
 27       0.000000000000
 28       0.000000000000
 29       0.000000000000
 30       0.000000000000
 31       0.000000000000
 32       0.000000000000
 33       0.000000000000
 34       0.000000000000
 35       0.000000000000
 36       0.000000000000
 37       0.000000000000
 38       0.000000000000
 39       0.000000000000
 40       0.000000000000
 41       0.000000000000
 42       0.000000000000
 43       0.000000000000
 44       0.000000000000
 45       0.000000000000
 46       0.000000000000
 47       0.000000000000
 48       0.000000000000
 49       0.000000000000
 50       0.000000000000
 51       0.000000000000
 52       0.000000000000
 53       0.000000000000
 54       0.000000000000
 55       0.000000000000
 56       0.000000000000
 57       0.000000000000
 58       0.000000000000
 59       0.000000000000
 60       0.000000000000
 61       0.000000000000
 62       1.000000000000
 63       0.000000000000
 64       0.000000000000
 65       0.000000000000
 66       0.000000000000
 67       0.000000000000
 68       0.000000000000
 69       0.000000000000
 70       0.000000000000
 71       0.000000000000
 72       0.000000000000
 73       0.000000000000
 74       0.000000000000
 75       0.000000000000
 76       0.000000000000
 77       0.000000000000
 78       0.000000000000
 79       0.000000000000
 80       0.000000000000
 81       0.000000000000
 82       0.000000000000
 83       0.000000000000
 84       0.000000000000
 85       0.000000000000
 86       0.000000000000
 87       0.000000000000
 88       0.000000000000
 89       0.000000000000
 90       0.000000000000
 91       0.000000000000
 92       0.000000000000
 93       0.000000000000
 94       0.000000000000
 95       0.000000000000
 96       0.000000000000
 97       0.000000000000
 98       0.000000000000
 99       0.000000000000
100       0.000000000000
101       0.000000000000
102       0.000000000000
103       0.000000000000
104       0.000000000000
105       0.000000000000
106       0.000000000000
107       0.000000000000
108       0.000000000000
109       0.000000000000
110       0.000000000000
111       0.000000000000
112       0.000000000000
113       0.000000000000
114       0.000000000000
115       0.000000000000
116       0.000000000000
117       0.000000000000
118       0.000000000000
119       0.000000000000
120       0.000000000000
121       0.000000000000
122       0.000000000000
123       0.000000000000
124       0.000000000000
125       0.000000000000
126       0.000000000000
127       0.000000000000
128       0.000000000000
129       0.000000000000
130       0.000000000000
131       0.000000000000
132       0.000000000000
133       0.000000000000
134       0.000000000000
135       0.000000000000
136       0.000000000000
137       0.000000000000
138       0.000000000000
139       0.000000000000
140       0.000000000000
141       0.000000000000
142       0.000000000000
143       0.000000000000
144       0.000000000000
145       0.000000000000
146       0.000000000000
147       0.000000000000
148       0.000000000000
149       0.000000000000
150       0.000000000000
151       0.000000000000
152       0.000000000000
153       0.000000000000
154       0.000000000000
155       0.000000000000
156       0.000000000000
157       0.000000000000
158       0.000000000000
159       0.000000000000
160       0.000000000000
161       0.000000000000
162       0.000000000000
163       0.000000000000
164       0.000000000000
165       0.000000000000
166       0.000000000000
167       0.000000000000
168       0.000000000000
169       0.000000000000
170       0.000000000000
171       0.000000000000
172       0.000000000000
 Sym=     1a
 Ene=  2.01767109104493E+01
Spin= Alpha
 Occup= 0.000022
  1       0.000000000000
  2       0.000000000000
  3       0.000000000000
  4       0.000000000000
  5       0.000000000000
  6       0.000000000000
  7       0.000000000000
  8       0.000000000000
  9       0.000000000000
 10       0.000000000000
 11       0.000000000000
 12       0.000000000000
 13       0.000000000000
 14       0.000000000000
 15       0.000000000000
 16       0.000000000000
 17       0.000000000000
 18       0.000000000000
 19       0.000000000000
 20       0.000000000000
 21       0.000000000000
 22       0.000000000000
 23       0.000000000000
 24       0.000000000000
 25       0.000000000000
 26       0.000000000000
 27       0.000000000000
 28       0.000000000000
 29       0.000000000000
 30       0.000000000000
 31       0.000000000000
 32       0.000000000000
 33       0.000000000000
 34       0.000000000000
 35       0.000000000000
 36       0.000000000000
 37       0.000000000000
 38       0.000000000000
 39       0.000000000000
 40       0.000000000000
 41       0.000000000000
 42       0.000000000000
 43       0.000000000000
 44       0.000000000000
 45       0.000000000000
 46       0.000000000000
 47       0.000000000000
 48       0.000000000000
 49       0.000000000000
 50       0.000000000000
 51       0.000000000000
 52       0.000000000000
 53       0.000000000000
 54       0.000000000000
 55       0.000000000000
 56       0.000000000000
 57       0.000000000000
 58       0.000000000000
 59       0.000000000000
 60       0.000000000000
 61       0.000000000000
 62       0.000000000000
 63      -1.370058097465
 64       1.502427040557
 65      -0.554294135698
 66       0.185454618635
 67      -0.025849185353
 68       0.000000000000
 69       0.000000000000
 70       0.000000000000
 71       0.000000000000
 72       0.000000000000
 73       0.000000000000
 74       0.000000000000
 75       0.000000000000
 76       0.000000000000
 77       0.000000000000
 78       0.000000000000
 79       0.000000000000
 80       0.000000000000
 81       0.000000000000
 82       0.000000000000
 83       0.000000000000
 84       0.000000000000
 85       0.000000000000
 86       0.000000000000
 87       0.000000000000
 88       0.000000000000
 89       0.000000000000
 90       0.000000000000
 91       0.000000000000
 92       0.000000000000
 93       0.000000000000
 94       0.000000000000
 95       0.000000000000
 96       0.000000000000
 97       0.000000000000
 98       0.000000000000
 99       0.000000000000
100       0.000000000000
101       0.000000000000
102       0.000000000000
103       0.000000000000
104       0.000000000000
105       0.000000000000
106       0.000000000000
107       0.000000000000
108       0.000000000000
109       0.000000000000
110       0.000000000000
111       0.000000000000
112       0.000000000000
113       0.000000000000
114       0.000000000000
115       0.000000000000
116       0.000000000000
117       0.000000000000
118       0.000000000000
119       0.000000000000
120       0.000000000000
121       0.000000000000
122       0.000000000000
123       0.000000000000
124       0.000000000000
125       0.000000000000
126       0.000000000000
127       0.000000000000
128       0.000000000000
129       0.000000000000
130       0.000000000000
131       0.000000000000
132       0.000000000000
133       0.000000000000
134       0.000000000000
135       0.000000000000
136       0.000000000000
137       0.000000000000
138       0.000000000000
139       0.000000000000
140       0.000000000000
141       0.000000000000
142       0.000000000000
143       0.000000000000
144       0.000000000000
145       0.000000000000
146       0.000000000000
147       0.000000000000
148       0.000000000000
149       0.000000000000
150       0.000000000000
151       0.000000000000
152       0.000000000000
153       0.000000000000
154       0.000000000000
155       0.000000000000
156       0.000000000000
157       0.000000000000
158       0.000000000000
159       0.000000000000
160       0.000000000000
161       0.000000000000
162       0.000000000000
163       0.000000000000
164       0.000000000000
165       0.000000000000
166       0.000000000000
167       0.000000000000
168       0.000000000000
169       0.000000000000
170       0.000000000000
171       0.000000000000
172       0.000000000000
 Sym=     1a
 Ene=  2.27730464476058E+00
Spin= Alpha
 Occup= 0.022515
  1       0.000000000000
  2       0.000000000000
  3       0.000000000000
  4       0.000000000000
  5       0.000000000000
  6       0.000000000000
  7       0.000000000000
  8       0.000000000000
  9       0.000000000000
 10       0.000000000000
 11       0.000000000000
 12       0.000000000000
 13       0.000000000000
 14       0.000000000000
 15       0.000000000000
 16       0.000000000000
 17       0.000000000000
 18       0.000000000000
 19       0.000000000000
 20       0.000000000000
 21       0.000000000000
 22       0.000000000000
 23       0.000000000000
 24       0.000000000000
 25       0.000000000000
 26       0.000000000000
 27       0.000000000000
 28       0.000000000000
 29       0.000000000000
 30       0.000000000000
 31       0.000000000000
 32       0.000000000000
 33       0.000000000000
 34       0.000000000000
 35       0.000000000000
 36       0.000000000000
 37       0.000000000000
 38       0.000000000000
 39       0.000000000000
 40       0.000000000000
 41       0.000000000000
 42       0.000000000000
 43       0.000000000000
 44       0.000000000000
 45       0.000000000000
 46       0.000000000000
 47       0.000000000000
 48       0.000000000000
 49       0.000000000000
 50       0.000000000000
 51       0.000000000000
 52       0.000000000000
 53       0.000000000000
 54       0.000000000000
 55       0.000000000000
 56       0.000000000000
 57       0.000000000000
 58       0.000000000000
 59       0.000000000000
 60       0.000000000000
 61       0.000000000000
 62       0.000000000000
 63      -0.180258644538
 64       0.840161582349
 65      -3.015738994211
 66       3.355502492886
 67      -1.135880564648
 68       0.000000000000
 69       0.000000000000
 70       0.000000000000
 71       0.000000000000
 72       0.000000000000
 73       0.000000000000
 74       0.000000000000
 75       0.000000000000
 76       0.000000000000
 77       0.000000000000
 78       0.000000000000
 79       0.000000000000
 80       0.000000000000
 81       0.000000000000
 82       0.000000000000
 83       0.000000000000
 84       0.000000000000
 85       0.000000000000
 86       0.000000000000
 87       0.000000000000
 88       0.000000000000
 89       0.000000000000
 90       0.000000000000
 91       0.000000000000
 92       0.000000000000
 93       0.000000000000
 94       0.000000000000
 95       0.000000000000
 96       0.000000000000
 97       0.000000000000
 98       0.000000000000
 99       0.000000000000
100       0.000000000000
101       0.000000000000
102       0.000000000000
103       0.000000000000
104       0.000000000000
105       0.000000000000
106       0.000000000000
107       0.000000000000
108       0.000000000000
109       0.000000000000
110       0.000000000000
111       0.000000000000
112       0.000000000000
113       0.000000000000
114       0.000000000000
115       0.000000000000
116       0.000000000000
117       0.000000000000
118       0.000000000000
119       0.000000000000
120       0.000000000000
121       0.000000000000
122       0.000000000000
123       0.000000000000
124       0.000000000000
125       0.000000000000
126       0.000000000000
127       0.000000000000
128       0.000000000000
129       0.000000000000
130       0.000000000000
131       0.000000000000
132       0.000000000000
133       0.000000000000
134       0.000000000000
135       0.000000000000
136       0.000000000000
137       0.000000000000
138       0.000000000000
139       0.000000000000
140       0.000000000000
141       0.000000000000
142       0.000000000000
143       0.000000000000
144       0.000000000000
145       0.000000000000
146       0.000000000000
147       0.000000000000
148       0.000000000000
149       0.000000000000
150       0.000000000000
151       0.000000000000
152       0.000000000000
153       0.000000000000
154       0.000000000000
155       0.000000000000
156       0.000000000000
157       0.000000000000
158       0.000000000000
159       0.000000000000
160       0.000000000000
161       0.000000000000
162       0.000000000000
163       0.000000000000
164       0.000000000000
165       0.000000000000
166       0.000000000000
167       0.000000000000
168       0.000000000000
169       0.000000000000
170       0.000000000000
171       0.000000000000
172       0.000000000000
 Sym=     1a
 Ene=  1.09796482491580E-01
Spin= Alpha
 Occup= 0.405332
  1       0.000000000000
  2       0.000000000000
  3       0.000000000000
  4       0.000000000000
  5       0.000000000000
  6       0.000000000000
  7       0.000000000000
  8       0.000000000000
  9       0.000000000000
 10       0.000000000000
 11       0.000000000000
 12       0.000000000000
 13       0.000000000000
 14       0.000000000000
 15       0.000000000000
 16       0.000000000000
 17       0.000000000000
 18       0.000000000000
 19       0.000000000000
 20       0.000000000000
 21       0.000000000000
 22       0.000000000000
 23       0.000000000000
 24       0.000000000000
 25       0.000000000000
 26       0.000000000000
 27       0.000000000000
 28       0.000000000000
 29       0.000000000000
 30       0.000000000000
 31       0.000000000000
 32       0.000000000000
 33       0.000000000000
 34       0.000000000000
 35       0.000000000000
 36       0.000000000000
 37       0.000000000000
 38       0.000000000000
 39       0.000000000000
 40       0.000000000000
 41       0.000000000000
 42       0.000000000000
 43       0.000000000000
 44       0.000000000000
 45       0.000000000000
 46       0.000000000000
 47       0.000000000000
 48       0.000000000000
 49       0.000000000000
 50       0.000000000000
 51       0.000000000000
 52       0.000000000000
 53       0.000000000000
 54       0.000000000000
 55       0.000000000000
 56       0.000000000000
 57       0.000000000000
 58       0.000000000000
 59       0.000000000000
 60       0.000000000000
 61       0.000000000000
 62       0.000000000000
 63       0.089398945094
 64      -0.070988876929
 65       0.844720679950
 66      -2.879912737859
 67       2.448750126104
 68       0.000000000000
 69       0.000000000000
 70       0.000000000000
 71       0.000000000000
 72       0.000000000000
 73       0.000000000000
 74       0.000000000000
 75       0.000000000000
 76       0.000000000000
 77       0.000000000000
 78       0.000000000000
 79       0.000000000000
 80       0.000000000000
 81       0.000000000000
 82       0.000000000000
 83       0.000000000000
 84       0.000000000000
 85       0.000000000000
 86       0.000000000000
 87       0.000000000000
 88       0.000000000000
 89       0.000000000000
 90       0.000000000000
 91       0.000000000000
 92       0.000000000000
 93       0.000000000000
 94       0.000000000000
 95       0.000000000000
 96       0.000000000000
 97       0.000000000000
 98       0.000000000000
 99       0.000000000000
100       0.000000000000
101       0.000000000000
102       0.000000000000
103       0.000000000000
104       0.000000000000
105       0.000000000000
106       0.000000000000
107       0.000000000000
108       0.000000000000
109       0.000000000000
110       0.000000000000
111       0.000000000000
112       0.000000000000
113       0.000000000000
114       0.000000000000
115       0.000000000000
116       0.000000000000
117       0.000000000000
118       0.000000000000
119       0.000000000000
120       0.000000000000
121       0.000000000000
122       0.000000000000
123       0.000000000000
124       0.000000000000
125       0.000000000000
126       0.000000000000
127       0.000000000000
128       0.000000000000
129       0.000000000000
130       0.000000000000
131       0.000000000000
132       0.000000000000
133       0.000000000000
134       0.000000000000
135       0.000000000000
136       0.000000000000
137       0.000000000000
138       0.000000000000
139       0.000000000000
140       0.000000000000
141       0.000000000000
142       0.000000000000
143       0.000000000000
144       0.000000000000
145       0.000000000000
146       0.000000000000
147       0.000000000000
148       0.000000000000
149       0.000000000000
150       0.000000000000
151       0.000000000000
152       0.000000000000
153       0.000000000000
154       0.000000000000
155       0.000000000000
156       0.000000000000
157       0.000000000000
158       0.000000000000
159       0.000000000000
160       0.000000000000
161       0.000000000000
162       0.000000000000
163       0.000000000000
164       0.000000000000
165       0.000000000000
166       0.000000000000
167       0.000000000000
168       0.000000000000
169       0.000000000000
170       0.000000000000
171       0.000000000000
172       0.000000000000
 Sym=     1a
 Ene= -7.89437829983208E-01
Spin= Alpha
 Occup= 1.925989
  1       0.000000000000
  2       0.000000000000
  3       0.000000000000
  4       0.000000000000
  5       0.000000000000
  6       0.000000000000
  7       0.000000000000
  8       0.000000000000
  9       0.000000000000
 10       0.000000000000
 11       0.000000000000
 12       0.000000000000
 13       0.000000000000
 14       0.000000000000
 15       0.000000000000
 16       0.000000000000
 17       0.000000000000
 18       0.000000000000
 19       0.000000000000
 20       0.000000000000
 21       0.000000000000
 22       0.000000000000
 23       0.000000000000
 24       0.000000000000
 25       0.000000000000
 26       0.000000000000
 27       0.000000000000
 28       0.000000000000
 29       0.000000000000
 30       0.000000000000
 31       0.000000000000
 32       0.000000000000
 33       0.000000000000
 34       0.000000000000
 35       0.000000000000
 36       0.000000000000
 37       0.000000000000
 38       0.000000000000
 39       0.000000000000
 40       0.000000000000
 41       0.000000000000
 42       0.000000000000
 43       0.000000000000
 44       0.000000000000
 45       0.000000000000
 46       0.000000000000
 47       0.000000000000
 48       0.000000000000
 49       0.000000000000
 50       0.000000000000
 51       0.000000000000
 52       0.000000000000
 53       0.000000000000
 54       0.000000000000
 55       0.000000000000
 56       0.000000000000
 57       0.000000000000
 58       0.000000000000
 59       0.000000000000
 60       0.000000000000
 61       0.000000000000
 62       0.000000000000
 63       0.099367349445
 64       0.181564491170
 65      -0.089676610711
 66      -0.847382798067
 67      -0.125865533617
 68       0.000000000000
 69       0.000000000000
 70       0.000000000000
 71       0.000000000000
 72       0.000000000000
 73       0.000000000000
 74       0.000000000000
 75       0.000000000000
 76       0.000000000000
 77       0.000000000000
 78       0.000000000000
 79       0.000000000000
 80       0.000000000000
 81       0.000000000000
 82       0.000000000000
 83       0.000000000000
 84       0.000000000000
 85       0.000000000000
 86       0.000000000000
 87       0.000000000000
 88       0.000000000000
 89       0.000000000000
 90       0.000000000000
 91       0.000000000000
 92       0.000000000000
 93       0.000000000000
 94       0.000000000000
 95       0.000000000000
 96       0.000000000000
 97       0.000000000000
 98       0.000000000000
 99       0.000000000000
100       0.000000000000
101       0.000000000000
102       0.000000000000
103       0.000000000000
104       0.000000000000
105       0.000000000000
106       0.000000000000
107       0.000000000000
108       0.000000000000
109       0.000000000000
110       0.000000000000
111       0.000000000000
112       0.000000000000
113       0.000000000000
114       0.000000000000
115       0.000000000000
116       0.000000000000
117       0.000000000000
118       0.000000000000
119       0.000000000000
120       0.000000000000
121       0.000000000000
122       0.000000000000
123       0.000000000000
124       0.000000000000
125       0.000000000000
126       0.000000000000
127       0.000000000000
128       0.000000000000
129       0.000000000000
130       0.000000000000
131       0.000000000000
132       0.000000000000
133       0.000000000000
134       0.000000000000
135       0.000000000000
136       0.000000000000
137       0.000000000000
138       0.000000000000
139       0.000000000000
140       0.000000000000
141       0.000000000000
142       0.000000000000
143       0.000000000000
144       0.000000000000
145       0.000000000000
146       0.000000000000
147       0.000000000000
148       0.000000000000
149       0.000000000000
150       0.000000000000
151       0.000000000000
152       0.000000000000
153       0.000000000000
154       0.000000000000
155       0.000000000000
156       0.000000000000
157       0.000000000000
158       0.000000000000
159       0.000000000000
160       0.000000000000
161       0.000000000000
162       0.000000000000
163       0.000000000000
164       0.000000000000
165       0.000000000000
166       0.000000000000
167       0.000000000000
168       0.000000000000
169       0.000000000000
170       0.000000000000
171       0.000000000000
172       0.000000000000
 Sym=     1a
 Ene= -1.02675413466172E+01
Spin= Alpha
 Occup= 1.999990
  1       0.000000000000
  2       0.000000000000
  3       0.000000000000
  4       0.000000000000
  5       0.000000000000
  6       0.000000000000
  7       0.000000000000
  8       0.000000000000
  9       0.000000000000
 10       0.000000000000
 11       0.000000000000
 12       0.000000000000
 13       0.000000000000
 14       0.000000000000
 15       0.000000000000
 16       0.000000000000
 17       0.000000000000
 18       0.000000000000
 19       0.000000000000
 20       0.000000000000
 21       0.000000000000
 22       0.000000000000
 23       0.000000000000
 24       0.000000000000
 25       0.000000000000
 26       0.000000000000
 27       0.000000000000
 28       0.000000000000
 29       0.000000000000
 30       0.000000000000
 31       0.000000000000
 32       0.000000000000
 33       0.000000000000
 34       0.000000000000
 35       0.000000000000
 36       0.000000000000
 37       0.000000000000
 38       0.000000000000
 39       0.000000000000
 40       0.000000000000
 41       0.000000000000
 42       0.000000000000
 43       0.000000000000
 44       0.000000000000
 45       0.000000000000
 46       0.000000000000
 47       0.000000000000
 48       0.000000000000
 49       0.000000000000
 50       0.000000000000
 51       0.000000000000
 52       0.000000000000
 53       0.000000000000
 54       0.000000000000
 55       0.000000000000
 56       0.000000000000
 57       0.000000000000
 58       0.000000000000
 59       0.000000000000
 60       0.000000000000
 61       0.000000000000
 62       0.000000000000
 63       0.467422082534
 64       0.609949633096
 65       0.030980414278
 66      -0.018934851483
 67       0.005713510000
 68       0.000000000000
 69       0.000000000000
 70       0.000000000000
 71       0.000000000000
 72       0.000000000000
 73       0.000000000000
 74       0.000000000000
 75       0.000000000000
 76       0.000000000000
 77       0.000000000000
 78       0.000000000000
 79       0.000000000000
 80       0.000000000000
 81       0.000000000000
 82       0.000000000000
 83       0.000000000000
 84       0.000000000000
 85       0.000000000000
 86       0.000000000000
 87       0.000000000000
 88       0.000000000000
 89       0.000000000000
 90       0.000000000000
 91       0.000000000000
 92       0.000000000000
 93       0.000000000000
 94       0.000000000000
 95       0.000000000000
 96       0.000000000000
 97       0.000000000000
 98       0.000000000000
 99       0.000000000000
100       0.000000000000
101       0.000000000000
102       0.000000000000
103       0.000000000000
104       0.000000000000
105       0.000000000000
106       0.000000000000
107       0.000000000000
108       0.000000000000
109       0.000000000000
110       0.000000000000
111       0.000000000000
112       0.000000000000
113       0.000000000000
114       0.000000000000
115       0.000000000000
116       0.000000000000
117       0.000000000000
118       0.000000000000
119       0.000000000000
120       0.000000000000
121       0.000000000000
122       0.000000000000
123       0.000000000000
124       0.000000000000
125       0.000000000000
126       0.000000000000
127       0.000000000000
128       0.000000000000
129       0.000000000000
130       0.000000000000
131       0.000000000000
132       0.000000000000
133       0.000000000000
134       0.000000000000
135       0.000000000000
136       0.000000000000
137       0.000000000000
138       0.000000000000
139       0.000000000000
140       0.000000000000
141       0.000000000000
142       0.000000000000
143       0.000000000000
144       0.000000000000
145       0.000000000000
146       0.000000000000
147       0.000000000000
148       0.000000000000
149       0.000000000000
150       0.000000000000
151       0.000000000000
152       0.000000000000
153       0.000000000000
154       0.000000000000
155       0.000000000000
156       0.000000000000
157       0.000000000000
158       0.000000000000
159       0.000000000000
160       0.000000000000
161       0.000000000000
162       0.000000000000
163       0.000000000000
164       0.000000000000
165       0.000000000000
166       0.000000000000
167       0.000000000000
168       0.000000000000
169       0.000000000000
170       0.000000000000
171       0.000000000000
172       0.000000000000
 Sym=     1a
 Ene=  1.30392879397025E+00
Spin= Alpha
 Occup= 0.013561
  1       0.000000000000
  2       0.000000000000
  3       0.000000000000
  4       0.000000000000
  5       0.000000000000
  6       0.000000000000
  7       0.000000000000
  8       0.000000000000
  9       0.000000000000
 10       0.000000000000
 11       0.000000000000
 12       0.000000000000
 13       0.000000000000
 14       0.000000000000
 15       0.000000000000
 16       0.000000000000
 17       0.000000000000
 18       0.000000000000
 19       0.000000000000
 20       0.000000000000
 21       0.000000000000
 22       0.000000000000
 23       0.000000000000
 24       0.000000000000
 25       0.000000000000
 26       0.000000000000
 27       0.000000000000
 28       0.000000000000
 29       0.000000000000
 30       0.000000000000
 31       0.000000000000
 32       0.000000000000
 33       0.000000000000
 34       0.000000000000
 35       0.000000000000
 36       0.000000000000
 37       0.000000000000
 38       0.000000000000
 39       0.000000000000
 40       0.000000000000
 41       0.000000000000
 42       0.000000000000
 43       0.000000000000
 44       0.000000000000
 45       0.000000000000
 46       0.000000000000
 47       0.000000000000
 48       0.000000000000
 49       0.000000000000
 50       0.000000000000
 51       0.000000000000
 52       0.000000000000
 53       0.000000000000
 54       0.000000000000
 55       0.000000000000
 56       0.000000000000
 57       0.000000000000
 58       0.000000000000
 59       0.000000000000
 60       0.000000000000
 61       0.000000000000
 62       0.000000000000
 63       0.000000000000
 64       0.000000000000
 65       0.000000000000
 66       0.000000000000
 67       0.000000000000
 68      -1.345403211104
 69       0.000000000000
 70       0.000000000000
 71       1.331801520782
 72       0.000000000000
 73       0.000000000000
 74      -0.433200840642
 75       0.000000000000
 76       0.000000000000
 77       0.000000000000
 78       0.000000000000
 79       0.000000000000
 80       0.000000000000
 81       0.000000000000
 82       0.000000000000
 83       0.000000000000
 84       0.000000000000
 85       0.000000000000
 86       0.000000000000
 87       0.000000000000
 88       0.000000000000
 89       0.000000000000
 90       0.000000000000
 91       0.000000000000
 92       0.000000000000
 93       0.000000000000
 94       0.000000000000
 95       0.000000000000
 96       0.000000000000
 97       0.000000000000
 98       0.000000000000
 99       0.000000000000
100       0.000000000000
101       0.000000000000
102       0.000000000000
103       0.000000000000
104       0.000000000000
105       0.000000000000
106       0.000000000000
107       0.000000000000
108       0.000000000000
109       0.000000000000
110       0.000000000000
111       0.000000000000
112       0.000000000000
113       0.000000000000
114       0.000000000000
115       0.000000000000
116       0.000000000000
117       0.000000000000
118       0.000000000000
119       0.000000000000
120       0.000000000000
121       0.000000000000
122       0.000000000000
123       0.000000000000
124       0.000000000000
125       0.000000000000
126       0.000000000000
127       0.000000000000
128       0.000000000000
129       0.000000000000
130       0.000000000000
131       0.000000000000
132       0.000000000000
133       0.000000000000
134       0.000000000000
135       0.000000000000
136       0.000000000000
137       0.000000000000
138       0.000000000000
139       0.000000000000
140       0.000000000000
141       0.000000000000
142       0.000000000000
143       0.000000000000
144       0.000000000000
145       0.000000000000
146       0.000000000000
147       0.000000000000
148       0.000000000000
149       0.000000000000
150       0.000000000000
151       0.000000000000
152       0.000000000000
153       0.000000000000
154       0.000000000000
155       0.000000000000
156       0.000000000000
157       0.000000000000
158       0.000000000000
159       0.000000000000
160       0.000000000000
161       0.000000000000
162       0.000000000000
163       0.000000000000
164       0.000000000000
165       0.000000000000
166       0.000000000000
167       0.000000000000
168       0.000000000000
169       0.000000000000
170       0.000000000000
171       0.000000000000
172       0.000000000000
 Sym=     1a
 Ene=  1.33901534934776E+00
Spin= Alpha
 Occup= 0.013561
  1       0.000000000000
  2       0.000000000000
  3       0.000000000000
  4       0.000000000000
  5       0.000000000000
  6       0.000000000000
  7       0.000000000000
  8       0.000000000000
  9       0.000000000000
 10       0.000000000000
 11       0.000000000000
 12       0.000000000000
 13       0.000000000000
 14       0.000000000000
 15       0.000000000000
 16       0.000000000000
 17       0.000000000000
 18       0.000000000000
 19       0.000000000000
 20       0.000000000000
 21       0.000000000000
 22       0.000000000000
 23       0.000000000000
 24       0.000000000000
 25       0.000000000000
 26       0.000000000000
 27       0.000000000000
 28       0.000000000000
 29       0.000000000000
 30       0.000000000000
 31       0.000000000000
 32       0.000000000000
 33       0.000000000000
 34       0.000000000000
 35       0.000000000000
 36       0.000000000000
 37       0.000000000000
 38       0.000000000000
 39       0.000000000000
 40       0.000000000000
 41       0.000000000000
 42       0.000000000000
 43       0.000000000000
 44       0.000000000000
 45       0.000000000000
 46       0.000000000000
 47       0.000000000000
 48       0.000000000000
 49       0.000000000000
 50       0.000000000000
 51       0.000000000000
 52       0.000000000000
 53       0.000000000000
 54       0.000000000000
 55       0.000000000000
 56       0.000000000000
 57       0.000000000000
 58       0.000000000000
 59       0.000000000000
 60       0.000000000000
 61       0.000000000000
 62       0.000000000000
 63       0.000000000000
 64       0.000000000000
 65       0.000000000000
 66       0.000000000000
 67       0.000000000000
 68       0.000000000000
 69      -1.345403211104
 70       0.000000000000
 71       0.000000000000
 72       1.331801520782
 73       0.000000000000
 74       0.000000000000
 75      -0.433200840642
 76       0.000000000000
 77       0.000000000000
 78       0.000000000000
 79       0.000000000000
 80       0.000000000000
 81       0.000000000000
 82       0.000000000000
 83       0.000000000000
 84       0.000000000000
 85       0.000000000000
 86       0.000000000000
 87       0.000000000000
 88       0.000000000000
 89       0.000000000000
 90       0.000000000000
 91       0.000000000000
 92       0.000000000000
 93       0.000000000000
 94       0.000000000000
 95       0.000000000000
 96       0.000000000000
 97       0.000000000000
 98       0.000000000000
 99       0.000000000000
100       0.000000000000
101       0.000000000000
102       0.000000000000
103       0.000000000000
104       0.000000000000
105       0.000000000000
106       0.000000000000
107       0.000000000000
108       0.000000000000
109       0.000000000000
110       0.000000000000
111       0.000000000000
112       0.000000000000
113       0.000000000000
114       0.000000000000
115       0.000000000000
116       0.000000000000
117       0.000000000000
118       0.000000000000
119       0.000000000000
120       0.000000000000
121       0.000000000000
122       0.000000000000
123       0.000000000000
124       0.000000000000
125       0.000000000000
126       0.000000000000
127       0.000000000000
128       0.000000000000
129       0.000000000000
130       0.000000000000
131       0.000000000000
132       0.000000000000
133       0.000000000000
134       0.000000000000
135       0.000000000000
136       0.000000000000
137       0.000000000000
138       0.000000000000
139       0.000000000000
140       0.000000000000
141       0.000000000000
142       0.000000000000
143       0.000000000000
144       0.000000000000
145       0.000000000000
146       0.000000000000
147       0.000000000000
148       0.000000000000
149       0.000000000000
150       0.000000000000
151       0.000000000000
152       0.000000000000
153       0.000000000000
154       0.000000000000
155       0.000000000000
156       0.000000000000
157       0.000000000000
158       0.000000000000
159       0.000000000000
160       0.000000000000
161       0.000000000000
162       0.000000000000
163       0.000000000000
164       0.000000000000
165       0.000000000000
166       0.000000000000
167       0.000000000000
168       0.000000000000
169       0.000000000000
170       0.000000000000
171       0.000000000000
172       0.000000000000
 Sym=     1a
 Ene=  1.36693058858476E+00
Spin= Alpha
 Occup= 0.013561
  1       0.000000000000
  2       0.000000000000
  3       0.000000000000
  4       0.000000000000
  5       0.000000000000
  6       0.000000000000
  7       0.000000000000
  8       0.000000000000
  9       0.000000000000
 10       0.000000000000
 11       0.000000000000
 12       0.000000000000
 13       0.000000000000
 14       0.000000000000
 15       0.000000000000
 16       0.000000000000
 17       0.000000000000
 18       0.000000000000
 19       0.000000000000
 20       0.000000000000
 21       0.000000000000
 22       0.000000000000
 23       0.000000000000
 24       0.000000000000
 25       0.000000000000
 26       0.000000000000
 27       0.000000000000
 28       0.000000000000
 29       0.000000000000
 30       0.000000000000
 31       0.000000000000
 32       0.000000000000
 33       0.000000000000
 34       0.000000000000
 35       0.000000000000
 36       0.000000000000
 37       0.000000000000
 38       0.000000000000
 39       0.000000000000
 40       0.000000000000
 41       0.000000000000
 42       0.000000000000
 43       0.000000000000
 44       0.000000000000
 45       0.000000000000
 46       0.000000000000
 47       0.000000000000
 48       0.000000000000
 49       0.000000000000
 50       0.000000000000
 51       0.000000000000
 52       0.000000000000
 53       0.000000000000
 54       0.000000000000
 55       0.000000000000
 56       0.000000000000
 57       0.000000000000
 58       0.000000000000
 59       0.000000000000
 60       0.000000000000
 61       0.000000000000
 62       0.000000000000
 63       0.000000000000
 64       0.000000000000
 65       0.000000000000
 66       0.000000000000
 67       0.000000000000
 68       0.000000000000
 69       0.000000000000
 70      -1.345403211104
 71       0.000000000000
 72       0.000000000000
 73       1.331801520782
 74       0.000000000000
 75       0.000000000000
 76      -0.433200840642
 77       0.000000000000
 78       0.000000000000
 79       0.000000000000
 80       0.000000000000
 81       0.000000000000
 82       0.000000000000
 83       0.000000000000
 84       0.000000000000
 85       0.000000000000
 86       0.000000000000
 87       0.000000000000
 88       0.000000000000
 89       0.000000000000
 90       0.000000000000
 91       0.000000000000
 92       0.000000000000
 93       0.000000000000
 94       0.000000000000
 95       0.000000000000
 96       0.000000000000
 97       0.000000000000
 98       0.000000000000
 99       0.000000000000
100       0.000000000000
101       0.000000000000
102       0.000000000000
103       0.000000000000
104       0.000000000000
105       0.000000000000
106       0.000000000000
107       0.000000000000
108       0.000000000000
109       0.000000000000
110       0.000000000000
111       0.000000000000
112       0.000000000000
113       0.000000000000
114       0.000000000000
115       0.000000000000
116       0.000000000000
117       0.000000000000
118       0.000000000000
119       0.000000000000
120       0.000000000000
121       0.000000000000
122       0.000000000000
123       0.000000000000
124       0.000000000000
125       0.000000000000
126       0.000000000000
127       0.000000000000
128       0.000000000000
129       0.000000000000
130       0.000000000000
131       0.000000000000
132       0.000000000000
133       0.000000000000
134       0.000000000000
135       0.000000000000
136       0.000000000000
137       0.000000000000
138       0.000000000000
139       0.000000000000
140       0.000000000000
141       0.000000000000
142       0.000000000000
143       0.000000000000
144       0.000000000000
145       0.000000000000
146       0.000000000000
147       0.000000000000
148       0.000000000000
149       0.000000000000
150       0.000000000000
151       0.000000000000
152       0.000000000000
153       0.000000000000
154       0.000000000000
155       0.000000000000
156       0.000000000000
157       0.000000000000
158       0.000000000000
159       0.000000000000
160       0.000000000000
161       0.000000000000
162       0.000000000000
163       0.000000000000
164       0.000000000000
165       0.000000000000
166       0.000000000000
167       0.000000000000
168       0.000000000000
169       0.000000000000
170       0.000000000000
171       0.000000000000
172       0.000000000000
 Sym=     1a
 Ene=  5.47314696567319E-02
Spin= Alpha
 Occup= 0.329309
  1       0.000000000000
  2       0.000000000000
  3       0.000000000000
  4       0.000000000000
  5       0.000000000000
  6       0.000000000000
  7       0.000000000000
  8       0.000000000000
  9       0.000000000000
 10       0.000000000000
 11       0.000000000000
 12       0.000000000000
 13       0.000000000000
 14       0.000000000000
 15       0.000000000000
 16       0.000000000000
 17       0.000000000000
 18       0.000000000000
 19       0.000000000000
 20       0.000000000000
 21       0.000000000000
 22       0.000000000000
 23       0.000000000000
 24       0.000000000000
 25       0.000000000000
 26       0.000000000000
 27       0.000000000000
 28       0.000000000000
 29       0.000000000000
 30       0.000000000000
 31       0.000000000000
 32       0.000000000000
 33       0.000000000000
 34       0.000000000000
 35       0.000000000000
 36       0.000000000000
 37       0.000000000000
 38       0.000000000000
 39       0.000000000000
 40       0.000000000000
 41       0.000000000000
 42       0.000000000000
 43       0.000000000000
 44       0.000000000000
 45       0.000000000000
 46       0.000000000000
 47       0.000000000000
 48       0.000000000000
 49       0.000000000000
 50       0.000000000000
 51       0.000000000000
 52       0.000000000000
 53       0.000000000000
 54       0.000000000000
 55       0.000000000000
 56       0.000000000000
 57       0.000000000000
 58       0.000000000000
 59       0.000000000000
 60       0.000000000000
 61       0.000000000000
 62       0.000000000000
 63       0.000000000000
 64       0.000000000000
 65       0.000000000000
 66       0.000000000000
 67       0.000000000000
 68       0.066231321109
 69       0.000000000000
 70       0.000000000000
 71      -1.196101452119
 72       0.000000000000
 73       0.000000000000
 74       1.449079781245
 75       0.000000000000
 76       0.000000000000
 77       0.000000000000
 78       0.000000000000
 79       0.000000000000
 80       0.000000000000
 81       0.000000000000
 82       0.000000000000
 83       0.000000000000
 84       0.000000000000
 85       0.000000000000
 86       0.000000000000
 87       0.000000000000
 88       0.000000000000
 89       0.000000000000
 90       0.000000000000
 91       0.000000000000
 92       0.000000000000
 93       0.000000000000
 94       0.000000000000
 95       0.000000000000
 96       0.000000000000
 97       0.000000000000
 98       0.000000000000
 99       0.000000000000
100       0.000000000000
101       0.000000000000
102       0.000000000000
103       0.000000000000
104       0.000000000000
105       0.000000000000
106       0.000000000000
107       0.000000000000
108       0.000000000000
109       0.000000000000
110       0.000000000000
111       0.000000000000
112       0.000000000000
113       0.000000000000
114       0.000000000000
115       0.000000000000
116       0.000000000000
117       0.000000000000
118       0.000000000000
119       0.000000000000
120       0.000000000000
121       0.000000000000
122       0.000000000000
123       0.000000000000
124       0.000000000000
125       0.000000000000
126       0.000000000000
127       0.000000000000
128       0.000000000000
129       0.000000000000
130       0.000000000000
131       0.000000000000
132       0.000000000000
133       0.000000000000
134       0.000000000000
135       0.000000000000
136       0.000000000000
137       0.000000000000
138       0.000000000000
139       0.000000000000
140       0.000000000000
141       0.000000000000
142       0.000000000000
143       0.000000000000
144       0.000000000000
145       0.000000000000
146       0.000000000000
147       0.000000000000
148       0.000000000000
149       0.000000000000
150       0.000000000000
151       0.000000000000
152       0.000000000000
153       0.000000000000
154       0.000000000000
155       0.000000000000
156       0.000000000000
157       0.000000000000
158       0.000000000000
159       0.000000000000
160       0.000000000000
161       0.000000000000
162       0.000000000000
163       0.000000000000
164       0.000000000000
165       0.000000000000
166       0.000000000000
167       0.000000000000
168       0.000000000000
169       0.000000000000
170       0.000000000000
171       0.000000000000
172       0.000000000000
 Sym=     1a
 Ene=  1.71579817738375E-01
Spin= Alpha
 Occup= 0.329309
  1       0.000000000000
  2       0.000000000000
  3       0.000000000000
  4       0.000000000000
  5       0.000000000000
  6       0.000000000000
  7       0.000000000000
  8       0.000000000000
  9       0.000000000000
 10       0.000000000000
 11       0.000000000000
 12       0.000000000000
 13       0.000000000000
 14       0.000000000000
 15       0.000000000000
 16       0.000000000000
 17       0.000000000000
 18       0.000000000000
 19       0.000000000000
 20       0.000000000000
 21       0.000000000000
 22       0.000000000000
 23       0.000000000000
 24       0.000000000000
 25       0.000000000000
 26       0.000000000000
 27       0.000000000000
 28       0.000000000000
 29       0.000000000000
 30       0.000000000000
 31       0.000000000000
 32       0.000000000000
 33       0.000000000000
 34       0.000000000000
 35       0.000000000000
 36       0.000000000000
 37       0.000000000000
 38       0.000000000000
 39       0.000000000000
 40       0.000000000000
 41       0.000000000000
 42       0.000000000000
 43       0.000000000000
 44       0.000000000000
 45       0.000000000000
 46       0.000000000000
 47       0.000000000000
 48       0.000000000000
 49       0.000000000000
 50       0.000000000000
 51       0.000000000000
 52       0.000000000000
 53       0.000000000000
 54       0.000000000000
 55       0.000000000000
 56       0.000000000000
 57       0.000000000000
 58       0.000000000000
 59       0.000000000000
 60       0.000000000000
 61       0.000000000000
 62       0.000000000000
 63       0.000000000000
 64       0.000000000000
 65       0.000000000000
 66       0.000000000000
 67       0.000000000000
 68       0.000000000000
 69       0.066231321109
 70       0.000000000000
 71       0.000000000000
 72      -1.196101452119
 73       0.000000000000
 74       0.000000000000
 75       1.449079781245
 76       0.000000000000
 77       0.000000000000
 78       0.000000000000
 79       0.000000000000
 80       0.000000000000
 81       0.000000000000
 82       0.000000000000
 83       0.000000000000
 84       0.000000000000
 85       0.000000000000
 86       0.000000000000
 87       0.000000000000
 88       0.000000000000
 89       0.000000000000
 90       0.000000000000
 91       0.000000000000
 92       0.000000000000
 93       0.000000000000
 94       0.000000000000
 95       0.000000000000
 96       0.000000000000
 97       0.000000000000
 98       0.000000000000
 99       0.000000000000
100       0.000000000000
101       0.000000000000
102       0.000000000000
103       0.000000000000
104       0.000000000000
105       0.000000000000
106       0.000000000000
107       0.000000000000
108       0.000000000000
109       0.000000000000
110       0.000000000000
111       0.000000000000
112       0.000000000000
113       0.000000000000
114       0.000000000000
115       0.000000000000
116       0.000000000000
117       0.000000000000
118       0.000000000000
119       0.000000000000
120       0.000000000000
121       0.000000000000
122       0.000000000000
123       0.000000000000
124       0.000000000000
125       0.000000000000
126       0.000000000000
127       0.000000000000
128       0.000000000000
129       0.000000000000
130       0.000000000000
131       0.000000000000
132       0.000000000000
133       0.000000000000
134       0.000000000000
135       0.000000000000
136       0.000000000000
137       0.000000000000
138       0.000000000000
139       0.000000000000
140       0.000000000000
141       0.000000000000
142       0.000000000000
143       0.000000000000
144       0.000000000000
145       0.000000000000
146       0.000000000000
147       0.000000000000
148       0.000000000000
149       0.000000000000
150       0.000000000000
151       0.000000000000
152       0.000000000000
153       0.000000000000
154       0.000000000000
155       0.000000000000
156       0.000000000000
157       0.000000000000
158       0.000000000000
159       0.000000000000
160       0.000000000000
161       0.000000000000
162       0.000000000000
163       0.000000000000
164       0.000000000000
165       0.000000000000
166       0.000000000000
167       0.000000000000
168       0.000000000000
169       0.000000000000
170       0.000000000000
171       0.000000000000
172       0.000000000000
 Sym=     1a
 Ene=  3.27529367665021E-01
Spin= Alpha
 Occup= 0.329309
  1       0.000000000000
  2       0.000000000000
  3       0.000000000000
  4       0.000000000000
  5       0.000000000000
  6       0.000000000000
  7       0.000000000000
  8       0.000000000000
  9       0.000000000000
 10       0.000000000000
 11       0.000000000000
 12       0.000000000000
 13       0.000000000000
 14       0.000000000000
 15       0.000000000000
 16       0.000000000000
 17       0.000000000000
 18       0.000000000000
 19       0.000000000000
 20       0.000000000000
 21       0.000000000000
 22       0.000000000000
 23       0.000000000000
 24       0.000000000000
 25       0.000000000000
 26       0.000000000000
 27       0.000000000000
 28       0.000000000000
 29       0.000000000000
 30       0.000000000000
 31       0.000000000000
 32       0.000000000000
 33       0.000000000000
 34       0.000000000000
 35       0.000000000000
 36       0.000000000000
 37       0.000000000000
 38       0.000000000000
 39       0.000000000000
 40       0.000000000000
 41       0.000000000000
 42       0.000000000000
 43       0.000000000000
 44       0.000000000000
 45       0.000000000000
 46       0.000000000000
 47       0.000000000000
 48       0.000000000000
 49       0.000000000000
 50       0.000000000000
 51       0.000000000000
 52       0.000000000000
 53       0.000000000000
 54       0.000000000000
 55       0.000000000000
 56       0.000000000000
 57       0.000000000000
 58       0.000000000000
 59       0.000000000000
 60       0.000000000000
 61       0.000000000000
 62       0.000000000000
 63       0.000000000000
 64       0.000000000000
 65       0.000000000000
 66       0.000000000000
 67       0.000000000000
 68       0.000000000000
 69       0.000000000000
 70       0.066231321109
 71       0.000000000000
 72       0.000000000000
 73      -1.196101452119
 74       0.000000000000
 75       0.000000000000
 76       1.449079781245
 77       0.000000000000
 78       0.000000000000
 79       0.000000000000
 80       0.000000000000
 81       0.000000000000
 82       0.000000000000
 83       0.000000000000
 84       0.000000000000
 85       0.000000000000
 86       0.000000000000
 87       0.000000000000
 88       0.000000000000
 89       0.000000000000
 90       0.000000000000
 91       0.000000000000
 92       0.000000000000
 93       0.000000000000
 94       0.000000000000
 95       0.000000000000
 96       0.000000000000
 97       0.000000000000
 98       0.000000000000
 99       0.000000000000
100       0.000000000000
101       0.000000000000
102       0.000000000000
103       0.000000000000
104       0.000000000000
105       0.000000000000
106       0.000000000000
107       0.000000000000
108       0.000000000000
109       0.000000000000
110       0.000000000000
111       0.000000000000
112       0.000000000000
113       0.000000000000
114       0.000000000000
115       0.000000000000
116       0.000000000000
117       0.000000000000
118       0.000000000000
119       0.000000000000
120       0.000000000000
121       0.000000000000
122       0.000000000000
123       0.000000000000
124       0.000000000000
125       0.000000000000
126       0.000000000000
127       0.000000000000
128       0.000000000000
129       0.000000000000
130       0.000000000000
131       0.000000000000
132       0.000000000000
133       0.000000000000
134       0.000000000000
135       0.000000000000
136       0.000000000000
137       0.000000000000
138       0.000000000000
139       0.000000000000
140       0.000000000000
141       0.000000000000
142       0.000000000000
143       0.000000000000
144       0.000000000000
145       0.000000000000
146       0.000000000000
147       0.000000000000
148       0.000000000000
149       0.000000000000
150       0.000000000000
151       0.000000000000
152       0.000000000000
153       0.000000000000
154       0.000000000000
155       0.000000000000
156       0.000000000000
157       0.000000000000
158       0.000000000000
159       0.000000000000
160       0.000000000000
161       0.000000000000
162       0.000000000000
163       0.000000000000
164       0.000000000000
165       0.000000000000
166       0.000000000000
167       0.000000000000
168       0.000000000000
169       0.000000000000
170       0.000000000000
171       0.000000000000
172       0.000000000000
 Sym=     1a
 Ene= -4.82812457851998E-01
Spin= Alpha
 Occup= 1.772318
  1       0.000000000000
  2       0.000000000000
  3       0.000000000000
  4       0.000000000000
  5       0.000000000000
  6       0.000000000000
  7       0.000000000000
  8       0.000000000000
  9       0.000000000000
 10       0.000000000000
 11       0.000000000000
 12       0.000000000000
 13       0.000000000000
 14       0.000000000000
 15       0.000000000000
 16       0.000000000000
 17       0.000000000000
 18       0.000000000000
 19       0.000000000000
 20       0.000000000000
 21       0.000000000000
 22       0.000000000000
 23       0.000000000000
 24       0.000000000000
 25       0.000000000000
 26       0.000000000000
 27       0.000000000000
 28       0.000000000000
 29       0.000000000000
 30       0.000000000000
 31       0.000000000000
 32       0.000000000000
 33       0.000000000000
 34       0.000000000000
 35       0.000000000000
 36       0.000000000000
 37       0.000000000000
 38       0.000000000000
 39       0.000000000000
 40       0.000000000000
 41       0.000000000000
 42       0.000000000000
 43       0.000000000000
 44       0.000000000000
 45       0.000000000000
 46       0.000000000000
 47       0.000000000000
 48       0.000000000000
 49       0.000000000000
 50       0.000000000000
 51       0.000000000000
 52       0.000000000000
 53       0.000000000000
 54       0.000000000000
 55       0.000000000000
 56       0.000000000000
 57       0.000000000000
 58       0.000000000000
 59       0.000000000000
 60       0.000000000000
 61       0.000000000000
 62       0.000000000000
 63       0.000000000000
 64       0.000000000000
 65       0.000000000000
 66       0.000000000000
 67       0.000000000000
 68       0.254339146884
 69       0.000000000000
 70       0.000000000000
 71       0.637693998498
 72       0.000000000000
 73       0.000000000000
 74       0.251217012394
 75       0.000000000000
 76       0.000000000000
 77       0.000000000000
 78       0.000000000000
 79       0.000000000000
 80       0.000000000000
 81       0.000000000000
 82       0.000000000000
 83       0.000000000000
 84       0.000000000000
 85       0.000000000000
 86       0.000000000000
 87       0.000000000000
 88       0.000000000000
 89       0.000000000000
 90       0.000000000000
 91       0.000000000000
 92       0.000000000000
 93       0.000000000000
 94       0.000000000000
 95       0.000000000000
 96       0.000000000000
 97       0.000000000000
 98       0.000000000000
 99       0.000000000000
100       0.000000000000
101       0.000000000000
102       0.000000000000
103       0.000000000000
104       0.000000000000
105       0.000000000000
106       0.000000000000
107       0.000000000000
108       0.000000000000
109       0.000000000000
110       0.000000000000
111       0.000000000000
112       0.000000000000
113       0.000000000000
114       0.000000000000
115       0.000000000000
116       0.000000000000
117       0.000000000000
118       0.000000000000
119       0.000000000000
120       0.000000000000
121       0.000000000000
122       0.000000000000
123       0.000000000000
124       0.000000000000
125       0.000000000000
126       0.000000000000
127       0.000000000000
128       0.000000000000
129       0.000000000000
130       0.000000000000
131       0.000000000000
132       0.000000000000
133       0.000000000000
134       0.000000000000
135       0.000000000000
136       0.000000000000
137       0.000000000000
138       0.000000000000
139       0.000000000000
140       0.000000000000
141       0.000000000000
142       0.000000000000
143       0.000000000000
144       0.000000000000
145       0.000000000000
146       0.000000000000
147       0.000000000000
148       0.000000000000
149       0.000000000000
150       0.000000000000
151       0.000000000000
152       0.000000000000
153       0.000000000000
154       0.000000000000
155       0.000000000000
156       0.000000000000
157       0.000000000000
158       0.000000000000
159       0.000000000000
160       0.000000000000
161       0.000000000000
162       0.000000000000
163       0.000000000000
164       0.000000000000
165       0.000000000000
166       0.000000000000
167       0.000000000000
168       0.000000000000
169       0.000000000000
170       0.000000000000
171       0.000000000000
172       0.000000000000
 Sym=     1a
 Ene= -4.31500530391939E-01
Spin= Alpha
 Occup= 1.772318
  1       0.000000000000
  2       0.000000000000
  3       0.000000000000
  4       0.000000000000
  5       0.000000000000
  6       0.000000000000
  7       0.000000000000
  8       0.000000000000
  9       0.000000000000
 10       0.000000000000
 11       0.000000000000
 12       0.000000000000
 13       0.000000000000
 14       0.000000000000
 15       0.000000000000
 16       0.000000000000
 17       0.000000000000
 18       0.000000000000
 19       0.000000000000
 20       0.000000000000
 21       0.000000000000
 22       0.000000000000
 23       0.000000000000
 24       0.000000000000
 25       0.000000000000
 26       0.000000000000
 27       0.000000000000
 28       0.000000000000
 29       0.000000000000
 30       0.000000000000
 31       0.000000000000
 32       0.000000000000
 33       0.000000000000
 34       0.000000000000
 35       0.000000000000
 36       0.000000000000
 37       0.000000000000
 38       0.000000000000
 39       0.000000000000
 40       0.000000000000
 41       0.000000000000
 42       0.000000000000
 43       0.000000000000
 44       0.000000000000
 45       0.000000000000
 46       0.000000000000
 47       0.000000000000
 48       0.000000000000
 49       0.000000000000
 50       0.000000000000
 51       0.000000000000
 52       0.000000000000
 53       0.000000000000
 54       0.000000000000
 55       0.000000000000
 56       0.000000000000
 57       0.000000000000
 58       0.000000000000
 59       0.000000000000
 60       0.000000000000
 61       0.000000000000
 62       0.000000000000
 63       0.000000000000
 64       0.000000000000
 65       0.000000000000
 66       0.000000000000
 67       0.000000000000
 68       0.000000000000
 69       0.254339146884
 70       0.000000000000
 71       0.000000000000
 72       0.637693998498
 73       0.000000000000
 74       0.000000000000
 75       0.251217012394
 76       0.000000000000
 77       0.000000000000
 78       0.000000000000
 79       0.000000000000
 80       0.000000000000
 81       0.000000000000
 82       0.000000000000
 83       0.000000000000
 84       0.000000000000
 85       0.000000000000
 86       0.000000000000
 87       0.000000000000
 88       0.000000000000
 89       0.000000000000
 90       0.000000000000
 91       0.000000000000
 92       0.000000000000
 93       0.000000000000
 94       0.000000000000
 95       0.000000000000
 96       0.000000000000
 97       0.000000000000
 98       0.000000000000
 99       0.000000000000
100       0.000000000000
101       0.000000000000
102       0.000000000000
103       0.000000000000
104       0.000000000000
105       0.000000000000
106       0.000000000000
107       0.000000000000
108       0.000000000000
109       0.000000000000
110       0.000000000000
111       0.000000000000
112       0.000000000000
113       0.000000000000
114       0.000000000000
115       0.000000000000
116       0.000000000000
117       0.000000000000
118       0.000000000000
119       0.000000000000
120       0.000000000000
121       0.000000000000
122       0.000000000000
123       0.000000000000
124       0.000000000000
125       0.000000000000
126       0.000000000000
127       0.000000000000
128       0.000000000000
129       0.000000000000
130       0.000000000000
131       0.000000000000
132       0.000000000000
133       0.000000000000
134       0.000000000000
135       0.000000000000
136       0.000000000000
137       0.000000000000
138       0.000000000000
139       0.000000000000
140       0.000000000000
141       0.000000000000
142       0.000000000000
143       0.000000000000
144       0.000000000000
145       0.000000000000
146       0.000000000000
147       0.000000000000
148       0.000000000000
149       0.000000000000
150       0.000000000000
151       0.000000000000
152       0.000000000000
153       0.000000000000
154       0.000000000000
155       0.000000000000
156       0.000000000000
157       0.000000000000
158       0.000000000000
159       0.000000000000
160       0.000000000000
161       0.000000000000
162       0.000000000000
163       0.000000000000
164       0.000000000000
165       0.000000000000
166       0.000000000000
167       0.000000000000
168       0.000000000000
169       0.000000000000
170       0.000000000000
171       0.000000000000
172       0.000000000000
 Sym=     1a
 Ene= -3.89653444136032E-01
Spin= Alpha
 Occup= 1.772318
  1       0.000000000000
  2       0.000000000000
  3       0.000000000000
  4       0.000000000000
  5       0.000000000000
  6       0.000000000000
  7       0.000000000000
  8       0.000000000000
  9       0.000000000000
 10       0.000000000000
 11       0.000000000000
 12       0.000000000000
 13       0.000000000000
 14       0.000000000000
 15       0.000000000000
 16       0.000000000000
 17       0.000000000000
 18       0.000000000000
 19       0.000000000000
 20       0.000000000000
 21       0.000000000000
 22       0.000000000000
 23       0.000000000000
 24       0.000000000000
 25       0.000000000000
 26       0.000000000000
 27       0.000000000000
 28       0.000000000000
 29       0.000000000000
 30       0.000000000000
 31       0.000000000000
 32       0.000000000000
 33       0.000000000000
 34       0.000000000000
 35       0.000000000000
 36       0.000000000000
 37       0.000000000000
 38       0.000000000000
 39       0.000000000000
 40       0.000000000000
 41       0.000000000000
 42       0.000000000000
 43       0.000000000000
 44       0.000000000000
 45       0.000000000000
 46       0.000000000000
 47       0.000000000000
 48       0.000000000000
 49       0.000000000000
 50       0.000000000000
 51       0.000000000000
 52       0.000000000000
 53       0.000000000000
 54       0.000000000000
 55       0.000000000000
 56       0.000000000000
 57       0.000000000000
 58       0.000000000000
 59       0.000000000000
 60       0.000000000000
 61       0.000000000000
 62       0.000000000000
 63       0.000000000000
 64       0.000000000000
 65       0.000000000000
 66       0.000000000000
 67       0.000000000000
 68       0.000000000000
 69       0.000000000000
 70       0.254339146884
 71       0.000000000000
 72       0.000000000000
 73       0.637693998498
 74       0.000000000000
 75       0.000000000000
 76       0.251217012394
 77       0.000000000000
 78       0.000000000000
 79       0.000000000000
 80       0.000000000000
 81       0.000000000000
 82       0.000000000000
 83       0.000000000000
 84       0.000000000000
 85       0.000000000000
 86       0.000000000000
 87       0.000000000000
 88       0.000000000000
 89       0.000000000000
 90       0.000000000000
 91       0.000000000000
 92       0.000000000000
 93       0.000000000000
 94       0.000000000000
 95       0.000000000000
 96       0.000000000000
 97       0.000000000000
 98       0.000000000000
 99       0.000000000000
100       0.000000000000
101       0.000000000000
102       0.000000000000
103       0.000000000000
104       0.000000000000
105       0.000000000000
106       0.000000000000
107       0.000000000000
108       0.000000000000
109       0.000000000000
110       0.000000000000
111       0.000000000000
112       0.000000000000
113       0.000000000000
114       0.000000000000
115       0.000000000000
116       0.000000000000
117       0.000000000000
118       0.000000000000
119       0.000000000000
120       0.000000000000
121       0.000000000000
122       0.000000000000
123       0.000000000000
124       0.000000000000
125       0.000000000000
126       0.000000000000
127       0.000000000000
128       0.000000000000
129       0.000000000000
130       0.000000000000
131       0.000000000000
132       0.000000000000
133       0.000000000000
134       0.000000000000
135       0.000000000000
136       0.000000000000
137       0.000000000000
138       0.000000000000
139       0.000000000000
140       0.000000000000
141       0.000000000000
142       0.000000000000
143       0.000000000000
144       0.000000000000
145       0.000000000000
146       0.000000000000
147       0.000000000000
148       0.000000000000
149       0.000000000000
150       0.000000000000
151       0.000000000000
152       0.000000000000
153       0.000000000000
154       0.000000000000
155       0.000000000000
156       0.000000000000
157       0.000000000000
158       0.000000000000
159       0.000000000000
160       0.000000000000
161       0.000000000000
162       0.000000000000
163       0.000000000000
164       0.000000000000
165       0.000000000000
166       0.000000000000
167       0.000000000000
168       0.000000000000
169       0.000000000000
170       0.000000000000
171       0.000000000000
172       0.000000000000
 Sym=     1a
 Ene=  2.89433481321186E+00
Spin= Alpha
 Occup= 0.007028
  1       0.000000000000
  2       0.000000000000
  3       0.000000000000
  4       0.000000000000
  5       0.000000000000
  6       0.000000000000
  7       0.000000000000
  8       0.000000000000
  9       0.000000000000
 10       0.000000000000
 11       0.000000000000
 12       0.000000000000
 13       0.000000000000
 14       0.000000000000
 15       0.000000000000
 16       0.000000000000
 17       0.000000000000
 18       0.000000000000
 19       0.000000000000
 20       0.000000000000
 21       0.000000000000
 22       0.000000000000
 23       0.000000000000
 24       0.000000000000
 25       0.000000000000
 26       0.000000000000
 27       0.000000000000
 28       0.000000000000
 29       0.000000000000
 30       0.000000000000
 31       0.000000000000
 32       0.000000000000
 33       0.000000000000
 34       0.000000000000
 35       0.000000000000
 36       0.000000000000
 37       0.000000000000
 38       0.000000000000
 39       0.000000000000
 40       0.000000000000
 41       0.000000000000
 42       0.000000000000
 43       0.000000000000
 44       0.000000000000
 45       0.000000000000
 46       0.000000000000
 47       0.000000000000
 48       0.000000000000
 49       0.000000000000
 50       0.000000000000
 51       0.000000000000
 52       0.000000000000
 53       0.000000000000
 54       0.000000000000
 55       0.000000000000
 56       0.000000000000
 57       0.000000000000
 58       0.000000000000
 59       0.000000000000
 60       0.000000000000
 61       0.000000000000
 62       0.000000000000
 63       0.000000000000
 64       0.000000000000
 65       0.000000000000
 66       0.000000000000
 67       0.000000000000
 68       0.000000000000
 69       0.000000000000
 70       0.000000000000
 71       0.000000000000
 72       0.000000000000
 73       0.000000000000
 74       0.000000000000
 75       0.000000000000
 76       0.000000000000
 77      -1.145972072018
 78       0.000000000000
 79       0.000000000000
 80       0.000000000000
 81       0.000000000000
 82       0.368674265007
 83       0.000000000000
 84       0.000000000000
 85       0.000000000000
 86       0.000000000000
 87       0.000000000000
 88       0.000000000000
 89       0.000000000000
 90       0.000000000000
 91       0.000000000000
 92       0.000000000000
 93       0.000000000000
 94       0.000000000000
 95       0.000000000000
 96       0.000000000000
 97       0.000000000000
 98       0.000000000000
 99       0.000000000000
100       0.000000000000
101       0.000000000000
102       0.000000000000
103       0.000000000000
104       0.000000000000
105       0.000000000000
106       0.000000000000
107       0.000000000000
108       0.000000000000
109       0.000000000000
110       0.000000000000
111       0.000000000000
112       0.000000000000
113       0.000000000000
114       0.000000000000
115       0.000000000000
116       0.000000000000
117       0.000000000000
118       0.000000000000
119       0.000000000000
120       0.000000000000
121       0.000000000000
122       0.000000000000
123       0.000000000000
124       0.000000000000
125       0.000000000000
126       0.000000000000
127       0.000000000000
128       0.000000000000
129       0.000000000000
130       0.000000000000
131       0.000000000000
132       0.000000000000
133       0.000000000000
134       0.000000000000
135       0.000000000000
136       0.000000000000
137       0.000000000000
138       0.000000000000
139       0.000000000000
140       0.000000000000
141       0.000000000000
142       0.000000000000
143       0.000000000000
144       0.000000000000
145       0.000000000000
146       0.000000000000
147       0.000000000000
148       0.000000000000
149       0.000000000000
150       0.000000000000
151       0.000000000000
152       0.000000000000
153       0.000000000000
154       0.000000000000
155       0.000000000000
156       0.000000000000
157       0.000000000000
158       0.000000000000
159       0.000000000000
160       0.000000000000
161       0.000000000000
162       0.000000000000
163       0.000000000000
164       0.000000000000
165       0.000000000000
166       0.000000000000
167       0.000000000000
168       0.000000000000
169       0.000000000000
170       0.000000000000
171       0.000000000000
172       0.000000000000
 Sym=     1a
 Ene=  2.92480459069008E+00
Spin= Alpha
 Occup= 0.007028
  1       0.000000000000
  2       0.000000000000
  3       0.000000000000
  4       0.000000000000
  5       0.000000000000
  6       0.000000000000
  7       0.000000000000
  8       0.000000000000
  9       0.000000000000
 10       0.000000000000
 11       0.000000000000
 12       0.000000000000
 13       0.000000000000
 14       0.000000000000
 15       0.000000000000
 16       0.000000000000
 17       0.000000000000
 18       0.000000000000
 19       0.000000000000
 20       0.000000000000
 21       0.000000000000
 22       0.000000000000
 23       0.000000000000
 24       0.000000000000
 25       0.000000000000
 26       0.000000000000
 27       0.000000000000
 28       0.000000000000
 29       0.000000000000
 30       0.000000000000
 31       0.000000000000
 32       0.000000000000
 33       0.000000000000
 34       0.000000000000
 35       0.000000000000
 36       0.000000000000
 37       0.000000000000
 38       0.000000000000
 39       0.000000000000
 40       0.000000000000
 41       0.000000000000
 42       0.000000000000
 43       0.000000000000
 44       0.000000000000
 45       0.000000000000
 46       0.000000000000
 47       0.000000000000
 48       0.000000000000
 49       0.000000000000
 50       0.000000000000
 51       0.000000000000
 52       0.000000000000
 53       0.000000000000
 54       0.000000000000
 55       0.000000000000
 56       0.000000000000
 57       0.000000000000
 58       0.000000000000
 59       0.000000000000
 60       0.000000000000
 61       0.000000000000
 62       0.000000000000
 63       0.000000000000
 64       0.000000000000
 65       0.000000000000
 66       0.000000000000
 67       0.000000000000
 68       0.000000000000
 69       0.000000000000
 70       0.000000000000
 71       0.000000000000
 72       0.000000000000
 73       0.000000000000
 74       0.000000000000
 75       0.000000000000
 76       0.000000000000
 77       0.000000000000
 78      -1.145972072018
 79       0.000000000000
 80       0.000000000000
 81       0.000000000000
 82       0.000000000000
 83       0.368674265007
 84       0.000000000000
 85       0.000000000000
 86       0.000000000000
 87       0.000000000000
 88       0.000000000000
 89       0.000000000000
 90       0.000000000000
 91       0.000000000000
 92       0.000000000000
 93       0.000000000000
 94       0.000000000000
 95       0.000000000000
 96       0.000000000000
 97       0.000000000000
 98       0.000000000000
 99       0.000000000000
100       0.000000000000
101       0.000000000000
102       0.000000000000
103       0.000000000000
104       0.000000000000
105       0.000000000000
106       0.000000000000
107       0.000000000000
108       0.000000000000
109       0.000000000000
110       0.000000000000
111       0.000000000000
112       0.000000000000
113       0.000000000000
114       0.000000000000
115       0.000000000000
116       0.000000000000
117       0.000000000000
118       0.000000000000
119       0.000000000000
120       0.000000000000
121       0.000000000000
122       0.000000000000
123       0.000000000000
124       0.000000000000
125       0.000000000000
126       0.000000000000
127       0.000000000000
128       0.000000000000
129       0.000000000000
130       0.000000000000
131       0.000000000000
132       0.000000000000
133       0.000000000000
134       0.000000000000
135       0.000000000000
136       0.000000000000
137       0.000000000000
138       0.000000000000
139       0.000000000000
140       0.000000000000
141       0.000000000000
142       0.000000000000
143       0.000000000000
144       0.000000000000
145       0.000000000000
146       0.000000000000
147       0.000000000000
148       0.000000000000
149       0.000000000000
150       0.000000000000
151       0.000000000000
152       0.000000000000
153       0.000000000000
154       0.000000000000
155       0.000000000000
156       0.000000000000
157       0.000000000000
158       0.000000000000
159       0.000000000000
160       0.000000000000
161       0.000000000000
162       0.000000000000
163       0.000000000000
164       0.000000000000
165       0.000000000000
166       0.000000000000
167       0.000000000000
168       0.000000000000
169       0.000000000000
170       0.000000000000
171       0.000000000000
172       0.000000000000
 Sym=     1a
 Ene=  2.88506006506543E+00
Spin= Alpha
 Occup= 0.007028
  1       0.000000000000
  2       0.000000000000
  3       0.000000000000
  4       0.000000000000
  5       0.000000000000
  6       0.000000000000
  7       0.000000000000
  8       0.000000000000
  9       0.000000000000
 10       0.000000000000
 11       0.000000000000
 12       0.000000000000
 13       0.000000000000
 14       0.000000000000
 15       0.000000000000
 16       0.000000000000
 17       0.000000000000
 18       0.000000000000
 19       0.000000000000
 20       0.000000000000
 21       0.000000000000
 22       0.000000000000
 23       0.000000000000
 24       0.000000000000
 25       0.000000000000
 26       0.000000000000
 27       0.000000000000
 28       0.000000000000
 29       0.000000000000
 30       0.000000000000
 31       0.000000000000
 32       0.000000000000
 33       0.000000000000
 34       0.000000000000
 35       0.000000000000
 36       0.000000000000
 37       0.000000000000
 38       0.000000000000
 39       0.000000000000
 40       0.000000000000
 41       0.000000000000
 42       0.000000000000
 43       0.000000000000
 44       0.000000000000
 45       0.000000000000
 46       0.000000000000
 47       0.000000000000
 48       0.000000000000
 49       0.000000000000
 50       0.000000000000
 51       0.000000000000
 52       0.000000000000
 53       0.000000000000
 54       0.000000000000
 55       0.000000000000
 56       0.000000000000
 57       0.000000000000
 58       0.000000000000
 59       0.000000000000
 60       0.000000000000
 61       0.000000000000
 62       0.000000000000
 63       0.000000000000
 64       0.000000000000
 65       0.000000000000
 66       0.000000000000
 67       0.000000000000
 68       0.000000000000
 69       0.000000000000
 70       0.000000000000
 71       0.000000000000
 72       0.000000000000
 73       0.000000000000
 74       0.000000000000
 75       0.000000000000
 76       0.000000000000
 77       0.000000000000
 78       0.000000000000
 79      -1.145972072018
 80       0.000000000000
 81       0.000000000000
 82       0.000000000000
 83       0.000000000000
 84       0.368674265007
 85       0.000000000000
 86       0.000000000000
 87       0.000000000000
 88       0.000000000000
 89       0.000000000000
 90       0.000000000000
 91       0.000000000000
 92       0.000000000000
 93       0.000000000000
 94       0.000000000000
 95       0.000000000000
 96       0.000000000000
 97       0.000000000000
 98       0.000000000000
 99       0.000000000000
100       0.000000000000
101       0.000000000000
102       0.000000000000
103       0.000000000000
104       0.000000000000
105       0.000000000000
106       0.000000000000
107       0.000000000000
108       0.000000000000
109       0.000000000000
110       0.000000000000
111       0.000000000000
112       0.000000000000
113       0.000000000000
114       0.000000000000
115       0.000000000000
116       0.000000000000
117       0.000000000000
118       0.000000000000
119       0.000000000000
120       0.000000000000
121       0.000000000000
122       0.000000000000
123       0.000000000000
124       0.000000000000
125       0.000000000000
126       0.000000000000
127       0.000000000000
128       0.000000000000
129       0.000000000000
130       0.000000000000
131       0.000000000000
132       0.000000000000
133       0.000000000000
134       0.000000000000
135       0.000000000000
136       0.000000000000
137       0.000000000000
138       0.000000000000
139       0.000000000000
140       0.000000000000
141       0.000000000000
142       0.000000000000
143       0.000000000000
144       0.000000000000
145       0.000000000000
146       0.000000000000
147       0.000000000000
148       0.000000000000
149       0.000000000000
150       0.000000000000
151       0.000000000000
152       0.000000000000
153       0.000000000000
154       0.000000000000
155       0.000000000000
156       0.000000000000
157       0.000000000000
158       0.000000000000
159       0.000000000000
160       0.000000000000
161       0.000000000000
162       0.000000000000
163       0.000000000000
164       0.000000000000
165       0.000000000000
166       0.000000000000
167       0.000000000000
168       0.000000000000
169       0.000000000000
170       0.000000000000
171       0.000000000000
172       0.000000000000
 Sym=     1a
 Ene=  2.90645629273698E+00
Spin= Alpha
 Occup= 0.007028
  1       0.000000000000
  2       0.000000000000
  3       0.000000000000
  4       0.000000000000
  5       0.000000000000
  6       0.000000000000
  7       0.000000000000
  8       0.000000000000
  9       0.000000000000
 10       0.000000000000
 11       0.000000000000
 12       0.000000000000
 13       0.000000000000
 14       0.000000000000
 15       0.000000000000
 16       0.000000000000
 17       0.000000000000
 18       0.000000000000
 19       0.000000000000
 20       0.000000000000
 21       0.000000000000
 22       0.000000000000
 23       0.000000000000
 24       0.000000000000
 25       0.000000000000
 26       0.000000000000
 27       0.000000000000
 28       0.000000000000
 29       0.000000000000
 30       0.000000000000
 31       0.000000000000
 32       0.000000000000
 33       0.000000000000
 34       0.000000000000
 35       0.000000000000
 36       0.000000000000
 37       0.000000000000
 38       0.000000000000
 39       0.000000000000
 40       0.000000000000
 41       0.000000000000
 42       0.000000000000
 43       0.000000000000
 44       0.000000000000
 45       0.000000000000
 46       0.000000000000
 47       0.000000000000
 48       0.000000000000
 49       0.000000000000
 50       0.000000000000
 51       0.000000000000
 52       0.000000000000
 53       0.000000000000
 54       0.000000000000
 55       0.000000000000
 56       0.000000000000
 57       0.000000000000
 58       0.000000000000
 59       0.000000000000
 60       0.000000000000
 61       0.000000000000
 62       0.000000000000
 63       0.000000000000
 64       0.000000000000
 65       0.000000000000
 66       0.000000000000
 67       0.000000000000
 68       0.000000000000
 69       0.000000000000
 70       0.000000000000
 71       0.000000000000
 72       0.000000000000
 73       0.000000000000
 74       0.000000000000
 75       0.000000000000
 76       0.000000000000
 77       0.000000000000
 78       0.000000000000
 79       0.000000000000
 80      -1.145972072018
 81       0.000000000000
 82       0.000000000000
 83       0.000000000000
 84       0.000000000000
 85       0.368674265007
 86       0.000000000000
 87       0.000000000000
 88       0.000000000000
 89       0.000000000000
 90       0.000000000000
 91       0.000000000000
 92       0.000000000000
 93       0.000000000000
 94       0.000000000000
 95       0.000000000000
 96       0.000000000000
 97       0.000000000000
 98       0.000000000000
 99       0.000000000000
100       0.000000000000
101       0.000000000000
102       0.000000000000
103       0.000000000000
104       0.000000000000
105       0.000000000000
106       0.000000000000
107       0.000000000000
108       0.000000000000
109       0.000000000000
110       0.000000000000
111       0.000000000000
112       0.000000000000
113       0.000000000000
114       0.000000000000
115       0.000000000000
116       0.000000000000
117       0.000000000000
118       0.000000000000
119       0.000000000000
120       0.000000000000
121       0.000000000000
122       0.000000000000
123       0.000000000000
124       0.000000000000
125       0.000000000000
126       0.000000000000
127       0.000000000000
128       0.000000000000
129       0.000000000000
130       0.000000000000
131       0.000000000000
132       0.000000000000
133       0.000000000000
134       0.000000000000
135       0.000000000000
136       0.000000000000
137       0.000000000000
138       0.000000000000
139       0.000000000000
140       0.000000000000
141       0.000000000000
142       0.000000000000
143       0.000000000000
144       0.000000000000
145       0.000000000000
146       0.000000000000
147       0.000000000000
148       0.000000000000
149       0.000000000000
150       0.000000000000
151       0.000000000000
152       0.000000000000
153       0.000000000000
154       0.000000000000
155       0.000000000000
156       0.000000000000
157       0.000000000000
158       0.000000000000
159       0.000000000000
160       0.000000000000
161       0.000000000000
162       0.000000000000
163       0.000000000000
164       0.000000000000
165       0.000000000000
166       0.000000000000
167       0.000000000000
168       0.000000000000
169       0.000000000000
170       0.000000000000
171       0.000000000000
172       0.000000000000
 Sym=     1a
 Ene=  2.87238349354128E+00
Spin= Alpha
 Occup= 0.007028
  1       0.000000000000
  2       0.000000000000
  3       0.000000000000
  4       0.000000000000
  5       0.000000000000
  6       0.000000000000
  7       0.000000000000
  8       0.000000000000
  9       0.000000000000
 10       0.000000000000
 11       0.000000000000
 12       0.000000000000
 13       0.000000000000
 14       0.000000000000
 15       0.000000000000
 16       0.000000000000
 17       0.000000000000
 18       0.000000000000
 19       0.000000000000
 20       0.000000000000
 21       0.000000000000
 22       0.000000000000
 23       0.000000000000
 24       0.000000000000
 25       0.000000000000
 26       0.000000000000
 27       0.000000000000
 28       0.000000000000
 29       0.000000000000
 30       0.000000000000
 31       0.000000000000
 32       0.000000000000
 33       0.000000000000
 34       0.000000000000
 35       0.000000000000
 36       0.000000000000
 37       0.000000000000
 38       0.000000000000
 39       0.000000000000
 40       0.000000000000
 41       0.000000000000
 42       0.000000000000
 43       0.000000000000
 44       0.000000000000
 45       0.000000000000
 46       0.000000000000
 47       0.000000000000
 48       0.000000000000
 49       0.000000000000
 50       0.000000000000
 51       0.000000000000
 52       0.000000000000
 53       0.000000000000
 54       0.000000000000
 55       0.000000000000
 56       0.000000000000
 57       0.000000000000
 58       0.000000000000
 59       0.000000000000
 60       0.000000000000
 61       0.000000000000
 62       0.000000000000
 63       0.000000000000
 64       0.000000000000
 65       0.000000000000
 66       0.000000000000
 67       0.000000000000
 68       0.000000000000
 69       0.000000000000
 70       0.000000000000
 71       0.000000000000
 72       0.000000000000
 73       0.000000000000
 74       0.000000000000
 75       0.000000000000
 76       0.000000000000
 77       0.000000000000
 78       0.000000000000
 79       0.000000000000
 80       0.000000000000
 81      -1.145972072018
 82       0.000000000000
 83       0.000000000000
 84       0.000000000000
 85       0.000000000000
 86       0.368674265007
 87       0.000000000000
 88       0.000000000000
 89       0.000000000000
 90       0.000000000000
 91       0.000000000000
 92       0.000000000000
 93       0.000000000000
 94       0.000000000000
 95       0.000000000000
 96       0.000000000000
 97       0.000000000000
 98       0.000000000000
 99       0.000000000000
100       0.000000000000
101       0.000000000000
102       0.000000000000
103       0.000000000000
104       0.000000000000
105       0.000000000000
106       0.000000000000
107       0.000000000000
108       0.000000000000
109       0.000000000000
110       0.000000000000
111       0.000000000000
112       0.000000000000
113       0.000000000000
114       0.000000000000
115       0.000000000000
116       0.000000000000
117       0.000000000000
118       0.000000000000
119       0.000000000000
120       0.000000000000
121       0.000000000000
122       0.000000000000
123       0.000000000000
124       0.000000000000
125       0.000000000000
126       0.000000000000
127       0.000000000000
128       0.000000000000
129       0.000000000000
130       0.000000000000
131       0.000000000000
132       0.000000000000
133       0.000000000000
134       0.000000000000
135       0.000000000000
136       0.000000000000
137       0.000000000000
138       0.000000000000
139       0.000000000000
140       0.000000000000
141       0.000000000000
142       0.000000000000
143       0.000000000000
144       0.000000000000
145       0.000000000000
146       0.000000000000
147       0.000000000000
148       0.000000000000
149       0.000000000000
150       0.000000000000
151       0.000000000000
152       0.000000000000
153       0.000000000000
154       0.000000000000
155       0.000000000000
156       0.000000000000
157       0.000000000000
158       0.000000000000
159       0.000000000000
160       0.000000000000
161       0.000000000000
162       0.000000000000
163       0.000000000000
164       0.000000000000
165       0.000000000000
166       0.000000000000
167       0.000000000000
168       0.000000000000
169       0.000000000000
170       0.000000000000
171       0.000000000000
172       0.000000000000
 Sym=     1a
 Ene=  5.66207854790472E-01
Spin= Alpha
 Occup= 0.224789
  1       0.000000000000
  2       0.000000000000
  3       0.000000000000
  4       0.000000000000
  5       0.000000000000
  6       0.000000000000
  7       0.000000000000
  8       0.000000000000
  9       0.000000000000
 10       0.000000000000
 11       0.000000000000
 12       0.000000000000
 13       0.000000000000
 14       0.000000000000
 15       0.000000000000
 16       0.000000000000
 17       0.000000000000
 18       0.000000000000
 19       0.000000000000
 20       0.000000000000
 21       0.000000000000
 22       0.000000000000
 23       0.000000000000
 24       0.000000000000
 25       0.000000000000
 26       0.000000000000
 27       0.000000000000
 28       0.000000000000
 29       0.000000000000
 30       0.000000000000
 31       0.000000000000
 32       0.000000000000
 33       0.000000000000
 34       0.000000000000
 35       0.000000000000
 36       0.000000000000
 37       0.000000000000
 38       0.000000000000
 39       0.000000000000
 40       0.000000000000
 41       0.000000000000
 42       0.000000000000
 43       0.000000000000
 44       0.000000000000
 45       0.000000000000
 46       0.000000000000
 47       0.000000000000
 48       0.000000000000
 49       0.000000000000
 50       0.000000000000
 51       0.000000000000
 52       0.000000000000
 53       0.000000000000
 54       0.000000000000
 55       0.000000000000
 56       0.000000000000
 57       0.000000000000
 58       0.000000000000
 59       0.000000000000
 60       0.000000000000
 61       0.000000000000
 62       0.000000000000
 63       0.000000000000
 64       0.000000000000
 65       0.000000000000
 66       0.000000000000
 67       0.000000000000
 68       0.000000000000
 69       0.000000000000
 70       0.000000000000
 71       0.000000000000
 72       0.000000000000
 73       0.000000000000
 74       0.000000000000
 75       0.000000000000
 76       0.000000000000
 77      -0.283938395533
 78       0.000000000000
 79       0.000000000000
 80       0.000000000000
 81       0.000000000000
 82       1.121584722001
 83       0.000000000000
 84       0.000000000000
 85       0.000000000000
 86       0.000000000000
 87       0.000000000000
 88       0.000000000000
 89       0.000000000000
 90       0.000000000000
 91       0.000000000000
 92       0.000000000000
 93       0.000000000000
 94       0.000000000000
 95       0.000000000000
 96       0.000000000000
 97       0.000000000000
 98       0.000000000000
 99       0.000000000000
100       0.000000000000
101       0.000000000000
102       0.000000000000
103       0.000000000000
104       0.000000000000
105       0.000000000000
106       0.000000000000
107       0.000000000000
108       0.000000000000
109       0.000000000000
110       0.000000000000
111       0.000000000000
112       0.000000000000
113       0.000000000000
114       0.000000000000
115       0.000000000000
116       0.000000000000
117       0.000000000000
118       0.000000000000
119       0.000000000000
120       0.000000000000
121       0.000000000000
122       0.000000000000
123       0.000000000000
124       0.000000000000
125       0.000000000000
126       0.000000000000
127       0.000000000000
128       0.000000000000
129       0.000000000000
130       0.000000000000
131       0.000000000000
132       0.000000000000
133       0.000000000000
134       0.000000000000
135       0.000000000000
136       0.000000000000
137       0.000000000000
138       0.000000000000
139       0.000000000000
140       0.000000000000
141       0.000000000000
142       0.000000000000
143       0.000000000000
144       0.000000000000
145       0.000000000000
146       0.000000000000
147       0.000000000000
148       0.000000000000
149       0.000000000000
150       0.000000000000
151       0.000000000000
152       0.000000000000
153       0.000000000000
154       0.000000000000
155       0.000000000000
156       0.000000000000
157       0.000000000000
158       0.000000000000
159       0.000000000000
160       0.000000000000
161       0.000000000000
162       0.000000000000
163       0.000000000000
164       0.000000000000
165       0.000000000000
166       0.000000000000
167       0.000000000000
168       0.000000000000
169       0.000000000000
170       0.000000000000
171       0.000000000000
172       0.000000000000
 Sym=     1a
 Ene=  7.18743945337608E-01
Spin= Alpha
 Occup= 0.224789
  1       0.000000000000
  2       0.000000000000
  3       0.000000000000
  4       0.000000000000
  5       0.000000000000
  6       0.000000000000
  7       0.000000000000
  8       0.000000000000
  9       0.000000000000
 10       0.000000000000
 11       0.000000000000
 12       0.000000000000
 13       0.000000000000
 14       0.000000000000
 15       0.000000000000
 16       0.000000000000
 17       0.000000000000
 18       0.000000000000
 19       0.000000000000
 20       0.000000000000
 21       0.000000000000
 22       0.000000000000
 23       0.000000000000
 24       0.000000000000
 25       0.000000000000
 26       0.000000000000
 27       0.000000000000
 28       0.000000000000
 29       0.000000000000
 30       0.000000000000
 31       0.000000000000
 32       0.000000000000
 33       0.000000000000
 34       0.000000000000
 35       0.000000000000
 36       0.000000000000
 37       0.000000000000
 38       0.000000000000
 39       0.000000000000
 40       0.000000000000
 41       0.000000000000
 42       0.000000000000
 43       0.000000000000
 44       0.000000000000
 45       0.000000000000
 46       0.000000000000
 47       0.000000000000
 48       0.000000000000
 49       0.000000000000
 50       0.000000000000
 51       0.000000000000
 52       0.000000000000
 53       0.000000000000
 54       0.000000000000
 55       0.000000000000
 56       0.000000000000
 57       0.000000000000
 58       0.000000000000
 59       0.000000000000
 60       0.000000000000
 61       0.000000000000
 62       0.000000000000
 63       0.000000000000
 64       0.000000000000
 65       0.000000000000
 66       0.000000000000
 67       0.000000000000
 68       0.000000000000
 69       0.000000000000
 70       0.000000000000
 71       0.000000000000
 72       0.000000000000
 73       0.000000000000
 74       0.000000000000
 75       0.000000000000
 76       0.000000000000
 77       0.000000000000
 78      -0.283938395533
 79       0.000000000000
 80       0.000000000000
 81       0.000000000000
 82       0.000000000000
 83       1.121584722001
 84       0.000000000000
 85       0.000000000000
 86       0.000000000000
 87       0.000000000000
 88       0.000000000000
 89       0.000000000000
 90       0.000000000000
 91       0.000000000000
 92       0.000000000000
 93       0.000000000000
 94       0.000000000000
 95       0.000000000000
 96       0.000000000000
 97       0.000000000000
 98       0.000000000000
 99       0.000000000000
100       0.000000000000
101       0.000000000000
102       0.000000000000
103       0.000000000000
104       0.000000000000
105       0.000000000000
106       0.000000000000
107       0.000000000000
108       0.000000000000
109       0.000000000000
110       0.000000000000
111       0.000000000000
112       0.000000000000
113       0.000000000000
114       0.000000000000
115       0.000000000000
116       0.000000000000
117       0.000000000000
118       0.000000000000
119       0.000000000000
120       0.000000000000
121       0.000000000000
122       0.000000000000
123       0.000000000000
124       0.000000000000
125       0.000000000000
126       0.000000000000
127       0.000000000000
128       0.000000000000
129       0.000000000000
130       0.000000000000
131       0.000000000000
132       0.000000000000
133       0.000000000000
134       0.000000000000
135       0.000000000000
136       0.000000000000
137       0.000000000000
138       0.000000000000
139       0.000000000000
140       0.000000000000
141       0.000000000000
142       0.000000000000
143       0.000000000000
144       0.000000000000
145       0.000000000000
146       0.000000000000
147       0.000000000000
148       0.000000000000
149       0.000000000000
150       0.000000000000
151       0.000000000000
152       0.000000000000
153       0.000000000000
154       0.000000000000
155       0.000000000000
156       0.000000000000
157       0.000000000000
158       0.000000000000
159       0.000000000000
160       0.000000000000
161       0.000000000000
162       0.000000000000
163       0.000000000000
164       0.000000000000
165       0.000000000000
166       0.000000000000
167       0.000000000000
168       0.000000000000
169       0.000000000000
170       0.000000000000
171       0.000000000000
172       0.000000000000
 Sym=     1a
 Ene=  5.62220684310320E-01
Spin= Alpha
 Occup= 0.224789
  1       0.000000000000
  2       0.000000000000
  3       0.000000000000
  4       0.000000000000
  5       0.000000000000
  6       0.000000000000
  7       0.000000000000
  8       0.000000000000
  9       0.000000000000
 10       0.000000000000
 11       0.000000000000
 12       0.000000000000
 13       0.000000000000
 14       0.000000000000
 15       0.000000000000
 16       0.000000000000
 17       0.000000000000
 18       0.000000000000
 19       0.000000000000
 20       0.000000000000
 21       0.000000000000
 22       0.000000000000
 23       0.000000000000
 24       0.000000000000
 25       0.000000000000
 26       0.000000000000
 27       0.000000000000
 28       0.000000000000
 29       0.000000000000
 30       0.000000000000
 31       0.000000000000
 32       0.000000000000
 33       0.000000000000
 34       0.000000000000
 35       0.000000000000
 36       0.000000000000
 37       0.000000000000
 38       0.000000000000
 39       0.000000000000
 40       0.000000000000
 41       0.000000000000
 42       0.000000000000
 43       0.000000000000
 44       0.000000000000
 45       0.000000000000
 46       0.000000000000
 47       0.000000000000
 48       0.000000000000
 49       0.000000000000
 50       0.000000000000
 51       0.000000000000
 52       0.000000000000
 53       0.000000000000
 54       0.000000000000
 55       0.000000000000
 56       0.000000000000
 57       0.000000000000
 58       0.000000000000
 59       0.000000000000
 60       0.000000000000
 61       0.000000000000
 62       0.000000000000
 63       0.000000000000
 64       0.000000000000
 65       0.000000000000
 66       0.000000000000
 67       0.000000000000
 68       0.000000000000
 69       0.000000000000
 70       0.000000000000
 71       0.000000000000
 72       0.000000000000
 73       0.000000000000
 74       0.000000000000
 75       0.000000000000
 76       0.000000000000
 77       0.000000000000
 78       0.000000000000
 79      -0.283938395533
 80       0.000000000000
 81       0.000000000000
 82       0.000000000000
 83       0.000000000000
 84       1.121584722001
 85       0.000000000000
 86       0.000000000000
 87       0.000000000000
 88       0.000000000000
 89       0.000000000000
 90       0.000000000000
 91       0.000000000000
 92       0.000000000000
 93       0.000000000000
 94       0.000000000000
 95       0.000000000000
 96       0.000000000000
 97       0.000000000000
 98       0.000000000000
 99       0.000000000000
100       0.000000000000
101       0.000000000000
102       0.000000000000
103       0.000000000000
104       0.000000000000
105       0.000000000000
106       0.000000000000
107       0.000000000000
108       0.000000000000
109       0.000000000000
110       0.000000000000
111       0.000000000000
112       0.000000000000
113       0.000000000000
114       0.000000000000
115       0.000000000000
116       0.000000000000
117       0.000000000000
118       0.000000000000
119       0.000000000000
120       0.000000000000
121       0.000000000000
122       0.000000000000
123       0.000000000000
124       0.000000000000
125       0.000000000000
126       0.000000000000
127       0.000000000000
128       0.000000000000
129       0.000000000000
130       0.000000000000
131       0.000000000000
132       0.000000000000
133       0.000000000000
134       0.000000000000
135       0.000000000000
136       0.000000000000
137       0.000000000000
138       0.000000000000
139       0.000000000000
140       0.000000000000
141       0.000000000000
142       0.000000000000
143       0.000000000000
144       0.000000000000
145       0.000000000000
146       0.000000000000
147       0.000000000000
148       0.000000000000
149       0.000000000000
150       0.000000000000
151       0.000000000000
152       0.000000000000
153       0.000000000000
154       0.000000000000
155       0.000000000000
156       0.000000000000
157       0.000000000000
158       0.000000000000
159       0.000000000000
160       0.000000000000
161       0.000000000000
162       0.000000000000
163       0.000000000000
164       0.000000000000
165       0.000000000000
166       0.000000000000
167       0.000000000000
168       0.000000000000
169       0.000000000000
170       0.000000000000
171       0.000000000000
172       0.000000000000
 Sym=     1a
 Ene=  5.89575316727205E-01
Spin= Alpha
 Occup= 0.224789
  1       0.000000000000
  2       0.000000000000
  3       0.000000000000
  4       0.000000000000
  5       0.000000000000
  6       0.000000000000
  7       0.000000000000
  8       0.000000000000
  9       0.000000000000
 10       0.000000000000
 11       0.000000000000
 12       0.000000000000
 13       0.000000000000
 14       0.000000000000
 15       0.000000000000
 16       0.000000000000
 17       0.000000000000
 18       0.000000000000
 19       0.000000000000
 20       0.000000000000
 21       0.000000000000
 22       0.000000000000
 23       0.000000000000
 24       0.000000000000
 25       0.000000000000
 26       0.000000000000
 27       0.000000000000
 28       0.000000000000
 29       0.000000000000
 30       0.000000000000
 31       0.000000000000
 32       0.000000000000
 33       0.000000000000
 34       0.000000000000
 35       0.000000000000
 36       0.000000000000
 37       0.000000000000
 38       0.000000000000
 39       0.000000000000
 40       0.000000000000
 41       0.000000000000
 42       0.000000000000
 43       0.000000000000
 44       0.000000000000
 45       0.000000000000
 46       0.000000000000
 47       0.000000000000
 48       0.000000000000
 49       0.000000000000
 50       0.000000000000
 51       0.000000000000
 52       0.000000000000
 53       0.000000000000
 54       0.000000000000
 55       0.000000000000
 56       0.000000000000
 57       0.000000000000
 58       0.000000000000
 59       0.000000000000
 60       0.000000000000
 61       0.000000000000
 62       0.000000000000
 63       0.000000000000
 64       0.000000000000
 65       0.000000000000
 66       0.000000000000
 67       0.000000000000
 68       0.000000000000
 69       0.000000000000
 70       0.000000000000
 71       0.000000000000
 72       0.000000000000
 73       0.000000000000
 74       0.000000000000
 75       0.000000000000
 76       0.000000000000
 77       0.000000000000
 78       0.000000000000
 79       0.000000000000
 80      -0.283938395533
 81       0.000000000000
 82       0.000000000000
 83       0.000000000000
 84       0.000000000000
 85       1.121584722001
 86       0.000000000000
 87       0.000000000000
 88       0.000000000000
 89       0.000000000000
 90       0.000000000000
 91       0.000000000000
 92       0.000000000000
 93       0.000000000000
 94       0.000000000000
 95       0.000000000000
 96       0.000000000000
 97       0.000000000000
 98       0.000000000000
 99       0.000000000000
100       0.000000000000
101       0.000000000000
102       0.000000000000
103       0.000000000000
104       0.000000000000
105       0.000000000000
106       0.000000000000
107       0.000000000000
108       0.000000000000
109       0.000000000000
110       0.000000000000
111       0.000000000000
112       0.000000000000
113       0.000000000000
114       0.000000000000
115       0.000000000000
116       0.000000000000
117       0.000000000000
118       0.000000000000
119       0.000000000000
120       0.000000000000
121       0.000000000000
122       0.000000000000
123       0.000000000000
124       0.000000000000
125       0.000000000000
126       0.000000000000
127       0.000000000000
128       0.000000000000
129       0.000000000000
130       0.000000000000
131       0.000000000000
132       0.000000000000
133       0.000000000000
134       0.000000000000
135       0.000000000000
136       0.000000000000
137       0.000000000000
138       0.000000000000
139       0.000000000000
140       0.000000000000
141       0.000000000000
142       0.000000000000
143       0.000000000000
144       0.000000000000
145       0.000000000000
146       0.000000000000
147       0.000000000000
148       0.000000000000
149       0.000000000000
150       0.000000000000
151       0.000000000000
152       0.000000000000
153       0.000000000000
154       0.000000000000
155       0.000000000000
156       0.000000000000
157       0.000000000000
158       0.000000000000
159       0.000000000000
160       0.000000000000
161       0.000000000000
162       0.000000000000
163       0.000000000000
164       0.000000000000
165       0.000000000000
166       0.000000000000
167       0.000000000000
168       0.000000000000
169       0.000000000000
170       0.000000000000
171       0.000000000000
172       0.000000000000
 Sym=     1a
 Ene=  3.79078117197181E-01
Spin= Alpha
 Occup= 0.224789
  1       0.000000000000
  2       0.000000000000
  3       0.000000000000
  4       0.000000000000
  5       0.000000000000
  6       0.000000000000
  7       0.000000000000
  8       0.000000000000
  9       0.000000000000
 10       0.000000000000
 11       0.000000000000
 12       0.000000000000
 13       0.000000000000
 14       0.000000000000
 15       0.000000000000
 16       0.000000000000
 17       0.000000000000
 18       0.000000000000
 19       0.000000000000
 20       0.000000000000
 21       0.000000000000
 22       0.000000000000
 23       0.000000000000
 24       0.000000000000
 25       0.000000000000
 26       0.000000000000
 27       0.000000000000
 28       0.000000000000
 29       0.000000000000
 30       0.000000000000
 31       0.000000000000
 32       0.000000000000
 33       0.000000000000
 34       0.000000000000
 35       0.000000000000
 36       0.000000000000
 37       0.000000000000
 38       0.000000000000
 39       0.000000000000
 40       0.000000000000
 41       0.000000000000
 42       0.000000000000
 43       0.000000000000
 44       0.000000000000
 45       0.000000000000
 46       0.000000000000
 47       0.000000000000
 48       0.000000000000
 49       0.000000000000
 50       0.000000000000
 51       0.000000000000
 52       0.000000000000
 53       0.000000000000
 54       0.000000000000
 55       0.000000000000
 56       0.000000000000
 57       0.000000000000
 58       0.000000000000
 59       0.000000000000
 60       0.000000000000
 61       0.000000000000
 62       0.000000000000
 63       0.000000000000
 64       0.000000000000
 65       0.000000000000
 66       0.000000000000
 67       0.000000000000
 68       0.000000000000
 69       0.000000000000
 70       0.000000000000
 71       0.000000000000
 72       0.000000000000
 73       0.000000000000
 74       0.000000000000
 75       0.000000000000
 76       0.000000000000
 77       0.000000000000
 78       0.000000000000
 79       0.000000000000
 80       0.000000000000
 81      -0.283938395533
 82       0.000000000000
 83       0.000000000000
 84       0.000000000000
 85       0.000000000000
 86       1.121584722001
 87       0.000000000000
 88       0.000000000000
 89       0.000000000000
 90       0.000000000000
 91       0.000000000000
 92       0.000000000000
 93       0.000000000000
 94       0.000000000000
 95       0.000000000000
 96       0.000000000000
 97       0.000000000000
 98       0.000000000000
 99       0.000000000000
100       0.000000000000
101       0.000000000000
102       0.000000000000
103       0.000000000000
104       0.000000000000
105       0.000000000000
106       0.000000000000
107       0.000000000000
108       0.000000000000
109       0.000000000000
110       0.000000000000
111       0.000000000000
112       0.000000000000
113       0.000000000000
114       0.000000000000
115       0.000000000000
116       0.000000000000
117       0.000000000000
118       0.000000000000
119       0.000000000000
120       0.000000000000
121       0.000000000000
122       0.000000000000
123       0.000000000000
124       0.000000000000
125       0.000000000000
126       0.000000000000
127       0.000000000000
128       0.000000000000
129       0.000000000000
130       0.000000000000
131       0.000000000000
132       0.000000000000
133       0.000000000000
134       0.000000000000
135       0.000000000000
136       0.000000000000
137       0.000000000000
138       0.000000000000
139       0.000000000000
140       0.000000000000
141       0.000000000000
142       0.000000000000
143       0.000000000000
144       0.000000000000
145       0.000000000000
146       0.000000000000
147       0.000000000000
148       0.000000000000
149       0.000000000000
150       0.000000000000
151       0.000000000000
152       0.000000000000
153       0.000000000000
154       0.000000000000
155       0.000000000000
156       0.000000000000
157       0.000000000000
158       0.000000000000
159       0.000000000000
160       0.000000000000
161       0.000000000000
162       0.000000000000
163       0.000000000000
164       0.000000000000
165       0.000000000000
166       0.000000000000
167       0.000000000000
168       0.000000000000
169       0.000000000000
170       0.000000000000
171       0.000000000000
172       0.000000000000
 Sym=     1a
 Ene=  2.64018798302417E+00
Spin= Alpha
 Occup= 0.017652
  1       0.000000000000
  2       0.000000000000
  3       0.000000000000
  4       0.000000000000
  5       0.000000000000
  6       0.000000000000
  7       0.000000000000
  8       0.000000000000
  9       0.000000000000
 10       0.000000000000
 11       0.000000000000
 12       0.000000000000
 13       0.000000000000
 14       0.000000000000
 15       0.000000000000
 16       0.000000000000
 17       0.000000000000
 18       0.000000000000
 19       0.000000000000
 20       0.000000000000
 21       0.000000000000
 22       0.000000000000
 23       0.000000000000
 24       0.000000000000
 25       0.000000000000
 26       0.000000000000
 27       0.000000000000
 28       0.000000000000
 29       0.000000000000
 30       0.000000000000
 31       0.000000000000
 32       0.000000000000
 33       0.000000000000
 34       0.000000000000
 35       0.000000000000
 36       0.000000000000
 37       0.000000000000
 38       0.000000000000
 39       0.000000000000
 40       0.000000000000
 41       0.000000000000
 42       0.000000000000
 43       0.000000000000
 44       0.000000000000
 45       0.000000000000
 46       0.000000000000
 47       0.000000000000
 48       0.000000000000
 49       0.000000000000
 50       0.000000000000
 51       0.000000000000
 52       0.000000000000
 53       0.000000000000
 54       0.000000000000
 55       0.000000000000
 56       0.000000000000
 57       0.000000000000
 58       0.000000000000
 59       0.000000000000
 60       0.000000000000
 61       0.000000000000
 62       0.000000000000
 63       0.000000000000
 64       0.000000000000
 65       0.000000000000
 66       0.000000000000
 67       0.000000000000
 68       0.000000000000
 69       0.000000000000
 70       0.000000000000
 71       0.000000000000
 72       0.000000000000
 73       0.000000000000
 74       0.000000000000
 75       0.000000000000
 76       0.000000000000
 77       0.000000000000
 78       0.000000000000
 79       0.000000000000
 80       0.000000000000
 81       0.000000000000
 82       0.000000000000
 83       0.000000000000
 84       0.000000000000
 85       0.000000000000
 86       0.000000000000
 87       1.000000000000
 88       0.000000000000
 89       0.000000000000
 90       0.000000000000
 91       0.000000000000
 92       0.000000000000
 93       0.000000000000
 94       0.000000000000
 95       0.000000000000
 96       0.000000000000
 97       0.000000000000
 98       0.000000000000
 99       0.000000000000
100       0.000000000000
101       0.000000000000
102       0.000000000000
103       0.000000000000
104       0.000000000000
105       0.000000000000
106       0.000000000000
107       0.000000000000
108       0.000000000000
109       0.000000000000
110       0.000000000000
111       0.000000000000
112       0.000000000000
113       0.000000000000
114       0.000000000000
115       0.000000000000
116       0.000000000000
117       0.000000000000
118       0.000000000000
119       0.000000000000
120       0.000000000000
121       0.000000000000
122       0.000000000000
123       0.000000000000
124       0.000000000000
125       0.000000000000
126       0.000000000000
127       0.000000000000
128       0.000000000000
129       0.000000000000
130       0.000000000000
131       0.000000000000
132       0.000000000000
133       0.000000000000
134       0.000000000000
135       0.000000000000
136       0.000000000000
137       0.000000000000
138       0.000000000000
139       0.000000000000
140       0.000000000000
141       0.000000000000
142       0.000000000000
143       0.000000000000
144       0.000000000000
145       0.000000000000
146       0.000000000000
147       0.000000000000
148       0.000000000000
149       0.000000000000
150       0.000000000000
151       0.000000000000
152       0.000000000000
153       0.000000000000
154       0.000000000000
155       0.000000000000
156       0.000000000000
157       0.000000000000
158       0.000000000000
159       0.000000000000
160       0.000000000000
161       0.000000000000
162       0.000000000000
163       0.000000000000
164       0.000000000000
165       0.000000000000
166       0.000000000000
167       0.000000000000
168       0.000000000000
169       0.000000000000
170       0.000000000000
171       0.000000000000
172       0.000000000000
 Sym=     1a
 Ene=  2.62123452210791E+00
Spin= Alpha
 Occup= 0.017652
  1       0.000000000000
  2       0.000000000000
  3       0.000000000000
  4       0.000000000000
  5       0.000000000000
  6       0.000000000000
  7       0.000000000000
  8       0.000000000000
  9       0.000000000000
 10       0.000000000000
 11       0.000000000000
 12       0.000000000000
 13       0.000000000000
 14       0.000000000000
 15       0.000000000000
 16       0.000000000000
 17       0.000000000000
 18       0.000000000000
 19       0.000000000000
 20       0.000000000000
 21       0.000000000000
 22       0.000000000000
 23       0.000000000000
 24       0.000000000000
 25       0.000000000000
 26       0.000000000000
 27       0.000000000000
 28       0.000000000000
 29       0.000000000000
 30       0.000000000000
 31       0.000000000000
 32       0.000000000000
 33       0.000000000000
 34       0.000000000000
 35       0.000000000000
 36       0.000000000000
 37       0.000000000000
 38       0.000000000000
 39       0.000000000000
 40       0.000000000000
 41       0.000000000000
 42       0.000000000000
 43       0.000000000000
 44       0.000000000000
 45       0.000000000000
 46       0.000000000000
 47       0.000000000000
 48       0.000000000000
 49       0.000000000000
 50       0.000000000000
 51       0.000000000000
 52       0.000000000000
 53       0.000000000000
 54       0.000000000000
 55       0.000000000000
 56       0.000000000000
 57       0.000000000000
 58       0.000000000000
 59       0.000000000000
 60       0.000000000000
 61       0.000000000000
 62       0.000000000000
 63       0.000000000000
 64       0.000000000000
 65       0.000000000000
 66       0.000000000000
 67       0.000000000000
 68       0.000000000000
 69       0.000000000000
 70       0.000000000000
 71       0.000000000000
 72       0.000000000000
 73       0.000000000000
 74       0.000000000000
 75       0.000000000000
 76       0.000000000000
 77       0.000000000000
 78       0.000000000000
 79       0.000000000000
 80       0.000000000000
 81       0.000000000000
 82       0.000000000000
 83       0.000000000000
 84       0.000000000000
 85       0.000000000000
 86       0.000000000000
 87       0.000000000000
 88       1.000000000000
 89       0.000000000000
 90       0.000000000000
 91       0.000000000000
 92       0.000000000000
 93       0.000000000000
 94       0.000000000000
 95       0.000000000000
 96       0.000000000000
 97       0.000000000000
 98       0.000000000000
 99       0.000000000000
100       0.000000000000
101       0.000000000000
102       0.000000000000
103       0.000000000000
104       0.000000000000
105       0.000000000000
106       0.000000000000
107       0.000000000000
108       0.000000000000
109       0.000000000000
110       0.000000000000
111       0.000000000000
112       0.000000000000
113       0.000000000000
114       0.000000000000
115       0.000000000000
116       0.000000000000
117       0.000000000000
118       0.000000000000
119       0.000000000000
120       0.000000000000
121       0.000000000000
122       0.000000000000
123       0.000000000000
124       0.000000000000
125       0.000000000000
126       0.000000000000
127       0.000000000000
128       0.000000000000
129       0.000000000000
130       0.000000000000
131       0.000000000000
132       0.000000000000
133       0.000000000000
134       0.000000000000
135       0.000000000000
136       0.000000000000
137       0.000000000000
138       0.000000000000
139       0.000000000000
140       0.000000000000
141       0.000000000000
142       0.000000000000
143       0.000000000000
144       0.000000000000
145       0.000000000000
146       0.000000000000
147       0.000000000000
148       0.000000000000
149       0.000000000000
150       0.000000000000
151       0.000000000000
152       0.000000000000
153       0.000000000000
154       0.000000000000
155       0.000000000000
156       0.000000000000
157       0.000000000000
158       0.000000000000
159       0.000000000000
160       0.000000000000
161       0.000000000000
162       0.000000000000
163       0.000000000000
164       0.000000000000
165       0.000000000000
166       0.000000000000
167       0.000000000000
168       0.000000000000
169       0.000000000000
170       0.000000000000
171       0.000000000000
172       0.000000000000
 Sym=     1a
 Ene=  2.49872954063573E+00
Spin= Alpha
 Occup= 0.017652
  1       0.000000000000
  2       0.000000000000
  3       0.000000000000
  4       0.000000000000
  5       0.000000000000
  6       0.000000000000
  7       0.000000000000
  8       0.000000000000
  9       0.000000000000
 10       0.000000000000
 11       0.000000000000
 12       0.000000000000
 13       0.000000000000
 14       0.000000000000
 15       0.000000000000
 16       0.000000000000
 17       0.000000000000
 18       0.000000000000
 19       0.000000000000
 20       0.000000000000
 21       0.000000000000
 22       0.000000000000
 23       0.000000000000
 24       0.000000000000
 25       0.000000000000
 26       0.000000000000
 27       0.000000000000
 28       0.000000000000
 29       0.000000000000
 30       0.000000000000
 31       0.000000000000
 32       0.000000000000
 33       0.000000000000
 34       0.000000000000
 35       0.000000000000
 36       0.000000000000
 37       0.000000000000
 38       0.000000000000
 39       0.000000000000
 40       0.000000000000
 41       0.000000000000
 42       0.000000000000
 43       0.000000000000
 44       0.000000000000
 45       0.000000000000
 46       0.000000000000
 47       0.000000000000
 48       0.000000000000
 49       0.000000000000
 50       0.000000000000
 51       0.000000000000
 52       0.000000000000
 53       0.000000000000
 54       0.000000000000
 55       0.000000000000
 56       0.000000000000
 57       0.000000000000
 58       0.000000000000
 59       0.000000000000
 60       0.000000000000
 61       0.000000000000
 62       0.000000000000
 63       0.000000000000
 64       0.000000000000
 65       0.000000000000
 66       0.000000000000
 67       0.000000000000
 68       0.000000000000
 69       0.000000000000
 70       0.000000000000
 71       0.000000000000
 72       0.000000000000
 73       0.000000000000
 74       0.000000000000
 75       0.000000000000
 76       0.000000000000
 77       0.000000000000
 78       0.000000000000
 79       0.000000000000
 80       0.000000000000
 81       0.000000000000
 82       0.000000000000
 83       0.000000000000
 84       0.000000000000
 85       0.000000000000
 86       0.000000000000
 87       0.000000000000
 88       0.000000000000
 89       1.000000000000
 90       0.000000000000
 91       0.000000000000
 92       0.000000000000
 93       0.000000000000
 94       0.000000000000
 95       0.000000000000
 96       0.000000000000
 97       0.000000000000
 98       0.000000000000
 99       0.000000000000
100       0.000000000000
101       0.000000000000
102       0.000000000000
103       0.000000000000
104       0.000000000000
105       0.000000000000
106       0.000000000000
107       0.000000000000
108       0.000000000000
109       0.000000000000
110       0.000000000000
111       0.000000000000
112       0.000000000000
113       0.000000000000
114       0.000000000000
115       0.000000000000
116       0.000000000000
117       0.000000000000
118       0.000000000000
119       0.000000000000
120       0.000000000000
121       0.000000000000
122       0.000000000000
123       0.000000000000
124       0.000000000000
125       0.000000000000
126       0.000000000000
127       0.000000000000
128       0.000000000000
129       0.000000000000
130       0.000000000000
131       0.000000000000
132       0.000000000000
133       0.000000000000
134       0.000000000000
135       0.000000000000
136       0.000000000000
137       0.000000000000
138       0.000000000000
139       0.000000000000
140       0.000000000000
141       0.000000000000
142       0.000000000000
143       0.000000000000
144       0.000000000000
145       0.000000000000
146       0.000000000000
147       0.000000000000
148       0.000000000000
149       0.000000000000
150       0.000000000000
151       0.000000000000
152       0.000000000000
153       0.000000000000
154       0.000000000000
155       0.000000000000
156       0.000000000000
157       0.000000000000
158       0.000000000000
159       0.000000000000
160       0.000000000000
161       0.000000000000
162       0.000000000000
163       0.000000000000
164       0.000000000000
165       0.000000000000
166       0.000000000000
167       0.000000000000
168       0.000000000000
169       0.000000000000
170       0.000000000000
171       0.000000000000
172       0.000000000000
 Sym=     1a
 Ene=  2.60901166873280E+00
Spin= Alpha
 Occup= 0.017652
  1       0.000000000000
  2       0.000000000000
  3       0.000000000000
  4       0.000000000000
  5       0.000000000000
  6       0.000000000000
  7       0.000000000000
  8       0.000000000000
  9       0.000000000000
 10       0.000000000000
 11       0.000000000000
 12       0.000000000000
 13       0.000000000000
 14       0.000000000000
 15       0.000000000000
 16       0.000000000000
 17       0.000000000000
 18       0.000000000000
 19       0.000000000000
 20       0.000000000000
 21       0.000000000000
 22       0.000000000000
 23       0.000000000000
 24       0.000000000000
 25       0.000000000000
 26       0.000000000000
 27       0.000000000000
 28       0.000000000000
 29       0.000000000000
 30       0.000000000000
 31       0.000000000000
 32       0.000000000000
 33       0.000000000000
 34       0.000000000000
 35       0.000000000000
 36       0.000000000000
 37       0.000000000000
 38       0.000000000000
 39       0.000000000000
 40       0.000000000000
 41       0.000000000000
 42       0.000000000000
 43       0.000000000000
 44       0.000000000000
 45       0.000000000000
 46       0.000000000000
 47       0.000000000000
 48       0.000000000000
 49       0.000000000000
 50       0.000000000000
 51       0.000000000000
 52       0.000000000000
 53       0.000000000000
 54       0.000000000000
 55       0.000000000000
 56       0.000000000000
 57       0.000000000000
 58       0.000000000000
 59       0.000000000000
 60       0.000000000000
 61       0.000000000000
 62       0.000000000000
 63       0.000000000000
 64       0.000000000000
 65       0.000000000000
 66       0.000000000000
 67       0.000000000000
 68       0.000000000000
 69       0.000000000000
 70       0.000000000000
 71       0.000000000000
 72       0.000000000000
 73       0.000000000000
 74       0.000000000000
 75       0.000000000000
 76       0.000000000000
 77       0.000000000000
 78       0.000000000000
 79       0.000000000000
 80       0.000000000000
 81       0.000000000000
 82       0.000000000000
 83       0.000000000000
 84       0.000000000000
 85       0.000000000000
 86       0.000000000000
 87       0.000000000000
 88       0.000000000000
 89       0.000000000000
 90       1.000000000000
 91       0.000000000000
 92       0.000000000000
 93       0.000000000000
 94       0.000000000000
 95       0.000000000000
 96       0.000000000000
 97       0.000000000000
 98       0.000000000000
 99       0.000000000000
100       0.000000000000
101       0.000000000000
102       0.000000000000
103       0.000000000000
104       0.000000000000
105       0.000000000000
106       0.000000000000
107       0.000000000000
108       0.000000000000
109       0.000000000000
110       0.000000000000
111       0.000000000000
112       0.000000000000
113       0.000000000000
114       0.000000000000
115       0.000000000000
116       0.000000000000
117       0.000000000000
118       0.000000000000
119       0.000000000000
120       0.000000000000
121       0.000000000000
122       0.000000000000
123       0.000000000000
124       0.000000000000
125       0.000000000000
126       0.000000000000
127       0.000000000000
128       0.000000000000
129       0.000000000000
130       0.000000000000
131       0.000000000000
132       0.000000000000
133       0.000000000000
134       0.000000000000
135       0.000000000000
136       0.000000000000
137       0.000000000000
138       0.000000000000
139       0.000000000000
140       0.000000000000
141       0.000000000000
142       0.000000000000
143       0.000000000000
144       0.000000000000
145       0.000000000000
146       0.000000000000
147       0.000000000000
148       0.000000000000
149       0.000000000000
150       0.000000000000
151       0.000000000000
152       0.000000000000
153       0.000000000000
154       0.000000000000
155       0.000000000000
156       0.000000000000
157       0.000000000000
158       0.000000000000
159       0.000000000000
160       0.000000000000
161       0.000000000000
162       0.000000000000
163       0.000000000000
164       0.000000000000
165       0.000000000000
166       0.000000000000
167       0.000000000000
168       0.000000000000
169       0.000000000000
170       0.000000000000
171       0.000000000000
172       0.000000000000
 Sym=     1a
 Ene=  2.62773303938741E+00
Spin= Alpha
 Occup= 0.017652
  1       0.000000000000
  2       0.000000000000
  3       0.000000000000
  4       0.000000000000
  5       0.000000000000
  6       0.000000000000
  7       0.000000000000
  8       0.000000000000
  9       0.000000000000
 10       0.000000000000
 11       0.000000000000
 12       0.000000000000
 13       0.000000000000
 14       0.000000000000
 15       0.000000000000
 16       0.000000000000
 17       0.000000000000
 18       0.000000000000
 19       0.000000000000
 20       0.000000000000
 21       0.000000000000
 22       0.000000000000
 23       0.000000000000
 24       0.000000000000
 25       0.000000000000
 26       0.000000000000
 27       0.000000000000
 28       0.000000000000
 29       0.000000000000
 30       0.000000000000
 31       0.000000000000
 32       0.000000000000
 33       0.000000000000
 34       0.000000000000
 35       0.000000000000
 36       0.000000000000
 37       0.000000000000
 38       0.000000000000
 39       0.000000000000
 40       0.000000000000
 41       0.000000000000
 42       0.000000000000
 43       0.000000000000
 44       0.000000000000
 45       0.000000000000
 46       0.000000000000
 47       0.000000000000
 48       0.000000000000
 49       0.000000000000
 50       0.000000000000
 51       0.000000000000
 52       0.000000000000
 53       0.000000000000
 54       0.000000000000
 55       0.000000000000
 56       0.000000000000
 57       0.000000000000
 58       0.000000000000
 59       0.000000000000
 60       0.000000000000
 61       0.000000000000
 62       0.000000000000
 63       0.000000000000
 64       0.000000000000
 65       0.000000000000
 66       0.000000000000
 67       0.000000000000
 68       0.000000000000
 69       0.000000000000
 70       0.000000000000
 71       0.000000000000
 72       0.000000000000
 73       0.000000000000
 74       0.000000000000
 75       0.000000000000
 76       0.000000000000
 77       0.000000000000
 78       0.000000000000
 79       0.000000000000
 80       0.000000000000
 81       0.000000000000
 82       0.000000000000
 83       0.000000000000
 84       0.000000000000
 85       0.000000000000
 86       0.000000000000
 87       0.000000000000
 88       0.000000000000
 89       0.000000000000
 90       0.000000000000
 91       1.000000000000
 92       0.000000000000
 93       0.000000000000
 94       0.000000000000
 95       0.000000000000
 96       0.000000000000
 97       0.000000000000
 98       0.000000000000
 99       0.000000000000
100       0.000000000000
101       0.000000000000
102       0.000000000000
103       0.000000000000
104       0.000000000000
105       0.000000000000
106       0.000000000000
107       0.000000000000
108       0.000000000000
109       0.000000000000
110       0.000000000000
111       0.000000000000
112       0.000000000000
113       0.000000000000
114       0.000000000000
115       0.000000000000
116       0.000000000000
117       0.000000000000
118       0.000000000000
119       0.000000000000
120       0.000000000000
121       0.000000000000
122       0.000000000000
123       0.000000000000
124       0.000000000000
125       0.000000000000
126       0.000000000000
127       0.000000000000
128       0.000000000000
129       0.000000000000
130       0.000000000000
131       0.000000000000
132       0.000000000000
133       0.000000000000
134       0.000000000000
135       0.000000000000
136       0.000000000000
137       0.000000000000
138       0.000000000000
139       0.000000000000
140       0.000000000000
141       0.000000000000
142       0.000000000000
143       0.000000000000
144       0.000000000000
145       0.000000000000
146       0.000000000000
147       0.000000000000
148       0.000000000000
149       0.000000000000
150       0.000000000000
151       0.000000000000
152       0.000000000000
153       0.000000000000
154       0.000000000000
155       0.000000000000
156       0.000000000000
157       0.000000000000
158       0.000000000000
159       0.000000000000
160       0.000000000000
161       0.000000000000
162       0.000000000000
163       0.000000000000
164       0.000000000000
165       0.000000000000
166       0.000000000000
167       0.000000000000
168       0.000000000000
169       0.000000000000
170       0.000000000000
171       0.000000000000
172       0.000000000000
 Sym=     1a
 Ene=  2.61284496458273E+00
Spin= Alpha
 Occup= 0.017652
  1       0.000000000000
  2       0.000000000000
  3       0.000000000000
  4       0.000000000000
  5       0.000000000000
  6       0.000000000000
  7       0.000000000000
  8       0.000000000000
  9       0.000000000000
 10       0.000000000000
 11       0.000000000000
 12       0.000000000000
 13       0.000000000000
 14       0.000000000000
 15       0.000000000000
 16       0.000000000000
 17       0.000000000000
 18       0.000000000000
 19       0.000000000000
 20       0.000000000000
 21       0.000000000000
 22       0.000000000000
 23       0.000000000000
 24       0.000000000000
 25       0.000000000000
 26       0.000000000000
 27       0.000000000000
 28       0.000000000000
 29       0.000000000000
 30       0.000000000000
 31       0.000000000000
 32       0.000000000000
 33       0.000000000000
 34       0.000000000000
 35       0.000000000000
 36       0.000000000000
 37       0.000000000000
 38       0.000000000000
 39       0.000000000000
 40       0.000000000000
 41       0.000000000000
 42       0.000000000000
 43       0.000000000000
 44       0.000000000000
 45       0.000000000000
 46       0.000000000000
 47       0.000000000000
 48       0.000000000000
 49       0.000000000000
 50       0.000000000000
 51       0.000000000000
 52       0.000000000000
 53       0.000000000000
 54       0.000000000000
 55       0.000000000000
 56       0.000000000000
 57       0.000000000000
 58       0.000000000000
 59       0.000000000000
 60       0.000000000000
 61       0.000000000000
 62       0.000000000000
 63       0.000000000000
 64       0.000000000000
 65       0.000000000000
 66       0.000000000000
 67       0.000000000000
 68       0.000000000000
 69       0.000000000000
 70       0.000000000000
 71       0.000000000000
 72       0.000000000000
 73       0.000000000000
 74       0.000000000000
 75       0.000000000000
 76       0.000000000000
 77       0.000000000000
 78       0.000000000000
 79       0.000000000000
 80       0.000000000000
 81       0.000000000000
 82       0.000000000000
 83       0.000000000000
 84       0.000000000000
 85       0.000000000000
 86       0.000000000000
 87       0.000000000000
 88       0.000000000000
 89       0.000000000000
 90       0.000000000000
 91       0.000000000000
 92       1.000000000000
 93       0.000000000000
 94       0.000000000000
 95       0.000000000000
 96       0.000000000000
 97       0.000000000000
 98       0.000000000000
 99       0.000000000000
100       0.000000000000
101       0.000000000000
102       0.000000000000
103       0.000000000000
104       0.000000000000
105       0.000000000000
106       0.000000000000
107       0.000000000000
108       0.000000000000
109       0.000000000000
110       0.000000000000
111       0.000000000000
112       0.000000000000
113       0.000000000000
114       0.000000000000
115       0.000000000000
116       0.000000000000
117       0.000000000000
118       0.000000000000
119       0.000000000000
120       0.000000000000
121       0.000000000000
122       0.000000000000
123       0.000000000000
124       0.000000000000
125       0.000000000000
126       0.000000000000
127       0.000000000000
128       0.000000000000
129       0.000000000000
130       0.000000000000
131       0.000000000000
132       0.000000000000
133       0.000000000000
134       0.000000000000
135       0.000000000000
136       0.000000000000
137       0.000000000000
138       0.000000000000
139       0.000000000000
140       0.000000000000
141       0.000000000000
142       0.000000000000
143       0.000000000000
144       0.000000000000
145       0.000000000000
146       0.000000000000
147       0.000000000000
148       0.000000000000
149       0.000000000000
150       0.000000000000
151       0.000000000000
152       0.000000000000
153       0.000000000000
154       0.000000000000
155       0.000000000000
156       0.000000000000
157       0.000000000000
158       0.000000000000
159       0.000000000000
160       0.000000000000
161       0.000000000000
162       0.000000000000
163       0.000000000000
164       0.000000000000
165       0.000000000000
166       0.000000000000
167       0.000000000000
168       0.000000000000
169       0.000000000000
170       0.000000000000
171       0.000000000000
172       0.000000000000
 Sym=     1a
 Ene=  2.52944542822271E+00
Spin= Alpha
 Occup= 0.017652
  1       0.000000000000
  2       0.000000000000
  3       0.000000000000
  4       0.000000000000
  5       0.000000000000
  6       0.000000000000
  7       0.000000000000
  8       0.000000000000
  9       0.000000000000
 10       0.000000000000
 11       0.000000000000
 12       0.000000000000
 13       0.000000000000
 14       0.000000000000
 15       0.000000000000
 16       0.000000000000
 17       0.000000000000
 18       0.000000000000
 19       0.000000000000
 20       0.000000000000
 21       0.000000000000
 22       0.000000000000
 23       0.000000000000
 24       0.000000000000
 25       0.000000000000
 26       0.000000000000
 27       0.000000000000
 28       0.000000000000
 29       0.000000000000
 30       0.000000000000
 31       0.000000000000
 32       0.000000000000
 33       0.000000000000
 34       0.000000000000
 35       0.000000000000
 36       0.000000000000
 37       0.000000000000
 38       0.000000000000
 39       0.000000000000
 40       0.000000000000
 41       0.000000000000
 42       0.000000000000
 43       0.000000000000
 44       0.000000000000
 45       0.000000000000
 46       0.000000000000
 47       0.000000000000
 48       0.000000000000
 49       0.000000000000
 50       0.000000000000
 51       0.000000000000
 52       0.000000000000
 53       0.000000000000
 54       0.000000000000
 55       0.000000000000
 56       0.000000000000
 57       0.000000000000
 58       0.000000000000
 59       0.000000000000
 60       0.000000000000
 61       0.000000000000
 62       0.000000000000
 63       0.000000000000
 64       0.000000000000
 65       0.000000000000
 66       0.000000000000
 67       0.000000000000
 68       0.000000000000
 69       0.000000000000
 70       0.000000000000
 71       0.000000000000
 72       0.000000000000
 73       0.000000000000
 74       0.000000000000
 75       0.000000000000
 76       0.000000000000
 77       0.000000000000
 78       0.000000000000
 79       0.000000000000
 80       0.000000000000
 81       0.000000000000
 82       0.000000000000
 83       0.000000000000
 84       0.000000000000
 85       0.000000000000
 86       0.000000000000
 87       0.000000000000
 88       0.000000000000
 89       0.000000000000
 90       0.000000000000
 91       0.000000000000
 92       0.000000000000
 93       1.000000000000
 94       0.000000000000
 95       0.000000000000
 96       0.000000000000
 97       0.000000000000
 98       0.000000000000
 99       0.000000000000
100       0.000000000000
101       0.000000000000
102       0.000000000000
103       0.000000000000
104       0.000000000000
105       0.000000000000
106       0.000000000000
107       0.000000000000
108       0.000000000000
109       0.000000000000
110       0.000000000000
111       0.000000000000
112       0.000000000000
113       0.000000000000
114       0.000000000000
115       0.000000000000
116       0.000000000000
117       0.000000000000
118       0.000000000000
119       0.000000000000
120       0.000000000000
121       0.000000000000
122       0.000000000000
123       0.000000000000
124       0.000000000000
125       0.000000000000
126       0.000000000000
127       0.000000000000
128       0.000000000000
129       0.000000000000
130       0.000000000000
131       0.000000000000
132       0.000000000000
133       0.000000000000
134       0.000000000000
135       0.000000000000
136       0.000000000000
137       0.000000000000
138       0.000000000000
139       0.000000000000
140       0.000000000000
141       0.000000000000
142       0.000000000000
143       0.000000000000
144       0.000000000000
145       0.000000000000
146       0.000000000000
147       0.000000000000
148       0.000000000000
149       0.000000000000
150       0.000000000000
151       0.000000000000
152       0.000000000000
153       0.000000000000
154       0.000000000000
155       0.000000000000
156       0.000000000000
157       0.000000000000
158       0.000000000000
159       0.000000000000
160       0.000000000000
161       0.000000000000
162       0.000000000000
163       0.000000000000
164       0.000000000000
165       0.000000000000
166       0.000000000000
167       0.000000000000
168       0.000000000000
169       0.000000000000
170       0.000000000000
171       0.000000000000
172       0.000000000000
 Sym=     1a
 Ene=  2.02298860561998E+01
Spin= Alpha
 Occup= 0.000033
  1       0.000000000000
  2       0.000000000000
  3       0.000000000000
  4       0.000000000000
  5       0.000000000000
  6       0.000000000000
  7       0.000000000000
  8       0.000000000000
  9       0.000000000000
 10       0.000000000000
 11       0.000000000000
 12       0.000000000000
 13       0.000000000000
 14       0.000000000000
 15       0.000000000000
 16       0.000000000000
 17       0.000000000000
 18       0.000000000000
 19       0.000000000000
 20       0.000000000000
 21       0.000000000000
 22       0.000000000000
 23       0.000000000000
 24       0.000000000000
 25       0.000000000000
 26       0.000000000000
 27       0.000000000000
 28       0.000000000000
 29       0.000000000000
 30       0.000000000000
 31       0.000000000000
 32       0.000000000000
 33       0.000000000000
 34       0.000000000000
 35       0.000000000000
 36       0.000000000000
 37       0.000000000000
 38       0.000000000000
 39       0.000000000000
 40       0.000000000000
 41       0.000000000000
 42       0.000000000000
 43       0.000000000000
 44       0.000000000000
 45       0.000000000000
 46       0.000000000000
 47       0.000000000000
 48       0.000000000000
 49       0.000000000000
 50       0.000000000000
 51       0.000000000000
 52       0.000000000000
 53       0.000000000000
 54       0.000000000000
 55       0.000000000000
 56       0.000000000000
 57       0.000000000000
 58       0.000000000000
 59       0.000000000000
 60       0.000000000000
 61       0.000000000000
 62       0.000000000000
 63       0.000000000000
 64       0.000000000000
 65       0.000000000000
 66       0.000000000000
 67       0.000000000000
 68       0.000000000000
 69       0.000000000000
 70       0.000000000000
 71       0.000000000000
 72       0.000000000000
 73       0.000000000000
 74       0.000000000000
 75       0.000000000000
 76       0.000000000000
 77       0.000000000000
 78       0.000000000000
 79       0.000000000000
 80       0.000000000000
 81       0.000000000000
 82       0.000000000000
 83       0.000000000000
 84       0.000000000000
 85       0.000000000000
 86       0.000000000000
 87       0.000000000000
 88       0.000000000000
 89       0.000000000000
 90       0.000000000000
 91       0.000000000000
 92       0.000000000000
 93       0.000000000000
 94      -1.370818622901
 95       1.506156462381
 96      -0.567858741706
 97       0.201560058335
 98      -0.032904590929
 99       0.000000000000
100       0.000000000000
101       0.000000000000
102       0.000000000000
103       0.000000000000
104       0.000000000000
105       0.000000000000
106       0.000000000000
107       0.000000000000
108       0.000000000000
109       0.000000000000
110       0.000000000000
111       0.000000000000
112       0.000000000000
113       0.000000000000
114       0.000000000000
115       0.000000000000
116       0.000000000000
117       0.000000000000
118       0.000000000000
119       0.000000000000
120       0.000000000000
121       0.000000000000
122       0.000000000000
123       0.000000000000
124       0.000000000000
125       0.000000000000
126       0.000000000000
127       0.000000000000
128       0.000000000000
129       0.000000000000
130       0.000000000000
131       0.000000000000
132       0.000000000000
133       0.000000000000
134       0.000000000000
135       0.000000000000
136       0.000000000000
137       0.000000000000
138       0.000000000000
139       0.000000000000
140       0.000000000000
141       0.000000000000
142       0.000000000000
143       0.000000000000
144       0.000000000000
145       0.000000000000
146       0.000000000000
147       0.000000000000
148       0.000000000000
149       0.000000000000
150       0.000000000000
151       0.000000000000
152       0.000000000000
153       0.000000000000
154       0.000000000000
155       0.000000000000
156       0.000000000000
157       0.000000000000
158       0.000000000000
159       0.000000000000
160       0.000000000000
161       0.000000000000
162       0.000000000000
163       0.000000000000
164       0.000000000000
165       0.000000000000
166       0.000000000000
167       0.000000000000
168       0.000000000000
169       0.000000000000
170       0.000000000000
171       0.000000000000
172       0.000000000000
 Sym=     1a
 Ene=  2.30476627366971E+00
Spin= Alpha
 Occup= 0.038427
  1       0.000000000000
  2       0.000000000000
  3       0.000000000000
  4       0.000000000000
  5       0.000000000000
  6       0.000000000000
  7       0.000000000000
  8       0.000000000000
  9       0.000000000000
 10       0.000000000000
 11       0.000000000000
 12       0.000000000000
 13       0.000000000000
 14       0.000000000000
 15       0.000000000000
 16       0.000000000000
 17       0.000000000000
 18       0.000000000000
 19       0.000000000000
 20       0.000000000000
 21       0.000000000000
 22       0.000000000000
 23       0.000000000000
 24       0.000000000000
 25       0.000000000000
 26       0.000000000000
 27       0.000000000000
 28       0.000000000000
 29       0.000000000000
 30       0.000000000000
 31       0.000000000000
 32       0.000000000000
 33       0.000000000000
 34       0.000000000000
 35       0.000000000000
 36       0.000000000000
 37       0.000000000000
 38       0.000000000000
 39       0.000000000000
 40       0.000000000000
 41       0.000000000000
 42       0.000000000000
 43       0.000000000000
 44       0.000000000000
 45       0.000000000000
 46       0.000000000000
 47       0.000000000000
 48       0.000000000000
 49       0.000000000000
 50       0.000000000000
 51       0.000000000000
 52       0.000000000000
 53       0.000000000000
 54       0.000000000000
 55       0.000000000000
 56       0.000000000000
 57       0.000000000000
 58       0.000000000000
 59       0.000000000000
 60       0.000000000000
 61       0.000000000000
 62       0.000000000000
 63       0.000000000000
 64       0.000000000000
 65       0.000000000000
 66       0.000000000000
 67       0.000000000000
 68       0.000000000000
 69       0.000000000000
 70       0.000000000000
 71       0.000000000000
 72       0.000000000000
 73       0.000000000000
 74       0.000000000000
 75       0.000000000000
 76       0.000000000000
 77       0.000000000000
 78       0.000000000000
 79       0.000000000000
 80       0.000000000000
 81       0.000000000000
 82       0.000000000000
 83       0.000000000000
 84       0.000000000000
 85       0.000000000000
 86       0.000000000000
 87       0.000000000000
 88       0.000000000000
 89       0.000000000000
 90       0.000000000000
 91       0.000000000000
 92       0.000000000000
 93       0.000000000000
 94      -0.183281824783
 95       0.832850305062
 96      -3.071377997285
 97       3.602321802640
 98      -1.335466317342
 99       0.000000000000
100       0.000000000000
101       0.000000000000
102       0.000000000000
103       0.000000000000
104       0.000000000000
105       0.000000000000
106       0.000000000000
107       0.000000000000
108       0.000000000000
109       0.000000000000
110       0.000000000000
111       0.000000000000
112       0.000000000000
113       0.000000000000
114       0.000000000000
115       0.000000000000
116       0.000000000000
117       0.000000000000
118       0.000000000000
119       0.000000000000
120       0.000000000000
121       0.000000000000
122       0.000000000000
123       0.000000000000
124       0.000000000000
125       0.000000000000
126       0.000000000000
127       0.000000000000
128       0.000000000000
129       0.000000000000
130       0.000000000000
131       0.000000000000
132       0.000000000000
133       0.000000000000
134       0.000000000000
135       0.000000000000
136       0.000000000000
137       0.000000000000
138       0.000000000000
139       0.000000000000
140       0.000000000000
141       0.000000000000
142       0.000000000000
143       0.000000000000
144       0.000000000000
145       0.000000000000
146       0.000000000000
147       0.000000000000
148       0.000000000000
149       0.000000000000
150       0.000000000000
151       0.000000000000
152       0.000000000000
153       0.000000000000
154       0.000000000000
155       0.000000000000
156       0.000000000000
157       0.000000000000
158       0.000000000000
159       0.000000000000
160       0.000000000000
161       0.000000000000
162       0.000000000000
163       0.000000000000
164       0.000000000000
165       0.000000000000
166       0.000000000000
167       0.000000000000
168       0.000000000000
169       0.000000000000
170       0.000000000000
171       0.000000000000
172       0.000000000000
 Sym=     1a
 Ene=  5.52643594665163E-02
Spin= Alpha
 Occup= 0.432857
  1       0.000000000000
  2       0.000000000000
  3       0.000000000000
  4       0.000000000000
  5       0.000000000000
  6       0.000000000000
  7       0.000000000000
  8       0.000000000000
  9       0.000000000000
 10       0.000000000000
 11       0.000000000000
 12       0.000000000000
 13       0.000000000000
 14       0.000000000000
 15       0.000000000000
 16       0.000000000000
 17       0.000000000000
 18       0.000000000000
 19       0.000000000000
 20       0.000000000000
 21       0.000000000000
 22       0.000000000000
 23       0.000000000000
 24       0.000000000000
 25       0.000000000000
 26       0.000000000000
 27       0.000000000000
 28       0.000000000000
 29       0.000000000000
 30       0.000000000000
 31       0.000000000000
 32       0.000000000000
 33       0.000000000000
 34       0.000000000000
 35       0.000000000000
 36       0.000000000000
 37       0.000000000000
 38       0.000000000000
 39       0.000000000000
 40       0.000000000000
 41       0.000000000000
 42       0.000000000000
 43       0.000000000000
 44       0.000000000000
 45       0.000000000000
 46       0.000000000000
 47       0.000000000000
 48       0.000000000000
 49       0.000000000000
 50       0.000000000000
 51       0.000000000000
 52       0.000000000000
 53       0.000000000000
 54       0.000000000000
 55       0.000000000000
 56       0.000000000000
 57       0.000000000000
 58       0.000000000000
 59       0.000000000000
 60       0.000000000000
 61       0.000000000000
 62       0.000000000000
 63       0.000000000000
 64       0.000000000000
 65       0.000000000000
 66       0.000000000000
 67       0.000000000000
 68       0.000000000000
 69       0.000000000000
 70       0.000000000000
 71       0.000000000000
 72       0.000000000000
 73       0.000000000000
 74       0.000000000000
 75       0.000000000000
 76       0.000000000000
 77       0.000000000000
 78       0.000000000000
 79       0.000000000000
 80       0.000000000000
 81       0.000000000000
 82       0.000000000000
 83       0.000000000000
 84       0.000000000000
 85       0.000000000000
 86       0.000000000000
 87       0.000000000000
 88       0.000000000000
 89       0.000000000000
 90       0.000000000000
 91       0.000000000000
 92       0.000000000000
 93       0.000000000000
 94       0.071760010739
 95      -0.001901443885
 96       0.589081461998
 97      -2.575006526748
 98       2.346120011077
 99       0.000000000000
100       0.000000000000
101       0.000000000000
102       0.000000000000
103       0.000000000000
104       0.000000000000
105       0.000000000000
106       0.000000000000
107       0.000000000000
108       0.000000000000
109       0.000000000000
110       0.000000000000
111       0.000000000000
112       0.000000000000
113       0.000000000000
114       0.000000000000
115       0.000000000000
116       0.000000000000
117       0.000000000000
118       0.000000000000
119       0.000000000000
120       0.000000000000
121       0.000000000000
122       0.000000000000
123       0.000000000000
124       0.000000000000
125       0.000000000000
126       0.000000000000
127       0.000000000000
128       0.000000000000
129       0.000000000000
130       0.000000000000
131       0.000000000000
132       0.000000000000
133       0.000000000000
134       0.000000000000
135       0.000000000000
136       0.000000000000
137       0.000000000000
138       0.000000000000
139       0.000000000000
140       0.000000000000
141       0.000000000000
142       0.000000000000
143       0.000000000000
144       0.000000000000
145       0.000000000000
146       0.000000000000
147       0.000000000000
148       0.000000000000
149       0.000000000000
150       0.000000000000
151       0.000000000000
152       0.000000000000
153       0.000000000000
154       0.000000000000
155       0.000000000000
156       0.000000000000
157       0.000000000000
158       0.000000000000
159       0.000000000000
160       0.000000000000
161       0.000000000000
162       0.000000000000
163       0.000000000000
164       0.000000000000
165       0.000000000000
166       0.000000000000
167       0.000000000000
168       0.000000000000
169       0.000000000000
170       0.000000000000
171       0.000000000000
172       0.000000000000
 Sym=     1a
 Ene= -7.74720726987229E-01
Spin= Alpha
 Occup= 1.893654
  1       0.000000000000
  2       0.000000000000
  3       0.000000000000
  4       0.000000000000
  5       0.000000000000
  6       0.000000000000
  7       0.000000000000
  8       0.000000000000
  9       0.000000000000
 10       0.000000000000
 11       0.000000000000
 12       0.000000000000
 13       0.000000000000
 14       0.000000000000
 15       0.000000000000
 16       0.000000000000
 17       0.000000000000
 18       0.000000000000
 19       0.000000000000
 20       0.000000000000
 21       0.000000000000
 22       0.000000000000
 23       0.000000000000
 24       0.000000000000
 25       0.000000000000
 26       0.000000000000
 27       0.000000000000
 28       0.000000000000
 29       0.000000000000
 30       0.000000000000
 31       0.000000000000
 32       0.000000000000
 33       0.000000000000
 34       0.000000000000
 35       0.000000000000
 36       0.000000000000
 37       0.000000000000
 38       0.000000000000
 39       0.000000000000
 40       0.000000000000
 41       0.000000000000
 42       0.000000000000
 43       0.000000000000
 44       0.000000000000
 45       0.000000000000
 46       0.000000000000
 47       0.000000000000
 48       0.000000000000
 49       0.000000000000
 50       0.000000000000
 51       0.000000000000
 52       0.000000000000
 53       0.000000000000
 54       0.000000000000
 55       0.000000000000
 56       0.000000000000
 57       0.000000000000
 58       0.000000000000
 59       0.000000000000
 60       0.000000000000
 61       0.000000000000
 62       0.000000000000
 63       0.000000000000
 64       0.000000000000
 65       0.000000000000
 66       0.000000000000
 67       0.000000000000
 68       0.000000000000
 69       0.000000000000
 70       0.000000000000
 71       0.000000000000
 72       0.000000000000
 73       0.000000000000
 74       0.000000000000
 75       0.000000000000
 76       0.000000000000
 77       0.000000000000
 78       0.000000000000
 79       0.000000000000
 80       0.000000000000
 81       0.000000000000
 82       0.000000000000
 83       0.000000000000
 84       0.000000000000
 85       0.000000000000
 86       0.000000000000
 87       0.000000000000
 88       0.000000000000
 89       0.000000000000
 90       0.000000000000
 91       0.000000000000
 92       0.000000000000
 93       0.000000000000
 94       0.098069265320
 95       0.198050728032
 96      -0.143741661652
 97      -0.811022966866
 98      -0.119492475768
 99       0.000000000000
100       0.000000000000
101       0.000000000000
102       0.000000000000
103       0.000000000000
104       0.000000000000
105       0.000000000000
106       0.000000000000
107       0.000000000000
108       0.000000000000
109       0.000000000000
110       0.000000000000
111       0.000000000000
112       0.000000000000
113       0.000000000000
114       0.000000000000
115       0.000000000000
116       0.000000000000
117       0.000000000000
118       0.000000000000
119       0.000000000000
120       0.000000000000
121       0.000000000000
122       0.000000000000
123       0.000000000000
124       0.000000000000
125       0.000000000000
126       0.000000000000
127       0.000000000000
128       0.000000000000
129       0.000000000000
130       0.000000000000
131       0.000000000000
132       0.000000000000
133       0.000000000000
134       0.000000000000
135       0.000000000000
136       0.000000000000
137       0.000000000000
138       0.000000000000
139       0.000000000000
140       0.000000000000
141       0.000000000000
142       0.000000000000
143       0.000000000000
144       0.000000000000
145       0.000000000000
146       0.000000000000
147       0.000000000000
148       0.000000000000
149       0.000000000000
150       0.000000000000
151       0.000000000000
152       0.000000000000
153       0.000000000000
154       0.000000000000
155       0.000000000000
156       0.000000000000
157       0.000000000000
158       0.000000000000
159       0.000000000000
160       0.000000000000
161       0.000000000000
162       0.000000000000
163       0.000000000000
164       0.000000000000
165       0.000000000000
166       0.000000000000
167       0.000000000000
168       0.000000000000
169       0.000000000000
170       0.000000000000
171       0.000000000000
172       0.000000000000
 Sym=     1a
 Ene= -1.02549436230041E+01
Spin= Alpha
 Occup= 1.999991
  1       0.000000000000
  2       0.000000000000
  3       0.000000000000
  4       0.000000000000
  5       0.000000000000
  6       0.000000000000
  7       0.000000000000
  8       0.000000000000
  9       0.000000000000
 10       0.000000000000
 11       0.000000000000
 12       0.000000000000
 13       0.000000000000
 14       0.000000000000
 15       0.000000000000
 16       0.000000000000
 17       0.000000000000
 18       0.000000000000
 19       0.000000000000
 20       0.000000000000
 21       0.000000000000
 22       0.000000000000
 23       0.000000000000
 24       0.000000000000
 25       0.000000000000
 26       0.000000000000
 27       0.000000000000
 28       0.000000000000
 29       0.000000000000
 30       0.000000000000
 31       0.000000000000
 32       0.000000000000
 33       0.000000000000
 34       0.000000000000
 35       0.000000000000
 36       0.000000000000
 37       0.000000000000
 38       0.000000000000
 39       0.000000000000
 40       0.000000000000
 41       0.000000000000
 42       0.000000000000
 43       0.000000000000
 44       0.000000000000
 45       0.000000000000
 46       0.000000000000
 47       0.000000000000
 48       0.000000000000
 49       0.000000000000
 50       0.000000000000
 51       0.000000000000
 52       0.000000000000
 53       0.000000000000
 54       0.000000000000
 55       0.000000000000
 56       0.000000000000
 57       0.000000000000
 58       0.000000000000
 59       0.000000000000
 60       0.000000000000
 61       0.000000000000
 62       0.000000000000
 63       0.000000000000
 64       0.000000000000
 65       0.000000000000
 66       0.000000000000
 67       0.000000000000
 68       0.000000000000
 69       0.000000000000
 70       0.000000000000
 71       0.000000000000
 72       0.000000000000
 73       0.000000000000
 74       0.000000000000
 75       0.000000000000
 76       0.000000000000
 77       0.000000000000
 78       0.000000000000
 79       0.000000000000
 80       0.000000000000
 81       0.000000000000
 82       0.000000000000
 83       0.000000000000
 84       0.000000000000
 85       0.000000000000
 86       0.000000000000
 87       0.000000000000
 88       0.000000000000
 89       0.000000000000
 90       0.000000000000
 91       0.000000000000
 92       0.000000000000
 93       0.000000000000
 94       0.467331584626
 95       0.609776607040
 96       0.031199212823
 97      -0.018390639205
 98       0.005851441689
 99       0.000000000000
100       0.000000000000
101       0.000000000000
102       0.000000000000
103       0.000000000000
104       0.000000000000
105       0.000000000000
106       0.000000000000
107       0.000000000000
108       0.000000000000
109       0.000000000000
110       0.000000000000
111       0.000000000000
112       0.000000000000
113       0.000000000000
114       0.000000000000
115       0.000000000000
116       0.000000000000
117       0.000000000000
118       0.000000000000
119       0.000000000000
120       0.000000000000
121       0.000000000000
122       0.000000000000
123       0.000000000000
124       0.000000000000
125       0.000000000000
126       0.000000000000
127       0.000000000000
128       0.000000000000
129       0.000000000000
130       0.000000000000
131       0.000000000000
132       0.000000000000
133       0.000000000000
134       0.000000000000
135       0.000000000000
136       0.000000000000
137       0.000000000000
138       0.000000000000
139       0.000000000000
140       0.000000000000
141       0.000000000000
142       0.000000000000
143       0.000000000000
144       0.000000000000
145       0.000000000000
146       0.000000000000
147       0.000000000000
148       0.000000000000
149       0.000000000000
150       0.000000000000
151       0.000000000000
152       0.000000000000
153       0.000000000000
154       0.000000000000
155       0.000000000000
156       0.000000000000
157       0.000000000000
158       0.000000000000
159       0.000000000000
160       0.000000000000
161       0.000000000000
162       0.000000000000
163       0.000000000000
164       0.000000000000
165       0.000000000000
166       0.000000000000
167       0.000000000000
168       0.000000000000
169       0.000000000000
170       0.000000000000
171       0.000000000000
172       0.000000000000
 Sym=     1a
 Ene=  1.37552079961141E+00
Spin= Alpha
 Occup= 0.022636
  1       0.000000000000
  2       0.000000000000
  3       0.000000000000
  4       0.000000000000
  5       0.000000000000
  6       0.000000000000
  7       0.000000000000
  8       0.000000000000
  9       0.000000000000
 10       0.000000000000
 11       0.000000000000
 12       0.000000000000
 13       0.000000000000
 14       0.000000000000
 15       0.000000000000
 16       0.000000000000
 17       0.000000000000
 18       0.000000000000
 19       0.000000000000
 20       0.000000000000
 21       0.000000000000
 22       0.000000000000
 23       0.000000000000
 24       0.000000000000
 25       0.000000000000
 26       0.000000000000
 27       0.000000000000
 28       0.000000000000
 29       0.000000000000
 30       0.000000000000
 31       0.000000000000
 32       0.000000000000
 33       0.000000000000
 34       0.000000000000
 35       0.000000000000
 36       0.000000000000
 37       0.000000000000
 38       0.000000000000
 39       0.000000000000
 40       0.000000000000
 41       0.000000000000
 42       0.000000000000
 43       0.000000000000
 44       0.000000000000
 45       0.000000000000
 46       0.000000000000
 47       0.000000000000
 48       0.000000000000
 49       0.000000000000
 50       0.000000000000
 51       0.000000000000
 52       0.000000000000
 53       0.000000000000
 54       0.000000000000
 55       0.000000000000
 56       0.000000000000
 57       0.000000000000
 58       0.000000000000
 59       0.000000000000
 60       0.000000000000
 61       0.000000000000
 62       0.000000000000
 63       0.000000000000
 64       0.000000000000
 65       0.000000000000
 66       0.000000000000
 67       0.000000000000
 68       0.000000000000
 69       0.000000000000
 70       0.000000000000
 71       0.000000000000
 72       0.000000000000
 73       0.000000000000
 74       0.000000000000
 75       0.000000000000
 76       0.000000000000
 77       0.000000000000
 78       0.000000000000
 79       0.000000000000
 80       0.000000000000
 81       0.000000000000
 82       0.000000000000
 83       0.000000000000
 84       0.000000000000
 85       0.000000000000
 86       0.000000000000
 87       0.000000000000
 88       0.000000000000
 89       0.000000000000
 90       0.000000000000
 91       0.000000000000
 92       0.000000000000
 93       0.000000000000
 94       0.000000000000
 95       0.000000000000
 96       0.000000000000
 97       0.000000000000
 98       0.000000000000
 99      -1.342708643823
100       0.000000000000
101       0.000000000000
102       1.374897699858
103       0.000000000000
104       0.000000000000
105      -0.470415588788
106       0.000000000000
107       0.000000000000
108       0.000000000000
109       0.000000000000
110       0.000000000000
111       0.000000000000
112       0.000000000000
113       0.000000000000
114       0.000000000000
115       0.000000000000
116       0.000000000000
117       0.000000000000
118       0.000000000000
119       0.000000000000
120       0.000000000000
121       0.000000000000
122       0.000000000000
123       0.000000000000
124       0.000000000000
125       0.000000000000
126       0.000000000000
127       0.000000000000
128       0.000000000000
129       0.000000000000
130       0.000000000000
131       0.000000000000
132       0.000000000000
133       0.000000000000
134       0.000000000000
135       0.000000000000
136       0.000000000000
137       0.000000000000
138       0.000000000000
139       0.000000000000
140       0.000000000000
141       0.000000000000
142       0.000000000000
143       0.000000000000
144       0.000000000000
145       0.000000000000
146       0.000000000000
147       0.000000000000
148       0.000000000000
149       0.000000000000
150       0.000000000000
151       0.000000000000
152       0.000000000000
153       0.000000000000
154       0.000000000000
155       0.000000000000
156       0.000000000000
157       0.000000000000
158       0.000000000000
159       0.000000000000
160       0.000000000000
161       0.000000000000
162       0.000000000000
163       0.000000000000
164       0.000000000000
165       0.000000000000
166       0.000000000000
167       0.000000000000
168       0.000000000000
169       0.000000000000
170       0.000000000000
171       0.000000000000
172       0.000000000000
 Sym=     1a
 Ene=  1.23272385164431E+00
Spin= Alpha
 Occup= 0.022636
  1       0.000000000000
  2       0.000000000000
  3       0.000000000000
  4       0.000000000000
  5       0.000000000000
  6       0.000000000000
  7       0.000000000000
  8       0.000000000000
  9       0.000000000000
 10       0.000000000000
 11       0.000000000000
 12       0.000000000000
 13       0.000000000000
 14       0.000000000000
 15       0.000000000000
 16       0.000000000000
 17       0.000000000000
 18       0.000000000000
 19       0.000000000000
 20       0.000000000000
 21       0.000000000000
 22       0.000000000000
 23       0.000000000000
 24       0.000000000000
 25       0.000000000000
 26       0.000000000000
 27       0.000000000000
 28       0.000000000000
 29       0.000000000000
 30       0.000000000000
 31       0.000000000000
 32       0.000000000000
 33       0.000000000000
 34       0.000000000000
 35       0.000000000000
 36       0.000000000000
 37       0.000000000000
 38       0.000000000000
 39       0.000000000000
 40       0.000000000000
 41       0.000000000000
 42       0.000000000000
 43       0.000000000000
 44       0.000000000000
 45       0.000000000000
 46       0.000000000000
 47       0.000000000000
 48       0.000000000000
 49       0.000000000000
 50       0.000000000000
 51       0.000000000000
 52       0.000000000000
 53       0.000000000000
 54       0.000000000000
 55       0.000000000000
 56       0.000000000000
 57       0.000000000000
 58       0.000000000000
 59       0.000000000000
 60       0.000000000000
 61       0.000000000000
 62       0.000000000000
 63       0.000000000000
 64       0.000000000000
 65       0.000000000000
 66       0.000000000000
 67       0.000000000000
 68       0.000000000000
 69       0.000000000000
 70       0.000000000000
 71       0.000000000000
 72       0.000000000000
 73       0.000000000000
 74       0.000000000000
 75       0.000000000000
 76       0.000000000000
 77       0.000000000000
 78       0.000000000000
 79       0.000000000000
 80       0.000000000000
 81       0.000000000000
 82       0.000000000000
 83       0.000000000000
 84       0.000000000000
 85       0.000000000000
 86       0.000000000000
 87       0.000000000000
 88       0.000000000000
 89       0.000000000000
 90       0.000000000000
 91       0.000000000000
 92       0.000000000000
 93       0.000000000000
 94       0.000000000000
 95       0.000000000000
 96       0.000000000000
 97       0.000000000000
 98       0.000000000000
 99       0.000000000000
100      -1.342708643823
101       0.000000000000
102       0.000000000000
103       1.374897699858
104       0.000000000000
105       0.000000000000
106      -0.470415588788
107       0.000000000000
108       0.000000000000
109       0.000000000000
110       0.000000000000
111       0.000000000000
112       0.000000000000
113       0.000000000000
114       0.000000000000
115       0.000000000000
116       0.000000000000
117       0.000000000000
118       0.000000000000
119       0.000000000000
120       0.000000000000
121       0.000000000000
122       0.000000000000
123       0.000000000000
124       0.000000000000
125       0.000000000000
126       0.000000000000
127       0.000000000000
128       0.000000000000
129       0.000000000000
130       0.000000000000
131       0.000000000000
132       0.000000000000
133       0.000000000000
134       0.000000000000
135       0.000000000000
136       0.000000000000
137       0.000000000000
138       0.000000000000
139       0.000000000000
140       0.000000000000
141       0.000000000000
142       0.000000000000
143       0.000000000000
144       0.000000000000
145       0.000000000000
146       0.000000000000
147       0.000000000000
148       0.000000000000
149       0.000000000000
150       0.000000000000
151       0.000000000000
152       0.000000000000
153       0.000000000000
154       0.000000000000
155       0.000000000000
156       0.000000000000
157       0.000000000000
158       0.000000000000
159       0.000000000000
160       0.000000000000
161       0.000000000000
162       0.000000000000
163       0.000000000000
164       0.000000000000
165       0.000000000000
166       0.000000000000
167       0.000000000000
168       0.000000000000
169       0.000000000000
170       0.000000000000
171       0.000000000000
172       0.000000000000
 Sym=     1a
 Ene=  1.46377358577090E+00
Spin= Alpha
 Occup= 0.022636
  1       0.000000000000
  2       0.000000000000
  3       0.000000000000
  4       0.000000000000
  5       0.000000000000
  6       0.000000000000
  7       0.000000000000
  8       0.000000000000
  9       0.000000000000
 10       0.000000000000
 11       0.000000000000
 12       0.000000000000
 13       0.000000000000
 14       0.000000000000
 15       0.000000000000
 16       0.000000000000
 17       0.000000000000
 18       0.000000000000
 19       0.000000000000
 20       0.000000000000
 21       0.000000000000
 22       0.000000000000
 23       0.000000000000
 24       0.000000000000
 25       0.000000000000
 26       0.000000000000
 27       0.000000000000
 28       0.000000000000
 29       0.000000000000
 30       0.000000000000
 31       0.000000000000
 32       0.000000000000
 33       0.000000000000
 34       0.000000000000
 35       0.000000000000
 36       0.000000000000
 37       0.000000000000
 38       0.000000000000
 39       0.000000000000
 40       0.000000000000
 41       0.000000000000
 42       0.000000000000
 43       0.000000000000
 44       0.000000000000
 45       0.000000000000
 46       0.000000000000
 47       0.000000000000
 48       0.000000000000
 49       0.000000000000
 50       0.000000000000
 51       0.000000000000
 52       0.000000000000
 53       0.000000000000
 54       0.000000000000
 55       0.000000000000
 56       0.000000000000
 57       0.000000000000
 58       0.000000000000
 59       0.000000000000
 60       0.000000000000
 61       0.000000000000
 62       0.000000000000
 63       0.000000000000
 64       0.000000000000
 65       0.000000000000
 66       0.000000000000
 67       0.000000000000
 68       0.000000000000
 69       0.000000000000
 70       0.000000000000
 71       0.000000000000
 72       0.000000000000
 73       0.000000000000
 74       0.000000000000
 75       0.000000000000
 76       0.000000000000
 77       0.000000000000
 78       0.000000000000
 79       0.000000000000
 80       0.000000000000
 81       0.000000000000
 82       0.000000000000
 83       0.000000000000
 84       0.000000000000
 85       0.000000000000
 86       0.000000000000
 87       0.000000000000
 88       0.000000000000
 89       0.000000000000
 90       0.000000000000
 91       0.000000000000
 92       0.000000000000
 93       0.000000000000
 94       0.000000000000
 95       0.000000000000
 96       0.000000000000
 97       0.000000000000
 98       0.000000000000
 99       0.000000000000
100       0.000000000000
101      -1.342708643823
102       0.000000000000
103       0.000000000000
104       1.374897699858
105       0.000000000000
106       0.000000000000
107      -0.470415588788
108       0.000000000000
109       0.000000000000
110       0.000000000000
111       0.000000000000
112       0.000000000000
113       0.000000000000
114       0.000000000000
115       0.000000000000
116       0.000000000000
117       0.000000000000
118       0.000000000000
119       0.000000000000
120       0.000000000000
121       0.000000000000
122       0.000000000000
123       0.000000000000
124       0.000000000000
125       0.000000000000
126       0.000000000000
127       0.000000000000
128       0.000000000000
129       0.000000000000
130       0.000000000000
131       0.000000000000
132       0.000000000000
133       0.000000000000
134       0.000000000000
135       0.000000000000
136       0.000000000000
137       0.000000000000
138       0.000000000000
139       0.000000000000
140       0.000000000000
141       0.000000000000
142       0.000000000000
143       0.000000000000
144       0.000000000000
145       0.000000000000
146       0.000000000000
147       0.000000000000
148       0.000000000000
149       0.000000000000
150       0.000000000000
151       0.000000000000
152       0.000000000000
153       0.000000000000
154       0.000000000000
155       0.000000000000
156       0.000000000000
157       0.000000000000
158       0.000000000000
159       0.000000000000
160       0.000000000000
161       0.000000000000
162       0.000000000000
163       0.000000000000
164       0.000000000000
165       0.000000000000
166       0.000000000000
167       0.000000000000
168       0.000000000000
169       0.000000000000
170       0.000000000000
171       0.000000000000
172       0.000000000000
 Sym=     1a
 Ene=  2.02428328256121E-01
Spin= Alpha
 Occup= 0.333842
  1       0.000000000000
  2       0.000000000000
  3       0.000000000000
  4       0.000000000000
  5       0.000000000000
  6       0.000000000000
  7       0.000000000000
  8       0.000000000000
  9       0.000000000000
 10       0.000000000000
 11       0.000000000000
 12       0.000000000000
 13       0.000000000000
 14       0.000000000000
 15       0.000000000000
 16       0.000000000000
 17       0.000000000000
 18       0.000000000000
 19       0.000000000000
 20       0.000000000000
 21       0.000000000000
 22       0.000000000000
 23       0.000000000000
 24       0.000000000000
 25       0.000000000000
 26       0.000000000000
 27       0.000000000000
 28       0.000000000000
 29       0.000000000000
 30       0.000000000000
 31       0.000000000000
 32       0.000000000000
 33       0.000000000000
 34       0.000000000000
 35       0.000000000000
 36       0.000000000000
 37       0.000000000000
 38       0.000000000000
 39       0.000000000000
 40       0.000000000000
 41       0.000000000000
 42       0.000000000000
 43       0.000000000000
 44       0.000000000000
 45       0.000000000000
 46       0.000000000000
 47       0.000000000000
 48       0.000000000000
 49       0.000000000000
 50       0.000000000000
 51       0.000000000000
 52       0.000000000000
 53       0.000000000000
 54       0.000000000000
 55       0.000000000000
 56       0.000000000000
 57       0.000000000000
 58       0.000000000000
 59       0.000000000000
 60       0.000000000000
 61       0.000000000000
 62       0.000000000000
 63       0.000000000000
 64       0.000000000000
 65       0.000000000000
 66       0.000000000000
 67       0.000000000000
 68       0.000000000000
 69       0.000000000000
 70       0.000000000000
 71       0.000000000000
 72       0.000000000000
 73       0.000000000000
 74       0.000000000000
 75       0.000000000000
 76       0.000000000000
 77       0.000000000000
 78       0.000000000000
 79       0.000000000000
 80       0.000000000000
 81       0.000000000000
 82       0.000000000000
 83       0.000000000000
 84       0.000000000000
 85       0.000000000000
 86       0.000000000000
 87       0.000000000000
 88       0.000000000000
 89       0.000000000000
 90       0.000000000000
 91       0.000000000000
 92       0.000000000000
 93       0.000000000000
 94       0.000000000000
 95       0.000000000000
 96       0.000000000000
 97       0.000000000000
 98       0.000000000000
 99       0.023162892057
100       0.000000000000
101       0.000000000000
102      -1.168088635394
103       0.000000000000
104       0.000000000000
105       1.431508678524
106       0.000000000000
107       0.000000000000
108       0.000000000000
109       0.000000000000
110       0.000000000000
111       0.000000000000
112       0.000000000000
113       0.000000000000
114       0.000000000000
115       0.000000000000
116       0.000000000000
117       0.000000000000
118       0.000000000000
119       0.000000000000
120       0.000000000000
121       0.000000000000
122       0.000000000000
123       0.000000000000
124       0.000000000000
125       0.000000000000
126       0.000000000000
127       0.000000000000
128       0.000000000000
129       0.000000000000
130       0.000000000000
131       0.000000000000
132       0.000000000000
133       0.000000000000
134       0.000000000000
135       0.000000000000
136       0.000000000000
137       0.000000000000
138       0.000000000000
139       0.000000000000
140       0.000000000000
141       0.000000000000
142       0.000000000000
143       0.000000000000
144       0.000000000000
145       0.000000000000
146       0.000000000000
147       0.000000000000
148       0.000000000000
149       0.000000000000
150       0.000000000000
151       0.000000000000
152       0.000000000000
153       0.000000000000
154       0.000000000000
155       0.000000000000
156       0.000000000000
157       0.000000000000
158       0.000000000000
159       0.000000000000
160       0.000000000000
161       0.000000000000
162       0.000000000000
163       0.000000000000
164       0.000000000000
165       0.000000000000
166       0.000000000000
167       0.000000000000
168       0.000000000000
169       0.000000000000
170       0.000000000000
171       0.000000000000
172       0.000000000000
 Sym=     1a
 Ene= -1.01604705789214E-02
Spin= Alpha
 Occup= 0.333842
  1       0.000000000000
  2       0.000000000000
  3       0.000000000000
  4       0.000000000000
  5       0.000000000000
  6       0.000000000000
  7       0.000000000000
  8       0.000000000000
  9       0.000000000000
 10       0.000000000000
 11       0.000000000000
 12       0.000000000000
 13       0.000000000000
 14       0.000000000000
 15       0.000000000000
 16       0.000000000000
 17       0.000000000000
 18       0.000000000000
 19       0.000000000000
 20       0.000000000000
 21       0.000000000000
 22       0.000000000000
 23       0.000000000000
 24       0.000000000000
 25       0.000000000000
 26       0.000000000000
 27       0.000000000000
 28       0.000000000000
 29       0.000000000000
 30       0.000000000000
 31       0.000000000000
 32       0.000000000000
 33       0.000000000000
 34       0.000000000000
 35       0.000000000000
 36       0.000000000000
 37       0.000000000000
 38       0.000000000000
 39       0.000000000000
 40       0.000000000000
 41       0.000000000000
 42       0.000000000000
 43       0.000000000000
 44       0.000000000000
 45       0.000000000000
 46       0.000000000000
 47       0.000000000000
 48       0.000000000000
 49       0.000000000000
 50       0.000000000000
 51       0.000000000000
 52       0.000000000000
 53       0.000000000000
 54       0.000000000000
 55       0.000000000000
 56       0.000000000000
 57       0.000000000000
 58       0.000000000000
 59       0.000000000000
 60       0.000000000000
 61       0.000000000000
 62       0.000000000000
 63       0.000000000000
 64       0.000000000000
 65       0.000000000000
 66       0.000000000000
 67       0.000000000000
 68       0.000000000000
 69       0.000000000000
 70       0.000000000000
 71       0.000000000000
 72       0.000000000000
 73       0.000000000000
 74       0.000000000000
 75       0.000000000000
 76       0.000000000000
 77       0.000000000000
 78       0.000000000000
 79       0.000000000000
 80       0.000000000000
 81       0.000000000000
 82       0.000000000000
 83       0.000000000000
 84       0.000000000000
 85       0.000000000000
 86       0.000000000000
 87       0.000000000000
 88       0.000000000000
 89       0.000000000000
 90       0.000000000000
 91       0.000000000000
 92       0.000000000000
 93       0.000000000000
 94       0.000000000000
 95       0.000000000000
 96       0.000000000000
 97       0.000000000000
 98       0.000000000000
 99       0.000000000000
100       0.023162892057
101       0.000000000000
102       0.000000000000
103      -1.168088635394
104       0.000000000000
105       0.000000000000
106       1.431508678524
107       0.000000000000
108       0.000000000000
109       0.000000000000
110       0.000000000000
111       0.000000000000
112       0.000000000000
113       0.000000000000
114       0.000000000000
115       0.000000000000
116       0.000000000000
117       0.000000000000
118       0.000000000000
119       0.000000000000
120       0.000000000000
121       0.000000000000
122       0.000000000000
123       0.000000000000
124       0.000000000000
125       0.000000000000
126       0.000000000000
127       0.000000000000
128       0.000000000000
129       0.000000000000
130       0.000000000000
131       0.000000000000
132       0.000000000000
133       0.000000000000
134       0.000000000000
135       0.000000000000
136       0.000000000000
137       0.000000000000
138       0.000000000000
139       0.000000000000
140       0.000000000000
141       0.000000000000
142       0.000000000000
143       0.000000000000
144       0.000000000000
145       0.000000000000
146       0.000000000000
147       0.000000000000
148       0.000000000000
149       0.000000000000
150       0.000000000000
151       0.000000000000
152       0.000000000000
153       0.000000000000
154       0.000000000000
155       0.000000000000
156       0.000000000000
157       0.000000000000
158       0.000000000000
159       0.000000000000
160       0.000000000000
161       0.000000000000
162       0.000000000000
163       0.000000000000
164       0.000000000000
165       0.000000000000
166       0.000000000000
167       0.000000000000
168       0.000000000000
169       0.000000000000
170       0.000000000000
171       0.000000000000
172       0.000000000000
 Sym=     1a
 Ene=  3.67790721544592E-01
Spin= Alpha
 Occup= 0.333842
  1       0.000000000000
  2       0.000000000000
  3       0.000000000000
  4       0.000000000000
  5       0.000000000000
  6       0.000000000000
  7       0.000000000000
  8       0.000000000000
  9       0.000000000000
 10       0.000000000000
 11       0.000000000000
 12       0.000000000000
 13       0.000000000000
 14       0.000000000000
 15       0.000000000000
 16       0.000000000000
 17       0.000000000000
 18       0.000000000000
 19       0.000000000000
 20       0.000000000000
 21       0.000000000000
 22       0.000000000000
 23       0.000000000000
 24       0.000000000000
 25       0.000000000000
 26       0.000000000000
 27       0.000000000000
 28       0.000000000000
 29       0.000000000000
 30       0.000000000000
 31       0.000000000000
 32       0.000000000000
 33       0.000000000000
 34       0.000000000000
 35       0.000000000000
 36       0.000000000000
 37       0.000000000000
 38       0.000000000000
 39       0.000000000000
 40       0.000000000000
 41       0.000000000000
 42       0.000000000000
 43       0.000000000000
 44       0.000000000000
 45       0.000000000000
 46       0.000000000000
 47       0.000000000000
 48       0.000000000000
 49       0.000000000000
 50       0.000000000000
 51       0.000000000000
 52       0.000000000000
 53       0.000000000000
 54       0.000000000000
 55       0.000000000000
 56       0.000000000000
 57       0.000000000000
 58       0.000000000000
 59       0.000000000000
 60       0.000000000000
 61       0.000000000000
 62       0.000000000000
 63       0.000000000000
 64       0.000000000000
 65       0.000000000000
 66       0.000000000000
 67       0.000000000000
 68       0.000000000000
 69       0.000000000000
 70       0.000000000000
 71       0.000000000000
 72       0.000000000000
 73       0.000000000000
 74       0.000000000000
 75       0.000000000000
 76       0.000000000000
 77       0.000000000000
 78       0.000000000000
 79       0.000000000000
 80       0.000000000000
 81       0.000000000000
 82       0.000000000000
 83       0.000000000000
 84       0.000000000000
 85       0.000000000000
 86       0.000000000000
 87       0.000000000000
 88       0.000000000000
 89       0.000000000000
 90       0.000000000000
 91       0.000000000000
 92       0.000000000000
 93       0.000000000000
 94       0.000000000000
 95       0.000000000000
 96       0.000000000000
 97       0.000000000000
 98       0.000000000000
 99       0.000000000000
100       0.000000000000
101       0.023162892057
102       0.000000000000
103       0.000000000000
104      -1.168088635394
105       0.000000000000
106       0.000000000000
107       1.431508678524
108       0.000000000000
109       0.000000000000
110       0.000000000000
111       0.000000000000
112       0.000000000000
113       0.000000000000
114       0.000000000000
115       0.000000000000
116       0.000000000000
117       0.000000000000
118       0.000000000000
119       0.000000000000
120       0.000000000000
121       0.000000000000
122       0.000000000000
123       0.000000000000
124       0.000000000000
125       0.000000000000
126       0.000000000000
127       0.000000000000
128       0.000000000000
129       0.000000000000
130       0.000000000000
131       0.000000000000
132       0.000000000000
133       0.000000000000
134       0.000000000000
135       0.000000000000
136       0.000000000000
137       0.000000000000
138       0.000000000000
139       0.000000000000
140       0.000000000000
141       0.000000000000
142       0.000000000000
143       0.000000000000
144       0.000000000000
145       0.000000000000
146       0.000000000000
147       0.000000000000
148       0.000000000000
149       0.000000000000
150       0.000000000000
151       0.000000000000
152       0.000000000000
153       0.000000000000
154       0.000000000000
155       0.000000000000
156       0.000000000000
157       0.000000000000
158       0.000000000000
159       0.000000000000
160       0.000000000000
161       0.000000000000
162       0.000000000000
163       0.000000000000
164       0.000000000000
165       0.000000000000
166       0.000000000000
167       0.000000000000
168       0.000000000000
169       0.000000000000
170       0.000000000000
171       0.000000000000
172       0.000000000000
 Sym=     1a
 Ene= -4.21422168335373E-01
Spin= Alpha
 Occup= 1.684356
  1       0.000000000000
  2       0.000000000000
  3       0.000000000000
  4       0.000000000000
  5       0.000000000000
  6       0.000000000000
  7       0.000000000000
  8       0.000000000000
  9       0.000000000000
 10       0.000000000000
 11       0.000000000000
 12       0.000000000000
 13       0.000000000000
 14       0.000000000000
 15       0.000000000000
 16       0.000000000000
 17       0.000000000000
 18       0.000000000000
 19       0.000000000000
 20       0.000000000000
 21       0.000000000000
 22       0.000000000000
 23       0.000000000000
 24       0.000000000000
 25       0.000000000000
 26       0.000000000000
 27       0.000000000000
 28       0.000000000000
 29       0.000000000000
 30       0.000000000000
 31       0.000000000000
 32       0.000000000000
 33       0.000000000000
 34       0.000000000000
 35       0.000000000000
 36       0.000000000000
 37       0.000000000000
 38       0.000000000000
 39       0.000000000000
 40       0.000000000000
 41       0.000000000000
 42       0.000000000000
 43       0.000000000000
 44       0.000000000000
 45       0.000000000000
 46       0.000000000000
 47       0.000000000000
 48       0.000000000000
 49       0.000000000000
 50       0.000000000000
 51       0.000000000000
 52       0.000000000000
 53       0.000000000000
 54       0.000000000000
 55       0.000000000000
 56       0.000000000000
 57       0.000000000000
 58       0.000000000000
 59       0.000000000000
 60       0.000000000000
 61       0.000000000000
 62       0.000000000000
 63       0.000000000000
 64       0.000000000000
 65       0.000000000000
 66       0.000000000000
 67       0.000000000000
 68       0.000000000000
 69       0.000000000000
 70       0.000000000000
 71       0.000000000000
 72       0.000000000000
 73       0.000000000000
 74       0.000000000000
 75       0.000000000000
 76       0.000000000000
 77       0.000000000000
 78       0.000000000000
 79       0.000000000000
 80       0.000000000000
 81       0.000000000000
 82       0.000000000000
 83       0.000000000000
 84       0.000000000000
 85       0.000000000000
 86       0.000000000000
 87       0.000000000000
 88       0.000000000000
 89       0.000000000000
 90       0.000000000000
 91       0.000000000000
 92       0.000000000000
 93       0.000000000000
 94       0.000000000000
 95       0.000000000000
 96       0.000000000000
 97       0.000000000000
 98       0.000000000000
 99       0.275284885554
100       0.000000000000
101       0.000000000000
102       0.596852465042
103       0.000000000000
104       0.000000000000
105       0.283014567113
106       0.000000000000
107       0.000000000000
108       0.000000000000
109       0.000000000000
110       0.000000000000
111       0.000000000000
112       0.000000000000
113       0.000000000000
114       0.000000000000
115       0.000000000000
116       0.000000000000
117       0.000000000000
118       0.000000000000
119       0.000000000000
120       0.000000000000
121       0.000000000000
122       0.000000000000
123       0.000000000000
124       0.000000000000
125       0.000000000000
126       0.000000000000
127       0.000000000000
128       0.000000000000
129       0.000000000000
130       0.000000000000
131       0.000000000000
132       0.000000000000
133       0.000000000000
134       0.000000000000
135       0.000000000000
136       0.000000000000
137       0.000000000000
138       0.000000000000
139       0.000000000000
140       0.000000000000
141       0.000000000000
142       0.000000000000
143       0.000000000000
144       0.000000000000
145       0.000000000000
146       0.000000000000
147       0.000000000000
148       0.000000000000
149       0.000000000000
150       0.000000000000
151       0.000000000000
152       0.000000000000
153       0.000000000000
154       0.000000000000
155       0.000000000000
156       0.000000000000
157       0.000000000000
158       0.000000000000
159       0.000000000000
160       0.000000000000
161       0.000000000000
162       0.000000000000
163       0.000000000000
164       0.000000000000
165       0.000000000000
166       0.000000000000
167       0.000000000000
168       0.000000000000
169       0.000000000000
170       0.000000000000
171       0.000000000000
172       0.000000000000
 Sym=     1a
 Ene= -6.21632119866381E-01
Spin= Alpha
 Occup= 1.684356
  1       0.000000000000
  2       0.000000000000
  3       0.000000000000
  4       0.000000000000
  5       0.000000000000
  6       0.000000000000
  7       0.000000000000
  8       0.000000000000
  9       0.000000000000
 10       0.000000000000
 11       0.000000000000
 12       0.000000000000
 13       0.000000000000
 14       0.000000000000
 15       0.000000000000
 16       0.000000000000
 17       0.000000000000
 18       0.000000000000
 19       0.000000000000
 20       0.000000000000
 21       0.000000000000
 22       0.000000000000
 23       0.000000000000
 24       0.000000000000
 25       0.000000000000
 26       0.000000000000
 27       0.000000000000
 28       0.000000000000
 29       0.000000000000
 30       0.000000000000
 31       0.000000000000
 32       0.000000000000
 33       0.000000000000
 34       0.000000000000
 35       0.000000000000
 36       0.000000000000
 37       0.000000000000
 38       0.000000000000
 39       0.000000000000
 40       0.000000000000
 41       0.000000000000
 42       0.000000000000
 43       0.000000000000
 44       0.000000000000
 45       0.000000000000
 46       0.000000000000
 47       0.000000000000
 48       0.000000000000
 49       0.000000000000
 50       0.000000000000
 51       0.000000000000
 52       0.000000000000
 53       0.000000000000
 54       0.000000000000
 55       0.000000000000
 56       0.000000000000
 57       0.000000000000
 58       0.000000000000
 59       0.000000000000
 60       0.000000000000
 61       0.000000000000
 62       0.000000000000
 63       0.000000000000
 64       0.000000000000
 65       0.000000000000
 66       0.000000000000
 67       0.000000000000
 68       0.000000000000
 69       0.000000000000
 70       0.000000000000
 71       0.000000000000
 72       0.000000000000
 73       0.000000000000
 74       0.000000000000
 75       0.000000000000
 76       0.000000000000
 77       0.000000000000
 78       0.000000000000
 79       0.000000000000
 80       0.000000000000
 81       0.000000000000
 82       0.000000000000
 83       0.000000000000
 84       0.000000000000
 85       0.000000000000
 86       0.000000000000
 87       0.000000000000
 88       0.000000000000
 89       0.000000000000
 90       0.000000000000
 91       0.000000000000
 92       0.000000000000
 93       0.000000000000
 94       0.000000000000
 95       0.000000000000
 96       0.000000000000
 97       0.000000000000
 98       0.000000000000
 99       0.000000000000
100       0.275284885554
101       0.000000000000
102       0.000000000000
103       0.596852465042
104       0.000000000000
105       0.000000000000
106       0.283014567113
107       0.000000000000
108       0.000000000000
109       0.000000000000
110       0.000000000000
111       0.000000000000
112       0.000000000000
113       0.000000000000
114       0.000000000000
115       0.000000000000
116       0.000000000000
117       0.000000000000
118       0.000000000000
119       0.000000000000
120       0.000000000000
121       0.000000000000
122       0.000000000000
123       0.000000000000
124       0.000000000000
125       0.000000000000
126       0.000000000000
127       0.000000000000
128       0.000000000000
129       0.000000000000
130       0.000000000000
131       0.000000000000
132       0.000000000000
133       0.000000000000
134       0.000000000000
135       0.000000000000
136       0.000000000000
137       0.000000000000
138       0.000000000000
139       0.000000000000
140       0.000000000000
141       0.000000000000
142       0.000000000000
143       0.000000000000
144       0.000000000000
145       0.000000000000
146       0.000000000000
147       0.000000000000
148       0.000000000000
149       0.000000000000
150       0.000000000000
151       0.000000000000
152       0.000000000000
153       0.000000000000
154       0.000000000000
155       0.000000000000
156       0.000000000000
157       0.000000000000
158       0.000000000000
159       0.000000000000
160       0.000000000000
161       0.000000000000
162       0.000000000000
163       0.000000000000
164       0.000000000000
165       0.000000000000
166       0.000000000000
167       0.000000000000
168       0.000000000000
169       0.000000000000
170       0.000000000000
171       0.000000000000
172       0.000000000000
 Sym=     1a
 Ene= -2.05395183128597E-01
Spin= Alpha
 Occup= 1.684356
  1       0.000000000000
  2       0.000000000000
  3       0.000000000000
  4       0.000000000000
  5       0.000000000000
  6       0.000000000000
  7       0.000000000000
  8       0.000000000000
  9       0.000000000000
 10       0.000000000000
 11       0.000000000000
 12       0.000000000000
 13       0.000000000000
 14       0.000000000000
 15       0.000000000000
 16       0.000000000000
 17       0.000000000000
 18       0.000000000000
 19       0.000000000000
 20       0.000000000000
 21       0.000000000000
 22       0.000000000000
 23       0.000000000000
 24       0.000000000000
 25       0.000000000000
 26       0.000000000000
 27       0.000000000000
 28       0.000000000000
 29       0.000000000000
 30       0.000000000000
 31       0.000000000000
 32       0.000000000000
 33       0.000000000000
 34       0.000000000000
 35       0.000000000000
 36       0.000000000000
 37       0.000000000000
 38       0.000000000000
 39       0.000000000000
 40       0.000000000000
 41       0.000000000000
 42       0.000000000000
 43       0.000000000000
 44       0.000000000000
 45       0.000000000000
 46       0.000000000000
 47       0.000000000000
 48       0.000000000000
 49       0.000000000000
 50       0.000000000000
 51       0.000000000000
 52       0.000000000000
 53       0.000000000000
 54       0.000000000000
 55       0.000000000000
 56       0.000000000000
 57       0.000000000000
 58       0.000000000000
 59       0.000000000000
 60       0.000000000000
 61       0.000000000000
 62       0.000000000000
 63       0.000000000000
 64       0.000000000000
 65       0.000000000000
 66       0.000000000000
 67       0.000000000000
 68       0.000000000000
 69       0.000000000000
 70       0.000000000000
 71       0.000000000000
 72       0.000000000000
 73       0.000000000000
 74       0.000000000000
 75       0.000000000000
 76       0.000000000000
 77       0.000000000000
 78       0.000000000000
 79       0.000000000000
 80       0.000000000000
 81       0.000000000000
 82       0.000000000000
 83       0.000000000000
 84       0.000000000000
 85       0.000000000000
 86       0.000000000000
 87       0.000000000000
 88       0.000000000000
 89       0.000000000000
 90       0.000000000000
 91       0.000000000000
 92       0.000000000000
 93       0.000000000000
 94       0.000000000000
 95       0.000000000000
 96       0.000000000000
 97       0.000000000000
 98       0.000000000000
 99       0.000000000000
100       0.000000000000
101       0.275284885554
102       0.000000000000
103       0.000000000000
104       0.596852465042
105       0.000000000000
106       0.000000000000
107       0.283014567113
108       0.000000000000
109       0.000000000000
110       0.000000000000
111       0.000000000000
112       0.000000000000
113       0.000000000000
114       0.000000000000
115       0.000000000000
116       0.000000000000
117       0.000000000000
118       0.000000000000
119       0.000000000000
120       0.000000000000
121       0.000000000000
122       0.000000000000
123       0.000000000000
124       0.000000000000
125       0.000000000000
126       0.000000000000
127       0.000000000000
128       0.000000000000
129       0.000000000000
130       0.000000000000
131       0.000000000000
132       0.000000000000
133       0.000000000000
134       0.000000000000
135       0.000000000000
136       0.000000000000
137       0.000000000000
138       0.000000000000
139       0.000000000000
140       0.000000000000
141       0.000000000000
142       0.000000000000
143       0.000000000000
144       0.000000000000
145       0.000000000000
146       0.000000000000
147       0.000000000000
148       0.000000000000
149       0.000000000000
150       0.000000000000
151       0.000000000000
152       0.000000000000
153       0.000000000000
154       0.000000000000
155       0.000000000000
156       0.000000000000
157       0.000000000000
158       0.000000000000
159       0.000000000000
160       0.000000000000
161       0.000000000000
162       0.000000000000
163       0.000000000000
164       0.000000000000
165       0.000000000000
166       0.000000000000
167       0.000000000000
168       0.000000000000
169       0.000000000000
170       0.000000000000
171       0.000000000000
172       0.000000000000
 Sym=     1a
 Ene=  2.91188120719225E+00
Spin= Alpha
 Occup= 0.009199
  1       0.000000000000
  2       0.000000000000
  3       0.000000000000
  4       0.000000000000
  5       0.000000000000
  6       0.000000000000
  7       0.000000000000
  8       0.000000000000
  9       0.000000000000
 10       0.000000000000
 11       0.000000000000
 12       0.000000000000
 13       0.000000000000
 14       0.000000000000
 15       0.000000000000
 16       0.000000000000
 17       0.000000000000
 18       0.000000000000
 19       0.000000000000
 20       0.000000000000
 21       0.000000000000
 22       0.000000000000
 23       0.000000000000
 24       0.000000000000
 25       0.000000000000
 26       0.000000000000
 27       0.000000000000
 28       0.000000000000
 29       0.000000000000
 30       0.000000000000
 31       0.000000000000
 32       0.000000000000
 33       0.000000000000
 34       0.000000000000
 35       0.000000000000
 36       0.000000000000
 37       0.000000000000
 38       0.000000000000
 39       0.000000000000
 40       0.000000000000
 41       0.000000000000
 42       0.000000000000
 43       0.000000000000
 44       0.000000000000
 45       0.000000000000
 46       0.000000000000
 47       0.000000000000
 48       0.000000000000
 49       0.000000000000
 50       0.000000000000
 51       0.000000000000
 52       0.000000000000
 53       0.000000000000
 54       0.000000000000
 55       0.000000000000
 56       0.000000000000
 57       0.000000000000
 58       0.000000000000
 59       0.000000000000
 60       0.000000000000
 61       0.000000000000
 62       0.000000000000
 63       0.000000000000
 64       0.000000000000
 65       0.000000000000
 66       0.000000000000
 67       0.000000000000
 68       0.000000000000
 69       0.000000000000
 70       0.000000000000
 71       0.000000000000
 72       0.000000000000
 73       0.000000000000
 74       0.000000000000
 75       0.000000000000
 76       0.000000000000
 77       0.000000000000
 78       0.000000000000
 79       0.000000000000
 80       0.000000000000
 81       0.000000000000
 82       0.000000000000
 83       0.000000000000
 84       0.000000000000
 85       0.000000000000
 86       0.000000000000
 87       0.000000000000
 88       0.000000000000
 89       0.000000000000
 90       0.000000000000
 91       0.000000000000
 92       0.000000000000
 93       0.000000000000
 94       0.000000000000
 95       0.000000000000
 96       0.000000000000
 97       0.000000000000
 98       0.000000000000
 99       0.000000000000
100       0.000000000000
101       0.000000000000
102       0.000000000000
103       0.000000000000
104       0.000000000000
105       0.000000000000
106       0.000000000000
107       0.000000000000
108      -1.142203958556
109       0.000000000000
110       0.000000000000
111       0.000000000000
112       0.000000000000
113       0.354137617233
114       0.000000000000
115       0.000000000000
116       0.000000000000
117       0.000000000000
118       0.000000000000
119       0.000000000000
120       0.000000000000
121       0.000000000000
122       0.000000000000
123       0.000000000000
124       0.000000000000
125       0.000000000000
126       0.000000000000
127       0.000000000000
128       0.000000000000
129       0.000000000000
130       0.000000000000
131       0.000000000000
132       0.000000000000
133       0.000000000000
134       0.000000000000
135       0.000000000000
136       0.000000000000
137       0.000000000000
138       0.000000000000
139       0.000000000000
140       0.000000000000
141       0.000000000000
142       0.000000000000
143       0.000000000000
144       0.000000000000
145       0.000000000000
146       0.000000000000
147       0.000000000000
148       0.000000000000
149       0.000000000000
150       0.000000000000
151       0.000000000000
152       0.000000000000
153       0.000000000000
154       0.000000000000
155       0.000000000000
156       0.000000000000
157       0.000000000000
158       0.000000000000
159       0.000000000000
160       0.000000000000
161       0.000000000000
162       0.000000000000
163       0.000000000000
164       0.000000000000
165       0.000000000000
166       0.000000000000
167       0.000000000000
168       0.000000000000
169       0.000000000000
170       0.000000000000
171       0.000000000000
172       0.000000000000
 Sym=     1a
 Ene=  2.94403954421752E+00
Spin= Alpha
 Occup= 0.009199
  1       0.000000000000
  2       0.000000000000
  3       0.000000000000
  4       0.000000000000
  5       0.000000000000
  6       0.000000000000
  7       0.000000000000
  8       0.000000000000
  9       0.000000000000
 10       0.000000000000
 11       0.000000000000
 12       0.000000000000
 13       0.000000000000
 14       0.000000000000
 15       0.000000000000
 16       0.000000000000
 17       0.000000000000
 18       0.000000000000
 19       0.000000000000
 20       0.000000000000
 21       0.000000000000
 22       0.000000000000
 23       0.000000000000
 24       0.000000000000
 25       0.000000000000
 26       0.000000000000
 27       0.000000000000
 28       0.000000000000
 29       0.000000000000
 30       0.000000000000
 31       0.000000000000
 32       0.000000000000
 33       0.000000000000
 34       0.000000000000
 35       0.000000000000
 36       0.000000000000
 37       0.000000000000
 38       0.000000000000
 39       0.000000000000
 40       0.000000000000
 41       0.000000000000
 42       0.000000000000
 43       0.000000000000
 44       0.000000000000
 45       0.000000000000
 46       0.000000000000
 47       0.000000000000
 48       0.000000000000
 49       0.000000000000
 50       0.000000000000
 51       0.000000000000
 52       0.000000000000
 53       0.000000000000
 54       0.000000000000
 55       0.000000000000
 56       0.000000000000
 57       0.000000000000
 58       0.000000000000
 59       0.000000000000
 60       0.000000000000
 61       0.000000000000
 62       0.000000000000
 63       0.000000000000
 64       0.000000000000
 65       0.000000000000
 66       0.000000000000
 67       0.000000000000
 68       0.000000000000
 69       0.000000000000
 70       0.000000000000
 71       0.000000000000
 72       0.000000000000
 73       0.000000000000
 74       0.000000000000
 75       0.000000000000
 76       0.000000000000
 77       0.000000000000
 78       0.000000000000
 79       0.000000000000
 80       0.000000000000
 81       0.000000000000
 82       0.000000000000
 83       0.000000000000
 84       0.000000000000
 85       0.000000000000
 86       0.000000000000
 87       0.000000000000
 88       0.000000000000
 89       0.000000000000
 90       0.000000000000
 91       0.000000000000
 92       0.000000000000
 93       0.000000000000
 94       0.000000000000
 95       0.000000000000
 96       0.000000000000
 97       0.000000000000
 98       0.000000000000
 99       0.000000000000
100       0.000000000000
101       0.000000000000
102       0.000000000000
103       0.000000000000
104       0.000000000000
105       0.000000000000
106       0.000000000000
107       0.000000000000
108       0.000000000000
109      -1.142203958556
110       0.000000000000
111       0.000000000000
112       0.000000000000
113       0.000000000000
114       0.354137617233
115       0.000000000000
116       0.000000000000
117       0.000000000000
118       0.000000000000
119       0.000000000000
120       0.000000000000
121       0.000000000000
122       0.000000000000
123       0.000000000000
124       0.000000000000
125       0.000000000000
126       0.000000000000
127       0.000000000000
128       0.000000000000
129       0.000000000000
130       0.000000000000
131       0.000000000000
132       0.000000000000
133       0.000000000000
134       0.000000000000
135       0.000000000000
136       0.000000000000
137       0.000000000000
138       0.000000000000
139       0.000000000000
140       0.000000000000
141       0.000000000000
142       0.000000000000
143       0.000000000000
144       0.000000000000
145       0.000000000000
146       0.000000000000
147       0.000000000000
148       0.000000000000
149       0.000000000000
150       0.000000000000
151       0.000000000000
152       0.000000000000
153       0.000000000000
154       0.000000000000
155       0.000000000000
156       0.000000000000
157       0.000000000000
158       0.000000000000
159       0.000000000000
160       0.000000000000
161       0.000000000000
162       0.000000000000
163       0.000000000000
164       0.000000000000
165       0.000000000000
166       0.000000000000
167       0.000000000000
168       0.000000000000
169       0.000000000000
170       0.000000000000
171       0.000000000000
172       0.000000000000
 Sym=     1a
 Ene=  2.92120098642704E+00
Spin= Alpha
 Occup= 0.009199
  1       0.000000000000
  2       0.000000000000
  3       0.000000000000
  4       0.000000000000
  5       0.000000000000
  6       0.000000000000
  7       0.000000000000
  8       0.000000000000
  9       0.000000000000
 10       0.000000000000
 11       0.000000000000
 12       0.000000000000
 13       0.000000000000
 14       0.000000000000
 15       0.000000000000
 16       0.000000000000
 17       0.000000000000
 18       0.000000000000
 19       0.000000000000
 20       0.000000000000
 21       0.000000000000
 22       0.000000000000
 23       0.000000000000
 24       0.000000000000
 25       0.000000000000
 26       0.000000000000
 27       0.000000000000
 28       0.000000000000
 29       0.000000000000
 30       0.000000000000
 31       0.000000000000
 32       0.000000000000
 33       0.000000000000
 34       0.000000000000
 35       0.000000000000
 36       0.000000000000
 37       0.000000000000
 38       0.000000000000
 39       0.000000000000
 40       0.000000000000
 41       0.000000000000
 42       0.000000000000
 43       0.000000000000
 44       0.000000000000
 45       0.000000000000
 46       0.000000000000
 47       0.000000000000
 48       0.000000000000
 49       0.000000000000
 50       0.000000000000
 51       0.000000000000
 52       0.000000000000
 53       0.000000000000
 54       0.000000000000
 55       0.000000000000
 56       0.000000000000
 57       0.000000000000
 58       0.000000000000
 59       0.000000000000
 60       0.000000000000
 61       0.000000000000
 62       0.000000000000
 63       0.000000000000
 64       0.000000000000
 65       0.000000000000
 66       0.000000000000
 67       0.000000000000
 68       0.000000000000
 69       0.000000000000
 70       0.000000000000
 71       0.000000000000
 72       0.000000000000
 73       0.000000000000
 74       0.000000000000
 75       0.000000000000
 76       0.000000000000
 77       0.000000000000
 78       0.000000000000
 79       0.000000000000
 80       0.000000000000
 81       0.000000000000
 82       0.000000000000
 83       0.000000000000
 84       0.000000000000
 85       0.000000000000
 86       0.000000000000
 87       0.000000000000
 88       0.000000000000
 89       0.000000000000
 90       0.000000000000
 91       0.000000000000
 92       0.000000000000
 93       0.000000000000
 94       0.000000000000
 95       0.000000000000
 96       0.000000000000
 97       0.000000000000
 98       0.000000000000
 99       0.000000000000
100       0.000000000000
101       0.000000000000
102       0.000000000000
103       0.000000000000
104       0.000000000000
105       0.000000000000
106       0.000000000000
107       0.000000000000
108       0.000000000000
109       0.000000000000
110      -1.142203958556
111       0.000000000000
112       0.000000000000
113       0.000000000000
114       0.000000000000
115       0.354137617233
116       0.000000000000
117       0.000000000000
118       0.000000000000
119       0.000000000000
120       0.000000000000
121       0.000000000000
122       0.000000000000
123       0.000000000000
124       0.000000000000
125       0.000000000000
126       0.000000000000
127       0.000000000000
128       0.000000000000
129       0.000000000000
130       0.000000000000
131       0.000000000000
132       0.000000000000
133       0.000000000000
134       0.000000000000
135       0.000000000000
136       0.000000000000
137       0.000000000000
138       0.000000000000
139       0.000000000000
140       0.000000000000
141       0.000000000000
142       0.000000000000
143       0.000000000000
144       0.000000000000
145       0.000000000000
146       0.000000000000
147       0.000000000000
148       0.000000000000
149       0.000000000000
150       0.000000000000
151       0.000000000000
152       0.000000000000
153       0.000000000000
154       0.000000000000
155       0.000000000000
156       0.000000000000
157       0.000000000000
158       0.000000000000
159       0.000000000000
160       0.000000000000
161       0.000000000000
162       0.000000000000
163       0.000000000000
164       0.000000000000
165       0.000000000000
166       0.000000000000
167       0.000000000000
168       0.000000000000
169       0.000000000000
170       0.000000000000
171       0.000000000000
172       0.000000000000
 Sym=     1a
 Ene=  2.82874393493663E+00
Spin= Alpha
 Occup= 0.009199
  1       0.000000000000
  2       0.000000000000
  3       0.000000000000
  4       0.000000000000
  5       0.000000000000
  6       0.000000000000
  7       0.000000000000
  8       0.000000000000
  9       0.000000000000
 10       0.000000000000
 11       0.000000000000
 12       0.000000000000
 13       0.000000000000
 14       0.000000000000
 15       0.000000000000
 16       0.000000000000
 17       0.000000000000
 18       0.000000000000
 19       0.000000000000
 20       0.000000000000
 21       0.000000000000
 22       0.000000000000
 23       0.000000000000
 24       0.000000000000
 25       0.000000000000
 26       0.000000000000
 27       0.000000000000
 28       0.000000000000
 29       0.000000000000
 30       0.000000000000
 31       0.000000000000
 32       0.000000000000
 33       0.000000000000
 34       0.000000000000
 35       0.000000000000
 36       0.000000000000
 37       0.000000000000
 38       0.000000000000
 39       0.000000000000
 40       0.000000000000
 41       0.000000000000
 42       0.000000000000
 43       0.000000000000
 44       0.000000000000
 45       0.000000000000
 46       0.000000000000
 47       0.000000000000
 48       0.000000000000
 49       0.000000000000
 50       0.000000000000
 51       0.000000000000
 52       0.000000000000
 53       0.000000000000
 54       0.000000000000
 55       0.000000000000
 56       0.000000000000
 57       0.000000000000
 58       0.000000000000
 59       0.000000000000
 60       0.000000000000
 61       0.000000000000
 62       0.000000000000
 63       0.000000000000
 64       0.000000000000
 65       0.000000000000
 66       0.000000000000
 67       0.000000000000
 68       0.000000000000
 69       0.000000000000
 70       0.000000000000
 71       0.000000000000
 72       0.000000000000
 73       0.000000000000
 74       0.000000000000
 75       0.000000000000
 76       0.000000000000
 77       0.000000000000
 78       0.000000000000
 79       0.000000000000
 80       0.000000000000
 81       0.000000000000
 82       0.000000000000
 83       0.000000000000
 84       0.000000000000
 85       0.000000000000
 86       0.000000000000
 87       0.000000000000
 88       0.000000000000
 89       0.000000000000
 90       0.000000000000
 91       0.000000000000
 92       0.000000000000
 93       0.000000000000
 94       0.000000000000
 95       0.000000000000
 96       0.000000000000
 97       0.000000000000
 98       0.000000000000
 99       0.000000000000
100       0.000000000000
101       0.000000000000
102       0.000000000000
103       0.000000000000
104       0.000000000000
105       0.000000000000
106       0.000000000000
107       0.000000000000
108       0.000000000000
109       0.000000000000
110       0.000000000000
111      -1.142203958556
112       0.000000000000
113       0.000000000000
114       0.000000000000
115       0.000000000000
116       0.354137617233
117       0.000000000000
118       0.000000000000
119       0.000000000000
120       0.000000000000
121       0.000000000000
122       0.000000000000
123       0.000000000000
124       0.000000000000
125       0.000000000000
126       0.000000000000
127       0.000000000000
128       0.000000000000
129       0.000000000000
130       0.000000000000
131       0.000000000000
132       0.000000000000
133       0.000000000000
134       0.000000000000
135       0.000000000000
136       0.000000000000
137       0.000000000000
138       0.000000000000
139       0.000000000000
140       0.000000000000
141       0.000000000000
142       0.000000000000
143       0.000000000000
144       0.000000000000
145       0.000000000000
146       0.000000000000
147       0.000000000000
148       0.000000000000
149       0.000000000000
150       0.000000000000
151       0.000000000000
152       0.000000000000
153       0.000000000000
154       0.000000000000
155       0.000000000000
156       0.000000000000
157       0.000000000000
158       0.000000000000
159       0.000000000000
160       0.000000000000
161       0.000000000000
162       0.000000000000
163       0.000000000000
164       0.000000000000
165       0.000000000000
166       0.000000000000
167       0.000000000000
168       0.000000000000
169       0.000000000000
170       0.000000000000
171       0.000000000000
172       0.000000000000
 Sym=     1a
 Ene=  2.84923216015964E+00
Spin= Alpha
 Occup= 0.009199
  1       0.000000000000
  2       0.000000000000
  3       0.000000000000
  4       0.000000000000
  5       0.000000000000
  6       0.000000000000
  7       0.000000000000
  8       0.000000000000
  9       0.000000000000
 10       0.000000000000
 11       0.000000000000
 12       0.000000000000
 13       0.000000000000
 14       0.000000000000
 15       0.000000000000
 16       0.000000000000
 17       0.000000000000
 18       0.000000000000
 19       0.000000000000
 20       0.000000000000
 21       0.000000000000
 22       0.000000000000
 23       0.000000000000
 24       0.000000000000
 25       0.000000000000
 26       0.000000000000
 27       0.000000000000
 28       0.000000000000
 29       0.000000000000
 30       0.000000000000
 31       0.000000000000
 32       0.000000000000
 33       0.000000000000
 34       0.000000000000
 35       0.000000000000
 36       0.000000000000
 37       0.000000000000
 38       0.000000000000
 39       0.000000000000
 40       0.000000000000
 41       0.000000000000
 42       0.000000000000
 43       0.000000000000
 44       0.000000000000
 45       0.000000000000
 46       0.000000000000
 47       0.000000000000
 48       0.000000000000
 49       0.000000000000
 50       0.000000000000
 51       0.000000000000
 52       0.000000000000
 53       0.000000000000
 54       0.000000000000
 55       0.000000000000
 56       0.000000000000
 57       0.000000000000
 58       0.000000000000
 59       0.000000000000
 60       0.000000000000
 61       0.000000000000
 62       0.000000000000
 63       0.000000000000
 64       0.000000000000
 65       0.000000000000
 66       0.000000000000
 67       0.000000000000
 68       0.000000000000
 69       0.000000000000
 70       0.000000000000
 71       0.000000000000
 72       0.000000000000
 73       0.000000000000
 74       0.000000000000
 75       0.000000000000
 76       0.000000000000
 77       0.000000000000
 78       0.000000000000
 79       0.000000000000
 80       0.000000000000
 81       0.000000000000
 82       0.000000000000
 83       0.000000000000
 84       0.000000000000
 85       0.000000000000
 86       0.000000000000
 87       0.000000000000
 88       0.000000000000
 89       0.000000000000
 90       0.000000000000
 91       0.000000000000
 92       0.000000000000
 93       0.000000000000
 94       0.000000000000
 95       0.000000000000
 96       0.000000000000
 97       0.000000000000
 98       0.000000000000
 99       0.000000000000
100       0.000000000000
101       0.000000000000
102       0.000000000000
103       0.000000000000
104       0.000000000000
105       0.000000000000
106       0.000000000000
107       0.000000000000
108       0.000000000000
109       0.000000000000
110       0.000000000000
111       0.000000000000
112      -1.142203958556
113       0.000000000000
114       0.000000000000
115       0.000000000000
116       0.000000000000
117       0.354137617233
118       0.000000000000
119       0.000000000000
120       0.000000000000
121       0.000000000000
122       0.000000000000
123       0.000000000000
124       0.000000000000
125       0.000000000000
126       0.000000000000
127       0.000000000000
128       0.000000000000
129       0.000000000000
130       0.000000000000
131       0.000000000000
132       0.000000000000
133       0.000000000000
134       0.000000000000
135       0.000000000000
136       0.000000000000
137       0.000000000000
138       0.000000000000
139       0.000000000000
140       0.000000000000
141       0.000000000000
142       0.000000000000
143       0.000000000000
144       0.000000000000
145       0.000000000000
146       0.000000000000
147       0.000000000000
148       0.000000000000
149       0.000000000000
150       0.000000000000
151       0.000000000000
152       0.000000000000
153       0.000000000000
154       0.000000000000
155       0.000000000000
156       0.000000000000
157       0.000000000000
158       0.000000000000
159       0.000000000000
160       0.000000000000
161       0.000000000000
162       0.000000000000
163       0.000000000000
164       0.000000000000
165       0.000000000000
166       0.000000000000
167       0.000000000000
168       0.000000000000
169       0.000000000000
170       0.000000000000
171       0.000000000000
172       0.000000000000
 Sym=     1a
 Ene=  6.36567153629385E-01
Spin= Alpha
 Occup= 0.220454
  1       0.000000000000
  2       0.000000000000
  3       0.000000000000
  4       0.000000000000
  5       0.000000000000
  6       0.000000000000
  7       0.000000000000
  8       0.000000000000
  9       0.000000000000
 10       0.000000000000
 11       0.000000000000
 12       0.000000000000
 13       0.000000000000
 14       0.000000000000
 15       0.000000000000
 16       0.000000000000
 17       0.000000000000
 18       0.000000000000
 19       0.000000000000
 20       0.000000000000
 21       0.000000000000
 22       0.000000000000
 23       0.000000000000
 24       0.000000000000
 25       0.000000000000
 26       0.000000000000
 27       0.000000000000
 28       0.000000000000
 29       0.000000000000
 30       0.000000000000
 31       0.000000000000
 32       0.000000000000
 33       0.000000000000
 34       0.000000000000
 35       0.000000000000
 36       0.000000000000
 37       0.000000000000
 38       0.000000000000
 39       0.000000000000
 40       0.000000000000
 41       0.000000000000
 42       0.000000000000
 43       0.000000000000
 44       0.000000000000
 45       0.000000000000
 46       0.000000000000
 47       0.000000000000
 48       0.000000000000
 49       0.000000000000
 50       0.000000000000
 51       0.000000000000
 52       0.000000000000
 53       0.000000000000
 54       0.000000000000
 55       0.000000000000
 56       0.000000000000
 57       0.000000000000
 58       0.000000000000
 59       0.000000000000
 60       0.000000000000
 61       0.000000000000
 62       0.000000000000
 63       0.000000000000
 64       0.000000000000
 65       0.000000000000
 66       0.000000000000
 67       0.000000000000
 68       0.000000000000
 69       0.000000000000
 70       0.000000000000
 71       0.000000000000
 72       0.000000000000
 73       0.000000000000
 74       0.000000000000
 75       0.000000000000
 76       0.000000000000
 77       0.000000000000
 78       0.000000000000
 79       0.000000000000
 80       0.000000000000
 81       0.000000000000
 82       0.000000000000
 83       0.000000000000
 84       0.000000000000
 85       0.000000000000
 86       0.000000000000
 87       0.000000000000
 88       0.000000000000
 89       0.000000000000
 90       0.000000000000
 91       0.000000000000
 92       0.000000000000
 93       0.000000000000
 94       0.000000000000
 95       0.000000000000
 96       0.000000000000
 97       0.000000000000
 98       0.000000000000
 99       0.000000000000
100       0.000000000000
101       0.000000000000
102       0.000000000000
103       0.000000000000
104       0.000000000000
105       0.000000000000
106       0.000000000000
107       0.000000000000
108      -0.298735868891
109       0.000000000000
110       0.000000000000
111       0.000000000000
112       0.000000000000
113       1.126259095575
114       0.000000000000
115       0.000000000000
116       0.000000000000
117       0.000000000000
118       0.000000000000
119       0.000000000000
120       0.000000000000
121       0.000000000000
122       0.000000000000
123       0.000000000000
124       0.000000000000
125       0.000000000000
126       0.000000000000
127       0.000000000000
128       0.000000000000
129       0.000000000000
130       0.000000000000
131       0.000000000000
132       0.000000000000
133       0.000000000000
134       0.000000000000
135       0.000000000000
136       0.000000000000
137       0.000000000000
138       0.000000000000
139       0.000000000000
140       0.000000000000
141       0.000000000000
142       0.000000000000
143       0.000000000000
144       0.000000000000
145       0.000000000000
146       0.000000000000
147       0.000000000000
148       0.000000000000
149       0.000000000000
150       0.000000000000
151       0.000000000000
152       0.000000000000
153       0.000000000000
154       0.000000000000
155       0.000000000000
156       0.000000000000
157       0.000000000000
158       0.000000000000
159       0.000000000000
160       0.000000000000
161       0.000000000000
162       0.000000000000
163       0.000000000000
164       0.000000000000
165       0.000000000000
166       0.000000000000
167       0.000000000000
168       0.000000000000
169       0.000000000000
170       0.000000000000
171       0.000000000000
172       0.000000000000
 Sym=     1a
 Ene=  8.43656645525051E-01
Spin= Alpha
 Occup= 0.220454
  1       0.000000000000
  2       0.000000000000
  3       0.000000000000
  4       0.000000000000
  5       0.000000000000
  6       0.000000000000
  7       0.000000000000
  8       0.000000000000
  9       0.000000000000
 10       0.000000000000
 11       0.000000000000
 12       0.000000000000
 13       0.000000000000
 14       0.000000000000
 15       0.000000000000
 16       0.000000000000
 17       0.000000000000
 18       0.000000000000
 19       0.000000000000
 20       0.000000000000
 21       0.000000000000
 22       0.000000000000
 23       0.000000000000
 24       0.000000000000
 25       0.000000000000
 26       0.000000000000
 27       0.000000000000
 28       0.000000000000
 29       0.000000000000
 30       0.000000000000
 31       0.000000000000
 32       0.000000000000
 33       0.000000000000
 34       0.000000000000
 35       0.000000000000
 36       0.000000000000
 37       0.000000000000
 38       0.000000000000
 39       0.000000000000
 40       0.000000000000
 41       0.000000000000
 42       0.000000000000
 43       0.000000000000
 44       0.000000000000
 45       0.000000000000
 46       0.000000000000
 47       0.000000000000
 48       0.000000000000
 49       0.000000000000
 50       0.000000000000
 51       0.000000000000
 52       0.000000000000
 53       0.000000000000
 54       0.000000000000
 55       0.000000000000
 56       0.000000000000
 57       0.000000000000
 58       0.000000000000
 59       0.000000000000
 60       0.000000000000
 61       0.000000000000
 62       0.000000000000
 63       0.000000000000
 64       0.000000000000
 65       0.000000000000
 66       0.000000000000
 67       0.000000000000
 68       0.000000000000
 69       0.000000000000
 70       0.000000000000
 71       0.000000000000
 72       0.000000000000
 73       0.000000000000
 74       0.000000000000
 75       0.000000000000
 76       0.000000000000
 77       0.000000000000
 78       0.000000000000
 79       0.000000000000
 80       0.000000000000
 81       0.000000000000
 82       0.000000000000
 83       0.000000000000
 84       0.000000000000
 85       0.000000000000
 86       0.000000000000
 87       0.000000000000
 88       0.000000000000
 89       0.000000000000
 90       0.000000000000
 91       0.000000000000
 92       0.000000000000
 93       0.000000000000
 94       0.000000000000
 95       0.000000000000
 96       0.000000000000
 97       0.000000000000
 98       0.000000000000
 99       0.000000000000
100       0.000000000000
101       0.000000000000
102       0.000000000000
103       0.000000000000
104       0.000000000000
105       0.000000000000
106       0.000000000000
107       0.000000000000
108       0.000000000000
109      -0.298735868891
110       0.000000000000
111       0.000000000000
112       0.000000000000
113       0.000000000000
114       1.126259095575
115       0.000000000000
116       0.000000000000
117       0.000000000000
118       0.000000000000
119       0.000000000000
120       0.000000000000
121       0.000000000000
122       0.000000000000
123       0.000000000000
124       0.000000000000
125       0.000000000000
126       0.000000000000
127       0.000000000000
128       0.000000000000
129       0.000000000000
130       0.000000000000
131       0.000000000000
132       0.000000000000
133       0.000000000000
134       0.000000000000
135       0.000000000000
136       0.000000000000
137       0.000000000000
138       0.000000000000
139       0.000000000000
140       0.000000000000
141       0.000000000000
142       0.000000000000
143       0.000000000000
144       0.000000000000
145       0.000000000000
146       0.000000000000
147       0.000000000000
148       0.000000000000
149       0.000000000000
150       0.000000000000
151       0.000000000000
152       0.000000000000
153       0.000000000000
154       0.000000000000
155       0.000000000000
156       0.000000000000
157       0.000000000000
158       0.000000000000
159       0.000000000000
160       0.000000000000
161       0.000000000000
162       0.000000000000
163       0.000000000000
164       0.000000000000
165       0.000000000000
166       0.000000000000
167       0.000000000000
168       0.000000000000
169       0.000000000000
170       0.000000000000
171       0.000000000000
172       0.000000000000
 Sym=     1a
 Ene=  7.20333258407689E-01
Spin= Alpha
 Occup= 0.220454
  1       0.000000000000
  2       0.000000000000
  3       0.000000000000
  4       0.000000000000
  5       0.000000000000
  6       0.000000000000
  7       0.000000000000
  8       0.000000000000
  9       0.000000000000
 10       0.000000000000
 11       0.000000000000
 12       0.000000000000
 13       0.000000000000
 14       0.000000000000
 15       0.000000000000
 16       0.000000000000
 17       0.000000000000
 18       0.000000000000
 19       0.000000000000
 20       0.000000000000
 21       0.000000000000
 22       0.000000000000
 23       0.000000000000
 24       0.000000000000
 25       0.000000000000
 26       0.000000000000
 27       0.000000000000
 28       0.000000000000
 29       0.000000000000
 30       0.000000000000
 31       0.000000000000
 32       0.000000000000
 33       0.000000000000
 34       0.000000000000
 35       0.000000000000
 36       0.000000000000
 37       0.000000000000
 38       0.000000000000
 39       0.000000000000
 40       0.000000000000
 41       0.000000000000
 42       0.000000000000
 43       0.000000000000
 44       0.000000000000
 45       0.000000000000
 46       0.000000000000
 47       0.000000000000
 48       0.000000000000
 49       0.000000000000
 50       0.000000000000
 51       0.000000000000
 52       0.000000000000
 53       0.000000000000
 54       0.000000000000
 55       0.000000000000
 56       0.000000000000
 57       0.000000000000
 58       0.000000000000
 59       0.000000000000
 60       0.000000000000
 61       0.000000000000
 62       0.000000000000
 63       0.000000000000
 64       0.000000000000
 65       0.000000000000
 66       0.000000000000
 67       0.000000000000
 68       0.000000000000
 69       0.000000000000
 70       0.000000000000
 71       0.000000000000
 72       0.000000000000
 73       0.000000000000
 74       0.000000000000
 75       0.000000000000
 76       0.000000000000
 77       0.000000000000
 78       0.000000000000
 79       0.000000000000
 80       0.000000000000
 81       0.000000000000
 82       0.000000000000
 83       0.000000000000
 84       0.000000000000
 85       0.000000000000
 86       0.000000000000
 87       0.000000000000
 88       0.000000000000
 89       0.000000000000
 90       0.000000000000
 91       0.000000000000
 92       0.000000000000
 93       0.000000000000
 94       0.000000000000
 95       0.000000000000
 96       0.000000000000
 97       0.000000000000
 98       0.000000000000
 99       0.000000000000
100       0.000000000000
101       0.000000000000
102       0.000000000000
103       0.000000000000
104       0.000000000000
105       0.000000000000
106       0.000000000000
107       0.000000000000
108       0.000000000000
109       0.000000000000
110      -0.298735868891
111       0.000000000000
112       0.000000000000
113       0.000000000000
114       0.000000000000
115       1.126259095575
116       0.000000000000
117       0.000000000000
118       0.000000000000
119       0.000000000000
120       0.000000000000
121       0.000000000000
122       0.000000000000
123       0.000000000000
124       0.000000000000
125       0.000000000000
126       0.000000000000
127       0.000000000000
128       0.000000000000
129       0.000000000000
130       0.000000000000
131       0.000000000000
132       0.000000000000
133       0.000000000000
134       0.000000000000
135       0.000000000000
136       0.000000000000
137       0.000000000000
138       0.000000000000
139       0.000000000000
140       0.000000000000
141       0.000000000000
142       0.000000000000
143       0.000000000000
144       0.000000000000
145       0.000000000000
146       0.000000000000
147       0.000000000000
148       0.000000000000
149       0.000000000000
150       0.000000000000
151       0.000000000000
152       0.000000000000
153       0.000000000000
154       0.000000000000
155       0.000000000000
156       0.000000000000
157       0.000000000000
158       0.000000000000
159       0.000000000000
160       0.000000000000
161       0.000000000000
162       0.000000000000
163       0.000000000000
164       0.000000000000
165       0.000000000000
166       0.000000000000
167       0.000000000000
168       0.000000000000
169       0.000000000000
170       0.000000000000
171       0.000000000000
172       0.000000000000
 Sym=     1a
 Ene=  2.76756649261307E-01
Spin= Alpha
 Occup= 0.220454
  1       0.000000000000
  2       0.000000000000
  3       0.000000000000
  4       0.000000000000
  5       0.000000000000
  6       0.000000000000
  7       0.000000000000
  8       0.000000000000
  9       0.000000000000
 10       0.000000000000
 11       0.000000000000
 12       0.000000000000
 13       0.000000000000
 14       0.000000000000
 15       0.000000000000
 16       0.000000000000
 17       0.000000000000
 18       0.000000000000
 19       0.000000000000
 20       0.000000000000
 21       0.000000000000
 22       0.000000000000
 23       0.000000000000
 24       0.000000000000
 25       0.000000000000
 26       0.000000000000
 27       0.000000000000
 28       0.000000000000
 29       0.000000000000
 30       0.000000000000
 31       0.000000000000
 32       0.000000000000
 33       0.000000000000
 34       0.000000000000
 35       0.000000000000
 36       0.000000000000
 37       0.000000000000
 38       0.000000000000
 39       0.000000000000
 40       0.000000000000
 41       0.000000000000
 42       0.000000000000
 43       0.000000000000
 44       0.000000000000
 45       0.000000000000
 46       0.000000000000
 47       0.000000000000
 48       0.000000000000
 49       0.000000000000
 50       0.000000000000
 51       0.000000000000
 52       0.000000000000
 53       0.000000000000
 54       0.000000000000
 55       0.000000000000
 56       0.000000000000
 57       0.000000000000
 58       0.000000000000
 59       0.000000000000
 60       0.000000000000
 61       0.000000000000
 62       0.000000000000
 63       0.000000000000
 64       0.000000000000
 65       0.000000000000
 66       0.000000000000
 67       0.000000000000
 68       0.000000000000
 69       0.000000000000
 70       0.000000000000
 71       0.000000000000
 72       0.000000000000
 73       0.000000000000
 74       0.000000000000
 75       0.000000000000
 76       0.000000000000
 77       0.000000000000
 78       0.000000000000
 79       0.000000000000
 80       0.000000000000
 81       0.000000000000
 82       0.000000000000
 83       0.000000000000
 84       0.000000000000
 85       0.000000000000
 86       0.000000000000
 87       0.000000000000
 88       0.000000000000
 89       0.000000000000
 90       0.000000000000
 91       0.000000000000
 92       0.000000000000
 93       0.000000000000
 94       0.000000000000
 95       0.000000000000
 96       0.000000000000
 97       0.000000000000
 98       0.000000000000
 99       0.000000000000
100       0.000000000000
101       0.000000000000
102       0.000000000000
103       0.000000000000
104       0.000000000000
105       0.000000000000
106       0.000000000000
107       0.000000000000
108       0.000000000000
109       0.000000000000
110       0.000000000000
111      -0.298735868891
112       0.000000000000
113       0.000000000000
114       0.000000000000
115       0.000000000000
116       1.126259095575
117       0.000000000000
118       0.000000000000
119       0.000000000000
120       0.000000000000
121       0.000000000000
122       0.000000000000
123       0.000000000000
124       0.000000000000
125       0.000000000000
126       0.000000000000
127       0.000000000000
128       0.000000000000
129       0.000000000000
130       0.000000000000
131       0.000000000000
132       0.000000000000
133       0.000000000000
134       0.000000000000
135       0.000000000000
136       0.000000000000
137       0.000000000000
138       0.000000000000
139       0.000000000000
140       0.000000000000
141       0.000000000000
142       0.000000000000
143       0.000000000000
144       0.000000000000
145       0.000000000000
146       0.000000000000
147       0.000000000000
148       0.000000000000
149       0.000000000000
150       0.000000000000
151       0.000000000000
152       0.000000000000
153       0.000000000000
154       0.000000000000
155       0.000000000000
156       0.000000000000
157       0.000000000000
158       0.000000000000
159       0.000000000000
160       0.000000000000
161       0.000000000000
162       0.000000000000
163       0.000000000000
164       0.000000000000
165       0.000000000000
166       0.000000000000
167       0.000000000000
168       0.000000000000
169       0.000000000000
170       0.000000000000
171       0.000000000000
172       0.000000000000
 Sym=     1a
 Ene=  4.60209570222212E-01
Spin= Alpha
 Occup= 0.220454
  1       0.000000000000
  2       0.000000000000
  3       0.000000000000
  4       0.000000000000
  5       0.000000000000
  6       0.000000000000
  7       0.000000000000
  8       0.000000000000
  9       0.000000000000
 10       0.000000000000
 11       0.000000000000
 12       0.000000000000
 13       0.000000000000
 14       0.000000000000
 15       0.000000000000
 16       0.000000000000
 17       0.000000000000
 18       0.000000000000
 19       0.000000000000
 20       0.000000000000
 21       0.000000000000
 22       0.000000000000
 23       0.000000000000
 24       0.000000000000
 25       0.000000000000
 26       0.000000000000
 27       0.000000000000
 28       0.000000000000
 29       0.000000000000
 30       0.000000000000
 31       0.000000000000
 32       0.000000000000
 33       0.000000000000
 34       0.000000000000
 35       0.000000000000
 36       0.000000000000
 37       0.000000000000
 38       0.000000000000
 39       0.000000000000
 40       0.000000000000
 41       0.000000000000
 42       0.000000000000
 43       0.000000000000
 44       0.000000000000
 45       0.000000000000
 46       0.000000000000
 47       0.000000000000
 48       0.000000000000
 49       0.000000000000
 50       0.000000000000
 51       0.000000000000
 52       0.000000000000
 53       0.000000000000
 54       0.000000000000
 55       0.000000000000
 56       0.000000000000
 57       0.000000000000
 58       0.000000000000
 59       0.000000000000
 60       0.000000000000
 61       0.000000000000
 62       0.000000000000
 63       0.000000000000
 64       0.000000000000
 65       0.000000000000
 66       0.000000000000
 67       0.000000000000
 68       0.000000000000
 69       0.000000000000
 70       0.000000000000
 71       0.000000000000
 72       0.000000000000
 73       0.000000000000
 74       0.000000000000
 75       0.000000000000
 76       0.000000000000
 77       0.000000000000
 78       0.000000000000
 79       0.000000000000
 80       0.000000000000
 81       0.000000000000
 82       0.000000000000
 83       0.000000000000
 84       0.000000000000
 85       0.000000000000
 86       0.000000000000
 87       0.000000000000
 88       0.000000000000
 89       0.000000000000
 90       0.000000000000
 91       0.000000000000
 92       0.000000000000
 93       0.000000000000
 94       0.000000000000
 95       0.000000000000
 96       0.000000000000
 97       0.000000000000
 98       0.000000000000
 99       0.000000000000
100       0.000000000000
101       0.000000000000
102       0.000000000000
103       0.000000000000
104       0.000000000000
105       0.000000000000
106       0.000000000000
107       0.000000000000
108       0.000000000000
109       0.000000000000
110       0.000000000000
111       0.000000000000
112      -0.298735868891
113       0.000000000000
114       0.000000000000
115       0.000000000000
116       0.000000000000
117       1.126259095575
118       0.000000000000
119       0.000000000000
120       0.000000000000
121       0.000000000000
122       0.000000000000
123       0.000000000000
124       0.000000000000
125       0.000000000000
126       0.000000000000
127       0.000000000000
128       0.000000000000
129       0.000000000000
130       0.000000000000
131       0.000000000000
132       0.000000000000
133       0.000000000000
134       0.000000000000
135       0.000000000000
136       0.000000000000
137       0.000000000000
138       0.000000000000
139       0.000000000000
140       0.000000000000
141       0.000000000000
142       0.000000000000
143       0.000000000000
144       0.000000000000
145       0.000000000000
146       0.000000000000
147       0.000000000000
148       0.000000000000
149       0.000000000000
150       0.000000000000
151       0.000000000000
152       0.000000000000
153       0.000000000000
154       0.000000000000
155       0.000000000000
156       0.000000000000
157       0.000000000000
158       0.000000000000
159       0.000000000000
160       0.000000000000
161       0.000000000000
162       0.000000000000
163       0.000000000000
164       0.000000000000
165       0.000000000000
166       0.000000000000
167       0.000000000000
168       0.000000000000
169       0.000000000000
170       0.000000000000
171       0.000000000000
172       0.000000000000
 Sym=     1a
 Ene=  2.70137954633474E+00
Spin= Alpha
 Occup= 0.023463
  1       0.000000000000
  2       0.000000000000
  3       0.000000000000
  4       0.000000000000
  5       0.000000000000
  6       0.000000000000
  7       0.000000000000
  8       0.000000000000
  9       0.000000000000
 10       0.000000000000
 11       0.000000000000
 12       0.000000000000
 13       0.000000000000
 14       0.000000000000
 15       0.000000000000
 16       0.000000000000
 17       0.000000000000
 18       0.000000000000
 19       0.000000000000
 20       0.000000000000
 21       0.000000000000
 22       0.000000000000
 23       0.000000000000
 24       0.000000000000
 25       0.000000000000
 26       0.000000000000
 27       0.000000000000
 28       0.000000000000
 29       0.000000000000
 30       0.000000000000
 31       0.000000000000
 32       0.000000000000
 33       0.000000000000
 34       0.000000000000
 35       0.000000000000
 36       0.000000000000
 37       0.000000000000
 38       0.000000000000
 39       0.000000000000
 40       0.000000000000
 41       0.000000000000
 42       0.000000000000
 43       0.000000000000
 44       0.000000000000
 45       0.000000000000
 46       0.000000000000
 47       0.000000000000
 48       0.000000000000
 49       0.000000000000
 50       0.000000000000
 51       0.000000000000
 52       0.000000000000
 53       0.000000000000
 54       0.000000000000
 55       0.000000000000
 56       0.000000000000
 57       0.000000000000
 58       0.000000000000
 59       0.000000000000
 60       0.000000000000
 61       0.000000000000
 62       0.000000000000
 63       0.000000000000
 64       0.000000000000
 65       0.000000000000
 66       0.000000000000
 67       0.000000000000
 68       0.000000000000
 69       0.000000000000
 70       0.000000000000
 71       0.000000000000
 72       0.000000000000
 73       0.000000000000
 74       0.000000000000
 75       0.000000000000
 76       0.000000000000
 77       0.000000000000
 78       0.000000000000
 79       0.000000000000
 80       0.000000000000
 81       0.000000000000
 82       0.000000000000
 83       0.000000000000
 84       0.000000000000
 85       0.000000000000
 86       0.000000000000
 87       0.000000000000
 88       0.000000000000
 89       0.000000000000
 90       0.000000000000
 91       0.000000000000
 92       0.000000000000
 93       0.000000000000
 94       0.000000000000
 95       0.000000000000
 96       0.000000000000
 97       0.000000000000
 98       0.000000000000
 99       0.000000000000
100       0.000000000000
101       0.000000000000
102       0.000000000000
103       0.000000000000
104       0.000000000000
105       0.000000000000
106       0.000000000000
107       0.000000000000
108       0.000000000000
109       0.000000000000
110       0.000000000000
111       0.000000000000
112       0.000000000000
113       0.000000000000
114       0.000000000000
115       0.000000000000
116       0.000000000000
117       0.000000000000
118       1.000000000000
119       0.000000000000
120       0.000000000000
121       0.000000000000
122       0.000000000000
123       0.000000000000
124       0.000000000000
125       0.000000000000
126       0.000000000000
127       0.000000000000
128       0.000000000000
129       0.000000000000
130       0.000000000000
131       0.000000000000
132       0.000000000000
133       0.000000000000
134       0.000000000000
135       0.000000000000
136       0.000000000000
137       0.000000000000
138       0.000000000000
139       0.000000000000
140       0.000000000000
141       0.000000000000
142       0.000000000000
143       0.000000000000
144       0.000000000000
145       0.000000000000
146       0.000000000000
147       0.000000000000
148       0.000000000000
149       0.000000000000
150       0.000000000000
151       0.000000000000
152       0.000000000000
153       0.000000000000
154       0.000000000000
155       0.000000000000
156       0.000000000000
157       0.000000000000
158       0.000000000000
159       0.000000000000
160       0.000000000000
161       0.000000000000
162       0.000000000000
163       0.000000000000
164       0.000000000000
165       0.000000000000
166       0.000000000000
167       0.000000000000
168       0.000000000000
169       0.000000000000
170       0.000000000000
171       0.000000000000
172       0.000000000000
 Sym=     1a
 Ene=  2.68520637663466E+00
Spin= Alpha
 Occup= 0.023463
  1       0.000000000000
  2       0.000000000000
  3       0.000000000000
  4       0.000000000000
  5       0.000000000000
  6       0.000000000000
  7       0.000000000000
  8       0.000000000000
  9       0.000000000000
 10       0.000000000000
 11       0.000000000000
 12       0.000000000000
 13       0.000000000000
 14       0.000000000000
 15       0.000000000000
 16       0.000000000000
 17       0.000000000000
 18       0.000000000000
 19       0.000000000000
 20       0.000000000000
 21       0.000000000000
 22       0.000000000000
 23       0.000000000000
 24       0.000000000000
 25       0.000000000000
 26       0.000000000000
 27       0.000000000000
 28       0.000000000000
 29       0.000000000000
 30       0.000000000000
 31       0.000000000000
 32       0.000000000000
 33       0.000000000000
 34       0.000000000000
 35       0.000000000000
 36       0.000000000000
 37       0.000000000000
 38       0.000000000000
 39       0.000000000000
 40       0.000000000000
 41       0.000000000000
 42       0.000000000000
 43       0.000000000000
 44       0.000000000000
 45       0.000000000000
 46       0.000000000000
 47       0.000000000000
 48       0.000000000000
 49       0.000000000000
 50       0.000000000000
 51       0.000000000000
 52       0.000000000000
 53       0.000000000000
 54       0.000000000000
 55       0.000000000000
 56       0.000000000000
 57       0.000000000000
 58       0.000000000000
 59       0.000000000000
 60       0.000000000000
 61       0.000000000000
 62       0.000000000000
 63       0.000000000000
 64       0.000000000000
 65       0.000000000000
 66       0.000000000000
 67       0.000000000000
 68       0.000000000000
 69       0.000000000000
 70       0.000000000000
 71       0.000000000000
 72       0.000000000000
 73       0.000000000000
 74       0.000000000000
 75       0.000000000000
 76       0.000000000000
 77       0.000000000000
 78       0.000000000000
 79       0.000000000000
 80       0.000000000000
 81       0.000000000000
 82       0.000000000000
 83       0.000000000000
 84       0.000000000000
 85       0.000000000000
 86       0.000000000000
 87       0.000000000000
 88       0.000000000000
 89       0.000000000000
 90       0.000000000000
 91       0.000000000000
 92       0.000000000000
 93       0.000000000000
 94       0.000000000000
 95       0.000000000000
 96       0.000000000000
 97       0.000000000000
 98       0.000000000000
 99       0.000000000000
100       0.000000000000
101       0.000000000000
102       0.000000000000
103       0.000000000000
104       0.000000000000
105       0.000000000000
106       0.000000000000
107       0.000000000000
108       0.000000000000
109       0.000000000000
110       0.000000000000
111       0.000000000000
112       0.000000000000
113       0.000000000000
114       0.000000000000
115       0.000000000000
116       0.000000000000
117       0.000000000000
118       0.000000000000
119       1.000000000000
120       0.000000000000
121       0.000000000000
122       0.000000000000
123       0.000000000000
124       0.000000000000
125       0.000000000000
126       0.000000000000
127       0.000000000000
128       0.000000000000
129       0.000000000000
130       0.000000000000
131       0.000000000000
132       0.000000000000
133       0.000000000000
134       0.000000000000
135       0.000000000000
136       0.000000000000
137       0.000000000000
138       0.000000000000
139       0.000000000000
140       0.000000000000
141       0.000000000000
142       0.000000000000
143       0.000000000000
144       0.000000000000
145       0.000000000000
146       0.000000000000
147       0.000000000000
148       0.000000000000
149       0.000000000000
150       0.000000000000
151       0.000000000000
152       0.000000000000
153       0.000000000000
154       0.000000000000
155       0.000000000000
156       0.000000000000
157       0.000000000000
158       0.000000000000
159       0.000000000000
160       0.000000000000
161       0.000000000000
162       0.000000000000
163       0.000000000000
164       0.000000000000
165       0.000000000000
166       0.000000000000
167       0.000000000000
168       0.000000000000
169       0.000000000000
170       0.000000000000
171       0.000000000000
172       0.000000000000
 Sym=     1a
 Ene=  2.59690656914314E+00
Spin= Alpha
 Occup= 0.023463
  1       0.000000000000
  2       0.000000000000
  3       0.000000000000
  4       0.000000000000
  5       0.000000000000
  6       0.000000000000
  7       0.000000000000
  8       0.000000000000
  9       0.000000000000
 10       0.000000000000
 11       0.000000000000
 12       0.000000000000
 13       0.000000000000
 14       0.000000000000
 15       0.000000000000
 16       0.000000000000
 17       0.000000000000
 18       0.000000000000
 19       0.000000000000
 20       0.000000000000
 21       0.000000000000
 22       0.000000000000
 23       0.000000000000
 24       0.000000000000
 25       0.000000000000
 26       0.000000000000
 27       0.000000000000
 28       0.000000000000
 29       0.000000000000
 30       0.000000000000
 31       0.000000000000
 32       0.000000000000
 33       0.000000000000
 34       0.000000000000
 35       0.000000000000
 36       0.000000000000
 37       0.000000000000
 38       0.000000000000
 39       0.000000000000
 40       0.000000000000
 41       0.000000000000
 42       0.000000000000
 43       0.000000000000
 44       0.000000000000
 45       0.000000000000
 46       0.000000000000
 47       0.000000000000
 48       0.000000000000
 49       0.000000000000
 50       0.000000000000
 51       0.000000000000
 52       0.000000000000
 53       0.000000000000
 54       0.000000000000
 55       0.000000000000
 56       0.000000000000
 57       0.000000000000
 58       0.000000000000
 59       0.000000000000
 60       0.000000000000
 61       0.000000000000
 62       0.000000000000
 63       0.000000000000
 64       0.000000000000
 65       0.000000000000
 66       0.000000000000
 67       0.000000000000
 68       0.000000000000
 69       0.000000000000
 70       0.000000000000
 71       0.000000000000
 72       0.000000000000
 73       0.000000000000
 74       0.000000000000
 75       0.000000000000
 76       0.000000000000
 77       0.000000000000
 78       0.000000000000
 79       0.000000000000
 80       0.000000000000
 81       0.000000000000
 82       0.000000000000
 83       0.000000000000
 84       0.000000000000
 85       0.000000000000
 86       0.000000000000
 87       0.000000000000
 88       0.000000000000
 89       0.000000000000
 90       0.000000000000
 91       0.000000000000
 92       0.000000000000
 93       0.000000000000
 94       0.000000000000
 95       0.000000000000
 96       0.000000000000
 97       0.000000000000
 98       0.000000000000
 99       0.000000000000
100       0.000000000000
101       0.000000000000
102       0.000000000000
103       0.000000000000
104       0.000000000000
105       0.000000000000
106       0.000000000000
107       0.000000000000
108       0.000000000000
109       0.000000000000
110       0.000000000000
111       0.000000000000
112       0.000000000000
113       0.000000000000
114       0.000000000000
115       0.000000000000
116       0.000000000000
117       0.000000000000
118       0.000000000000
119       0.000000000000
120       1.000000000000
121       0.000000000000
122       0.000000000000
123       0.000000000000
124       0.000000000000
125       0.000000000000
126       0.000000000000
127       0.000000000000
128       0.000000000000
129       0.000000000000
130       0.000000000000
131       0.000000000000
132       0.000000000000
133       0.000000000000
134       0.000000000000
135       0.000000000000
136       0.000000000000
137       0.000000000000
138       0.000000000000
139       0.000000000000
140       0.000000000000
141       0.000000000000
142       0.000000000000
143       0.000000000000
144       0.000000000000
145       0.000000000000
146       0.000000000000
147       0.000000000000
148       0.000000000000
149       0.000000000000
150       0.000000000000
151       0.000000000000
152       0.000000000000
153       0.000000000000
154       0.000000000000
155       0.000000000000
156       0.000000000000
157       0.000000000000
158       0.000000000000
159       0.000000000000
160       0.000000000000
161       0.000000000000
162       0.000000000000
163       0.000000000000
164       0.000000000000
165       0.000000000000
166       0.000000000000
167       0.000000000000
168       0.000000000000
169       0.000000000000
170       0.000000000000
171       0.000000000000
172       0.000000000000
 Sym=     1a
 Ene=  2.66260452320550E+00
Spin= Alpha
 Occup= 0.023463
  1       0.000000000000
  2       0.000000000000
  3       0.000000000000
  4       0.000000000000
  5       0.000000000000
  6       0.000000000000
  7       0.000000000000
  8       0.000000000000
  9       0.000000000000
 10       0.000000000000
 11       0.000000000000
 12       0.000000000000
 13       0.000000000000
 14       0.000000000000
 15       0.000000000000
 16       0.000000000000
 17       0.000000000000
 18       0.000000000000
 19       0.000000000000
 20       0.000000000000
 21       0.000000000000
 22       0.000000000000
 23       0.000000000000
 24       0.000000000000
 25       0.000000000000
 26       0.000000000000
 27       0.000000000000
 28       0.000000000000
 29       0.000000000000
 30       0.000000000000
 31       0.000000000000
 32       0.000000000000
 33       0.000000000000
 34       0.000000000000
 35       0.000000000000
 36       0.000000000000
 37       0.000000000000
 38       0.000000000000
 39       0.000000000000
 40       0.000000000000
 41       0.000000000000
 42       0.000000000000
 43       0.000000000000
 44       0.000000000000
 45       0.000000000000
 46       0.000000000000
 47       0.000000000000
 48       0.000000000000
 49       0.000000000000
 50       0.000000000000
 51       0.000000000000
 52       0.000000000000
 53       0.000000000000
 54       0.000000000000
 55       0.000000000000
 56       0.000000000000
 57       0.000000000000
 58       0.000000000000
 59       0.000000000000
 60       0.000000000000
 61       0.000000000000
 62       0.000000000000
 63       0.000000000000
 64       0.000000000000
 65       0.000000000000
 66       0.000000000000
 67       0.000000000000
 68       0.000000000000
 69       0.000000000000
 70       0.000000000000
 71       0.000000000000
 72       0.000000000000
 73       0.000000000000
 74       0.000000000000
 75       0.000000000000
 76       0.000000000000
 77       0.000000000000
 78       0.000000000000
 79       0.000000000000
 80       0.000000000000
 81       0.000000000000
 82       0.000000000000
 83       0.000000000000
 84       0.000000000000
 85       0.000000000000
 86       0.000000000000
 87       0.000000000000
 88       0.000000000000
 89       0.000000000000
 90       0.000000000000
 91       0.000000000000
 92       0.000000000000
 93       0.000000000000
 94       0.000000000000
 95       0.000000000000
 96       0.000000000000
 97       0.000000000000
 98       0.000000000000
 99       0.000000000000
100       0.000000000000
101       0.000000000000
102       0.000000000000
103       0.000000000000
104       0.000000000000
105       0.000000000000
106       0.000000000000
107       0.000000000000
108       0.000000000000
109       0.000000000000
110       0.000000000000
111       0.000000000000
112       0.000000000000
113       0.000000000000
114       0.000000000000
115       0.000000000000
116       0.000000000000
117       0.000000000000
118       0.000000000000
119       0.000000000000
120       0.000000000000
121       1.000000000000
122       0.000000000000
123       0.000000000000
124       0.000000000000
125       0.000000000000
126       0.000000000000
127       0.000000000000
128       0.000000000000
129       0.000000000000
130       0.000000000000
131       0.000000000000
132       0.000000000000
133       0.000000000000
134       0.000000000000
135       0.000000000000
136       0.000000000000
137       0.000000000000
138       0.000000000000
139       0.000000000000
140       0.000000000000
141       0.000000000000
142       0.000000000000
143       0.000000000000
144       0.000000000000
145       0.000000000000
146       0.000000000000
147       0.000000000000
148       0.000000000000
149       0.000000000000
150       0.000000000000
151       0.000000000000
152       0.000000000000
153       0.000000000000
154       0.000000000000
155       0.000000000000
156       0.000000000000
157       0.000000000000
158       0.000000000000
159       0.000000000000
160       0.000000000000
161       0.000000000000
162       0.000000000000
163       0.000000000000
164       0.000000000000
165       0.000000000000
166       0.000000000000
167       0.000000000000
168       0.000000000000
169       0.000000000000
170       0.000000000000
171       0.000000000000
172       0.000000000000
 Sym=     1a
 Ene=  2.68561722883609E+00
Spin= Alpha
 Occup= 0.023463
  1       0.000000000000
  2       0.000000000000
  3       0.000000000000
  4       0.000000000000
  5       0.000000000000
  6       0.000000000000
  7       0.000000000000
  8       0.000000000000
  9       0.000000000000
 10       0.000000000000
 11       0.000000000000
 12       0.000000000000
 13       0.000000000000
 14       0.000000000000
 15       0.000000000000
 16       0.000000000000
 17       0.000000000000
 18       0.000000000000
 19       0.000000000000
 20       0.000000000000
 21       0.000000000000
 22       0.000000000000
 23       0.000000000000
 24       0.000000000000
 25       0.000000000000
 26       0.000000000000
 27       0.000000000000
 28       0.000000000000
 29       0.000000000000
 30       0.000000000000
 31       0.000000000000
 32       0.000000000000
 33       0.000000000000
 34       0.000000000000
 35       0.000000000000
 36       0.000000000000
 37       0.000000000000
 38       0.000000000000
 39       0.000000000000
 40       0.000000000000
 41       0.000000000000
 42       0.000000000000
 43       0.000000000000
 44       0.000000000000
 45       0.000000000000
 46       0.000000000000
 47       0.000000000000
 48       0.000000000000
 49       0.000000000000
 50       0.000000000000
 51       0.000000000000
 52       0.000000000000
 53       0.000000000000
 54       0.000000000000
 55       0.000000000000
 56       0.000000000000
 57       0.000000000000
 58       0.000000000000
 59       0.000000000000
 60       0.000000000000
 61       0.000000000000
 62       0.000000000000
 63       0.000000000000
 64       0.000000000000
 65       0.000000000000
 66       0.000000000000
 67       0.000000000000
 68       0.000000000000
 69       0.000000000000
 70       0.000000000000
 71       0.000000000000
 72       0.000000000000
 73       0.000000000000
 74       0.000000000000
 75       0.000000000000
 76       0.000000000000
 77       0.000000000000
 78       0.000000000000
 79       0.000000000000
 80       0.000000000000
 81       0.000000000000
 82       0.000000000000
 83       0.000000000000
 84       0.000000000000
 85       0.000000000000
 86       0.000000000000
 87       0.000000000000
 88       0.000000000000
 89       0.000000000000
 90       0.000000000000
 91       0.000000000000
 92       0.000000000000
 93       0.000000000000
 94       0.000000000000
 95       0.000000000000
 96       0.000000000000
 97       0.000000000000
 98       0.000000000000
 99       0.000000000000
100       0.000000000000
101       0.000000000000
102       0.000000000000
103       0.000000000000
104       0.000000000000
105       0.000000000000
106       0.000000000000
107       0.000000000000
108       0.000000000000
109       0.000000000000
110       0.000000000000
111       0.000000000000
112       0.000000000000
113       0.000000000000
114       0.000000000000
115       0.000000000000
116       0.000000000000
117       0.000000000000
118       0.000000000000
119       0.000000000000
120       0.000000000000
121       0.000000000000
122       1.000000000000
123       0.000000000000
124       0.000000000000
125       0.000000000000
126       0.000000000000
127       0.000000000000
128       0.000000000000
129       0.000000000000
130       0.000000000000
131       0.000000000000
132       0.000000000000
133       0.000000000000
134       0.000000000000
135       0.000000000000
136       0.000000000000
137       0.000000000000
138       0.000000000000
139       0.000000000000
140       0.000000000000
141       0.000000000000
142       0.000000000000
143       0.000000000000
144       0.000000000000
145       0.000000000000
146       0.000000000000
147       0.000000000000
148       0.000000000000
149       0.000000000000
150       0.000000000000
151       0.000000000000
152       0.000000000000
153       0.000000000000
154       0.000000000000
155       0.000000000000
156       0.000000000000
157       0.000000000000
158       0.000000000000
159       0.000000000000
160       0.000000000000
161       0.000000000000
162       0.000000000000
163       0.000000000000
164       0.000000000000
165       0.000000000000
166       0.000000000000
167       0.000000000000
168       0.000000000000
169       0.000000000000
170       0.000000000000
171       0.000000000000
172       0.000000000000
 Sym=     1a
 Ene=  2.52391341062688E+00
Spin= Alpha
 Occup= 0.023463
  1       0.000000000000
  2       0.000000000000
  3       0.000000000000
  4       0.000000000000
  5       0.000000000000
  6       0.000000000000
  7       0.000000000000
  8       0.000000000000
  9       0.000000000000
 10       0.000000000000
 11       0.000000000000
 12       0.000000000000
 13       0.000000000000
 14       0.000000000000
 15       0.000000000000
 16       0.000000000000
 17       0.000000000000
 18       0.000000000000
 19       0.000000000000
 20       0.000000000000
 21       0.000000000000
 22       0.000000000000
 23       0.000000000000
 24       0.000000000000
 25       0.000000000000
 26       0.000000000000
 27       0.000000000000
 28       0.000000000000
 29       0.000000000000
 30       0.000000000000
 31       0.000000000000
 32       0.000000000000
 33       0.000000000000
 34       0.000000000000
 35       0.000000000000
 36       0.000000000000
 37       0.000000000000
 38       0.000000000000
 39       0.000000000000
 40       0.000000000000
 41       0.000000000000
 42       0.000000000000
 43       0.000000000000
 44       0.000000000000
 45       0.000000000000
 46       0.000000000000
 47       0.000000000000
 48       0.000000000000
 49       0.000000000000
 50       0.000000000000
 51       0.000000000000
 52       0.000000000000
 53       0.000000000000
 54       0.000000000000
 55       0.000000000000
 56       0.000000000000
 57       0.000000000000
 58       0.000000000000
 59       0.000000000000
 60       0.000000000000
 61       0.000000000000
 62       0.000000000000
 63       0.000000000000
 64       0.000000000000
 65       0.000000000000
 66       0.000000000000
 67       0.000000000000
 68       0.000000000000
 69       0.000000000000
 70       0.000000000000
 71       0.000000000000
 72       0.000000000000
 73       0.000000000000
 74       0.000000000000
 75       0.000000000000
 76       0.000000000000
 77       0.000000000000
 78       0.000000000000
 79       0.000000000000
 80       0.000000000000
 81       0.000000000000
 82       0.000000000000
 83       0.000000000000
 84       0.000000000000
 85       0.000000000000
 86       0.000000000000
 87       0.000000000000
 88       0.000000000000
 89       0.000000000000
 90       0.000000000000
 91       0.000000000000
 92       0.000000000000
 93       0.000000000000
 94       0.000000000000
 95       0.000000000000
 96       0.000000000000
 97       0.000000000000
 98       0.000000000000
 99       0.000000000000
100       0.000000000000
101       0.000000000000
102       0.000000000000
103       0.000000000000
104       0.000000000000
105       0.000000000000
106       0.000000000000
107       0.000000000000
108       0.000000000000
109       0.000000000000
110       0.000000000000
111       0.000000000000
112       0.000000000000
113       0.000000000000
114       0.000000000000
115       0.000000000000
116       0.000000000000
117       0.000000000000
118       0.000000000000
119       0.000000000000
120       0.000000000000
121       0.000000000000
122       0.000000000000
123       1.000000000000
124       0.000000000000
125       0.000000000000
126       0.000000000000
127       0.000000000000
128       0.000000000000
129       0.000000000000
130       0.000000000000
131       0.000000000000
132       0.000000000000
133       0.000000000000
134       0.000000000000
135       0.000000000000
136       0.000000000000
137       0.000000000000
138       0.000000000000
139       0.000000000000
140       0.000000000000
141       0.000000000000
142       0.000000000000
143       0.000000000000
144       0.000000000000
145       0.000000000000
146       0.000000000000
147       0.000000000000
148       0.000000000000
149       0.000000000000
150       0.000000000000
151       0.000000000000
152       0.000000000000
153       0.000000000000
154       0.000000000000
155       0.000000000000
156       0.000000000000
157       0.000000000000
158       0.000000000000
159       0.000000000000
160       0.000000000000
161       0.000000000000
162       0.000000000000
163       0.000000000000
164       0.000000000000
165       0.000000000000
166       0.000000000000
167       0.000000000000
168       0.000000000000
169       0.000000000000
170       0.000000000000
171       0.000000000000
172       0.000000000000
 Sym=     1a
 Ene=  2.32874624712508E+00
Spin= Alpha
 Occup= 0.023463
  1       0.000000000000
  2       0.000000000000
  3       0.000000000000
  4       0.000000000000
  5       0.000000000000
  6       0.000000000000
  7       0.000000000000
  8       0.000000000000
  9       0.000000000000
 10       0.000000000000
 11       0.000000000000
 12       0.000000000000
 13       0.000000000000
 14       0.000000000000
 15       0.000000000000
 16       0.000000000000
 17       0.000000000000
 18       0.000000000000
 19       0.000000000000
 20       0.000000000000
 21       0.000000000000
 22       0.000000000000
 23       0.000000000000
 24       0.000000000000
 25       0.000000000000
 26       0.000000000000
 27       0.000000000000
 28       0.000000000000
 29       0.000000000000
 30       0.000000000000
 31       0.000000000000
 32       0.000000000000
 33       0.000000000000
 34       0.000000000000
 35       0.000000000000
 36       0.000000000000
 37       0.000000000000
 38       0.000000000000
 39       0.000000000000
 40       0.000000000000
 41       0.000000000000
 42       0.000000000000
 43       0.000000000000
 44       0.000000000000
 45       0.000000000000
 46       0.000000000000
 47       0.000000000000
 48       0.000000000000
 49       0.000000000000
 50       0.000000000000
 51       0.000000000000
 52       0.000000000000
 53       0.000000000000
 54       0.000000000000
 55       0.000000000000
 56       0.000000000000
 57       0.000000000000
 58       0.000000000000
 59       0.000000000000
 60       0.000000000000
 61       0.000000000000
 62       0.000000000000
 63       0.000000000000
 64       0.000000000000
 65       0.000000000000
 66       0.000000000000
 67       0.000000000000
 68       0.000000000000
 69       0.000000000000
 70       0.000000000000
 71       0.000000000000
 72       0.000000000000
 73       0.000000000000
 74       0.000000000000
 75       0.000000000000
 76       0.000000000000
 77       0.000000000000
 78       0.000000000000
 79       0.000000000000
 80       0.000000000000
 81       0.000000000000
 82       0.000000000000
 83       0.000000000000
 84       0.000000000000
 85       0.000000000000
 86       0.000000000000
 87       0.000000000000
 88       0.000000000000
 89       0.000000000000
 90       0.000000000000
 91       0.000000000000
 92       0.000000000000
 93       0.000000000000
 94       0.000000000000
 95       0.000000000000
 96       0.000000000000
 97       0.000000000000
 98       0.000000000000
 99       0.000000000000
100       0.000000000000
101       0.000000000000
102       0.000000000000
103       0.000000000000
104       0.000000000000
105       0.000000000000
106       0.000000000000
107       0.000000000000
108       0.000000000000
109       0.000000000000
110       0.000000000000
111       0.000000000000
112       0.000000000000
113       0.000000000000
114       0.000000000000
115       0.000000000000
116       0.000000000000
117       0.000000000000
118       0.000000000000
119       0.000000000000
120       0.000000000000
121       0.000000000000
122       0.000000000000
123       0.000000000000
124       1.000000000000
125       0.000000000000
126       0.000000000000
127       0.000000000000
128       0.000000000000
129       0.000000000000
130       0.000000000000
131       0.000000000000
132       0.000000000000
133       0.000000000000
134       0.000000000000
135       0.000000000000
136       0.000000000000
137       0.000000000000
138       0.000000000000
139       0.000000000000
140       0.000000000000
141       0.000000000000
142       0.000000000000
143       0.000000000000
144       0.000000000000
145       0.000000000000
146       0.000000000000
147       0.000000000000
148       0.000000000000
149       0.000000000000
150       0.000000000000
151       0.000000000000
152       0.000000000000
153       0.000000000000
154       0.000000000000
155       0.000000000000
156       0.000000000000
157       0.000000000000
158       0.000000000000
159       0.000000000000
160       0.000000000000
161       0.000000000000
162       0.000000000000
163       0.000000000000
164       0.000000000000
165       0.000000000000
166       0.000000000000
167       0.000000000000
168       0.000000000000
169       0.000000000000
170       0.000000000000
171       0.000000000000
172       0.000000000000
 Sym=     1a
 Ene=  2.15841374262718E+00
Spin= Alpha
 Occup= 0.018666
  1       0.000000000000
  2       0.000000000000
  3       0.000000000000
  4       0.000000000000
  5       0.000000000000
  6       0.000000000000
  7       0.000000000000
  8       0.000000000000
  9       0.000000000000
 10       0.000000000000
 11       0.000000000000
 12       0.000000000000
 13       0.000000000000
 14       0.000000000000
 15       0.000000000000
 16       0.000000000000
 17       0.000000000000
 18       0.000000000000
 19       0.000000000000
 20       0.000000000000
 21       0.000000000000
 22       0.000000000000
 23       0.000000000000
 24       0.000000000000
 25       0.000000000000
 26       0.000000000000
 27       0.000000000000
 28       0.000000000000
 29       0.000000000000
 30       0.000000000000
 31       0.000000000000
 32       0.000000000000
 33       0.000000000000
 34       0.000000000000
 35       0.000000000000
 36       0.000000000000
 37       0.000000000000
 38       0.000000000000
 39       0.000000000000
 40       0.000000000000
 41       0.000000000000
 42       0.000000000000
 43       0.000000000000
 44       0.000000000000
 45       0.000000000000
 46       0.000000000000
 47       0.000000000000
 48       0.000000000000
 49       0.000000000000
 50       0.000000000000
 51       0.000000000000
 52       0.000000000000
 53       0.000000000000
 54       0.000000000000
 55       0.000000000000
 56       0.000000000000
 57       0.000000000000
 58       0.000000000000
 59       0.000000000000
 60       0.000000000000
 61       0.000000000000
 62       0.000000000000
 63       0.000000000000
 64       0.000000000000
 65       0.000000000000
 66       0.000000000000
 67       0.000000000000
 68       0.000000000000
 69       0.000000000000
 70       0.000000000000
 71       0.000000000000
 72       0.000000000000
 73       0.000000000000
 74       0.000000000000
 75       0.000000000000
 76       0.000000000000
 77       0.000000000000
 78       0.000000000000
 79       0.000000000000
 80       0.000000000000
 81       0.000000000000
 82       0.000000000000
 83       0.000000000000
 84       0.000000000000
 85       0.000000000000
 86       0.000000000000
 87       0.000000000000
 88       0.000000000000
 89       0.000000000000
 90       0.000000000000
 91       0.000000000000
 92       0.000000000000
 93       0.000000000000
 94       0.000000000000
 95       0.000000000000
 96       0.000000000000
 97       0.000000000000
 98       0.000000000000
 99       0.000000000000
100       0.000000000000
101       0.000000000000
102       0.000000000000
103       0.000000000000
104       0.000000000000
105       0.000000000000
106       0.000000000000
107       0.000000000000
108       0.000000000000
109       0.000000000000
110       0.000000000000
111       0.000000000000
112       0.000000000000
113       0.000000000000
114       0.000000000000
115       0.000000000000
116       0.000000000000
117       0.000000000000
118       0.000000000000
119       0.000000000000
120       0.000000000000
121       0.000000000000
122       0.000000000000
123       0.000000000000
124       0.000000000000
125      -1.547365832006
126       1.621998103394
127      -0.592343359781
128       0.000000000000
129       0.000000000000
130       0.000000000000
131       0.000000000000
132       0.000000000000
133       0.000000000000
134       0.000000000000
135       0.000000000000
136       0.000000000000
137       0.000000000000
138       0.000000000000
139       0.000000000000
140       0.000000000000
141       0.000000000000
142       0.000000000000
143       0.000000000000
144       0.000000000000
145       0.000000000000
146       0.000000000000
147       0.000000000000
148       0.000000000000
149       0.000000000000
150       0.000000000000
151       0.000000000000
152       0.000000000000
153       0.000000000000
154       0.000000000000
155       0.000000000000
156       0.000000000000
157       0.000000000000
158       0.000000000000
159       0.000000000000
160       0.000000000000
161       0.000000000000
162       0.000000000000
163       0.000000000000
164       0.000000000000
165       0.000000000000
166       0.000000000000
167       0.000000000000
168       0.000000000000
169       0.000000000000
170       0.000000000000
171       0.000000000000
172       0.000000000000
 Sym=     1a
 Ene=  9.25970719198231E-02
Spin= Alpha
 Occup= 0.492113
  1       0.000000000000
  2       0.000000000000
  3       0.000000000000
  4       0.000000000000
  5       0.000000000000
  6       0.000000000000
  7       0.000000000000
  8       0.000000000000
  9       0.000000000000
 10       0.000000000000
 11       0.000000000000
 12       0.000000000000
 13       0.000000000000
 14       0.000000000000
 15       0.000000000000
 16       0.000000000000
 17       0.000000000000
 18       0.000000000000
 19       0.000000000000
 20       0.000000000000
 21       0.000000000000
 22       0.000000000000
 23       0.000000000000
 24       0.000000000000
 25       0.000000000000
 26       0.000000000000
 27       0.000000000000
 28       0.000000000000
 29       0.000000000000
 30       0.000000000000
 31       0.000000000000
 32       0.000000000000
 33       0.000000000000
 34       0.000000000000
 35       0.000000000000
 36       0.000000000000
 37       0.000000000000
 38       0.000000000000
 39       0.000000000000
 40       0.000000000000
 41       0.000000000000
 42       0.000000000000
 43       0.000000000000
 44       0.000000000000
 45       0.000000000000
 46       0.000000000000
 47       0.000000000000
 48       0.000000000000
 49       0.000000000000
 50       0.000000000000
 51       0.000000000000
 52       0.000000000000
 53       0.000000000000
 54       0.000000000000
 55       0.000000000000
 56       0.000000000000
 57       0.000000000000
 58       0.000000000000
 59       0.000000000000
 60       0.000000000000
 61       0.000000000000
 62       0.000000000000
 63       0.000000000000
 64       0.000000000000
 65       0.000000000000
 66       0.000000000000
 67       0.000000000000
 68       0.000000000000
 69       0.000000000000
 70       0.000000000000
 71       0.000000000000
 72       0.000000000000
 73       0.000000000000
 74       0.000000000000
 75       0.000000000000
 76       0.000000000000
 77       0.000000000000
 78       0.000000000000
 79       0.000000000000
 80       0.000000000000
 81       0.000000000000
 82       0.000000000000
 83       0.000000000000
 84       0.000000000000
 85       0.000000000000
 86       0.000000000000
 87       0.000000000000
 88       0.000000000000
 89       0.000000000000
 90       0.000000000000
 91       0.000000000000
 92       0.000000000000
 93       0.000000000000
 94       0.000000000000
 95       0.000000000000
 96       0.000000000000
 97       0.000000000000
 98       0.000000000000
 99       0.000000000000
100       0.000000000000
101       0.000000000000
102       0.000000000000
103       0.000000000000
104       0.000000000000
105       0.000000000000
106       0.000000000000
107       0.000000000000
108       0.000000000000
109       0.000000000000
110       0.000000000000
111       0.000000000000
112       0.000000000000
113       0.000000000000
114       0.000000000000
115       0.000000000000
116       0.000000000000
117       0.000000000000
118       0.000000000000
119       0.000000000000
120       0.000000000000
121       0.000000000000
122       0.000000000000
123       0.000000000000
124       0.000000000000
125       0.148483979653
126      -1.482470961996
127       1.689474911751
128       0.000000000000
129       0.000000000000
130       0.000000000000
131       0.000000000000
132       0.000000000000
133       0.000000000000
134       0.000000000000
135       0.000000000000
136       0.000000000000
137       0.000000000000
138       0.000000000000
139       0.000000000000
140       0.000000000000
141       0.000000000000
142       0.000000000000
143       0.000000000000
144       0.000000000000
145       0.000000000000
146       0.000000000000
147       0.000000000000
148       0.000000000000
149       0.000000000000
150       0.000000000000
151       0.000000000000
152       0.000000000000
153       0.000000000000
154       0.000000000000
155       0.000000000000
156       0.000000000000
157       0.000000000000
158       0.000000000000
159       0.000000000000
160       0.000000000000
161       0.000000000000
162       0.000000000000
163       0.000000000000
164       0.000000000000
165       0.000000000000
166       0.000000000000
167       0.000000000000
168       0.000000000000
169       0.000000000000
170       0.000000000000
171       0.000000000000
172       0.000000000000
 Sym=     1a
 Ene= -5.00666334306370E-01
Spin= Alpha
 Occup= 1.655125
  1       0.000000000000
  2       0.000000000000
  3       0.000000000000
  4       0.000000000000
  5       0.000000000000
  6       0.000000000000
  7       0.000000000000
  8       0.000000000000
  9       0.000000000000
 10       0.000000000000
 11       0.000000000000
 12       0.000000000000
 13       0.000000000000
 14       0.000000000000
 15       0.000000000000
 16       0.000000000000
 17       0.000000000000
 18       0.000000000000
 19       0.000000000000
 20       0.000000000000
 21       0.000000000000
 22       0.000000000000
 23       0.000000000000
 24       0.000000000000
 25       0.000000000000
 26       0.000000000000
 27       0.000000000000
 28       0.000000000000
 29       0.000000000000
 30       0.000000000000
 31       0.000000000000
 32       0.000000000000
 33       0.000000000000
 34       0.000000000000
 35       0.000000000000
 36       0.000000000000
 37       0.000000000000
 38       0.000000000000
 39       0.000000000000
 40       0.000000000000
 41       0.000000000000
 42       0.000000000000
 43       0.000000000000
 44       0.000000000000
 45       0.000000000000
 46       0.000000000000
 47       0.000000000000
 48       0.000000000000
 49       0.000000000000
 50       0.000000000000
 51       0.000000000000
 52       0.000000000000
 53       0.000000000000
 54       0.000000000000
 55       0.000000000000
 56       0.000000000000
 57       0.000000000000
 58       0.000000000000
 59       0.000000000000
 60       0.000000000000
 61       0.000000000000
 62       0.000000000000
 63       0.000000000000
 64       0.000000000000
 65       0.000000000000
 66       0.000000000000
 67       0.000000000000
 68       0.000000000000
 69       0.000000000000
 70       0.000000000000
 71       0.000000000000
 72       0.000000000000
 73       0.000000000000
 74       0.000000000000
 75       0.000000000000
 76       0.000000000000
 77       0.000000000000
 78       0.000000000000
 79       0.000000000000
 80       0.000000000000
 81       0.000000000000
 82       0.000000000000
 83       0.000000000000
 84       0.000000000000
 85       0.000000000000
 86       0.000000000000
 87       0.000000000000
 88       0.000000000000
 89       0.000000000000
 90       0.000000000000
 91       0.000000000000
 92       0.000000000000
 93       0.000000000000
 94       0.000000000000
 95       0.000000000000
 96       0.000000000000
 97       0.000000000000
 98       0.000000000000
 99       0.000000000000
100       0.000000000000
101       0.000000000000
102       0.000000000000
103       0.000000000000
104       0.000000000000
105       0.000000000000
106       0.000000000000
107       0.000000000000
108       0.000000000000
109       0.000000000000
110       0.000000000000
111       0.000000000000
112       0.000000000000
113       0.000000000000
114       0.000000000000
115       0.000000000000
116       0.000000000000
117       0.000000000000
118       0.000000000000
119       0.000000000000
120       0.000000000000
121       0.000000000000
122       0.000000000000
123       0.000000000000
124       0.000000000000
125       0.103075266632
126       0.834744149625
127       0.113497603026
128       0.000000000000
129       0.000000000000
130       0.000000000000
131       0.000000000000
132       0.000000000000
133       0.000000000000
134       0.000000000000
135       0.000000000000
136       0.000000000000
137       0.000000000000
138       0.000000000000
139       0.000000000000
140       0.000000000000
141       0.000000000000
142       0.000000000000
143       0.000000000000
144       0.000000000000
145       0.000000000000
146       0.000000000000
147       0.000000000000
148       0.000000000000
149       0.000000000000
150       0.000000000000
151       0.000000000000
152       0.000000000000
153       0.000000000000
154       0.000000000000
155       0.000000000000
156       0.000000000000
157       0.000000000000
158       0.000000000000
159       0.000000000000
160       0.000000000000
161       0.000000000000
162       0.000000000000
163       0.000000000000
164       0.000000000000
165       0.000000000000
166       0.000000000000
167       0.000000000000
168       0.000000000000
169       0.000000000000
170       0.000000000000
171       0.000000000000
172       0.000000000000
 Sym=     1a
 Ene=  1.41961740008296E+00
Spin= Alpha
 Occup= 0.113434
  1       0.000000000000
  2       0.000000000000
  3       0.000000000000
  4       0.000000000000
  5       0.000000000000
  6       0.000000000000
  7       0.000000000000
  8       0.000000000000
  9       0.000000000000
 10       0.000000000000
 11       0.000000000000
 12       0.000000000000
 13       0.000000000000
 14       0.000000000000
 15       0.000000000000
 16       0.000000000000
 17       0.000000000000
 18       0.000000000000
 19       0.000000000000
 20       0.000000000000
 21       0.000000000000
 22       0.000000000000
 23       0.000000000000
 24       0.000000000000
 25       0.000000000000
 26       0.000000000000
 27       0.000000000000
 28       0.000000000000
 29       0.000000000000
 30       0.000000000000
 31       0.000000000000
 32       0.000000000000
 33       0.000000000000
 34       0.000000000000
 35       0.000000000000
 36       0.000000000000
 37       0.000000000000
 38       0.000000000000
 39       0.000000000000
 40       0.000000000000
 41       0.000000000000
 42       0.000000000000
 43       0.000000000000
 44       0.000000000000
 45       0.000000000000
 46       0.000000000000
 47       0.000000000000
 48       0.000000000000
 49       0.000000000000
 50       0.000000000000
 51       0.000000000000
 52       0.000000000000
 53       0.000000000000
 54       0.000000000000
 55       0.000000000000
 56       0.000000000000
 57       0.000000000000
 58       0.000000000000
 59       0.000000000000
 60       0.000000000000
 61       0.000000000000
 62       0.000000000000
 63       0.000000000000
 64       0.000000000000
 65       0.000000000000
 66       0.000000000000
 67       0.000000000000
 68       0.000000000000
 69       0.000000000000
 70       0.000000000000
 71       0.000000000000
 72       0.000000000000
 73       0.000000000000
 74       0.000000000000
 75       0.000000000000
 76       0.000000000000
 77       0.000000000000
 78       0.000000000000
 79       0.000000000000
 80       0.000000000000
 81       0.000000000000
 82       0.000000000000
 83       0.000000000000
 84       0.000000000000
 85       0.000000000000
 86       0.000000000000
 87       0.000000000000
 88       0.000000000000
 89       0.000000000000
 90       0.000000000000
 91       0.000000000000
 92       0.000000000000
 93       0.000000000000
 94       0.000000000000
 95       0.000000000000
 96       0.000000000000
 97       0.000000000000
 98       0.000000000000
 99       0.000000000000
100       0.000000000000
101       0.000000000000
102       0.000000000000
103       0.000000000000
104       0.000000000000
105       0.000000000000
106       0.000000000000
107       0.000000000000
108       0.000000000000
109       0.000000000000
110       0.000000000000
111       0.000000000000
112       0.000000000000
113       0.000000000000
114       0.000000000000
115       0.000000000000
116       0.000000000000
117       0.000000000000
118       0.000000000000
119       0.000000000000
120       0.000000000000
121       0.000000000000
122       0.000000000000
123       0.000000000000
124       0.000000000000
125       0.000000000000
126       0.000000000000
127       0.000000000000
128       1.000000000000
129       0.000000000000
130       0.000000000000
131       0.000000000000
132       0.000000000000
133       0.000000000000
134       0.000000000000
135       0.000000000000
136       0.000000000000
137       0.000000000000
138       0.000000000000
139       0.000000000000
140       0.000000000000
141       0.000000000000
142       0.000000000000
143       0.000000000000
144       0.000000000000
145       0.000000000000
146       0.000000000000
147       0.000000000000
148       0.000000000000
149       0.000000000000
150       0.000000000000
151       0.000000000000
152       0.000000000000
153       0.000000000000
154       0.000000000000
155       0.000000000000
156       0.000000000000
157       0.000000000000
158       0.000000000000
159       0.000000000000
160       0.000000000000
161       0.000000000000
162       0.000000000000
163       0.000000000000
164       0.000000000000
165       0.000000000000
166       0.000000000000
167       0.000000000000
168       0.000000000000
169       0.000000000000
170       0.000000000000
171       0.000000000000
172       0.000000000000
 Sym=     1a
 Ene=  1.30419276018381E+00
Spin= Alpha
 Occup= 0.113434
  1       0.000000000000
  2       0.000000000000
  3       0.000000000000
  4       0.000000000000
  5       0.000000000000
  6       0.000000000000
  7       0.000000000000
  8       0.000000000000
  9       0.000000000000
 10       0.000000000000
 11       0.000000000000
 12       0.000000000000
 13       0.000000000000
 14       0.000000000000
 15       0.000000000000
 16       0.000000000000
 17       0.000000000000
 18       0.000000000000
 19       0.000000000000
 20       0.000000000000
 21       0.000000000000
 22       0.000000000000
 23       0.000000000000
 24       0.000000000000
 25       0.000000000000
 26       0.000000000000
 27       0.000000000000
 28       0.000000000000
 29       0.000000000000
 30       0.000000000000
 31       0.000000000000
 32       0.000000000000
 33       0.000000000000
 34       0.000000000000
 35       0.000000000000
 36       0.000000000000
 37       0.000000000000
 38       0.000000000000
 39       0.000000000000
 40       0.000000000000
 41       0.000000000000
 42       0.000000000000
 43       0.000000000000
 44       0.000000000000
 45       0.000000000000
 46       0.000000000000
 47       0.000000000000
 48       0.000000000000
 49       0.000000000000
 50       0.000000000000
 51       0.000000000000
 52       0.000000000000
 53       0.000000000000
 54       0.000000000000
 55       0.000000000000
 56       0.000000000000
 57       0.000000000000
 58       0.000000000000
 59       0.000000000000
 60       0.000000000000
 61       0.000000000000
 62       0.000000000000
 63       0.000000000000
 64       0.000000000000
 65       0.000000000000
 66       0.000000000000
 67       0.000000000000
 68       0.000000000000
 69       0.000000000000
 70       0.000000000000
 71       0.000000000000
 72       0.000000000000
 73       0.000000000000
 74       0.000000000000
 75       0.000000000000
 76       0.000000000000
 77       0.000000000000
 78       0.000000000000
 79       0.000000000000
 80       0.000000000000
 81       0.000000000000
 82       0.000000000000
 83       0.000000000000
 84       0.000000000000
 85       0.000000000000
 86       0.000000000000
 87       0.000000000000
 88       0.000000000000
 89       0.000000000000
 90       0.000000000000
 91       0.000000000000
 92       0.000000000000
 93       0.000000000000
 94       0.000000000000
 95       0.000000000000
 96       0.000000000000
 97       0.000000000000
 98       0.000000000000
 99       0.000000000000
100       0.000000000000
101       0.000000000000
102       0.000000000000
103       0.000000000000
104       0.000000000000
105       0.000000000000
106       0.000000000000
107       0.000000000000
108       0.000000000000
109       0.000000000000
110       0.000000000000
111       0.000000000000
112       0.000000000000
113       0.000000000000
114       0.000000000000
115       0.000000000000
116       0.000000000000
117       0.000000000000
118       0.000000000000
119       0.000000000000
120       0.000000000000
121       0.000000000000
122       0.000000000000
123       0.000000000000
124       0.000000000000
125       0.000000000000
126       0.000000000000
127       0.000000000000
128       0.000000000000
129       1.000000000000
130       0.000000000000
131       0.000000000000
132       0.000000000000
133       0.000000000000
134       0.000000000000
135       0.000000000000
136       0.000000000000
137       0.000000000000
138       0.000000000000
139       0.000000000000
140       0.000000000000
141       0.000000000000
142       0.000000000000
143       0.000000000000
144       0.000000000000
145       0.000000000000
146       0.000000000000
147       0.000000000000
148       0.000000000000
149       0.000000000000
150       0.000000000000
151       0.000000000000
152       0.000000000000
153       0.000000000000
154       0.000000000000
155       0.000000000000
156       0.000000000000
157       0.000000000000
158       0.000000000000
159       0.000000000000
160       0.000000000000
161       0.000000000000
162       0.000000000000
163       0.000000000000
164       0.000000000000
165       0.000000000000
166       0.000000000000
167       0.000000000000
168       0.000000000000
169       0.000000000000
170       0.000000000000
171       0.000000000000
172       0.000000000000
 Sym=     1a
 Ene=  1.20848569067436E+00
Spin= Alpha
 Occup= 0.113434
  1       0.000000000000
  2       0.000000000000
  3       0.000000000000
  4       0.000000000000
  5       0.000000000000
  6       0.000000000000
  7       0.000000000000
  8       0.000000000000
  9       0.000000000000
 10       0.000000000000
 11       0.000000000000
 12       0.000000000000
 13       0.000000000000
 14       0.000000000000
 15       0.000000000000
 16       0.000000000000
 17       0.000000000000
 18       0.000000000000
 19       0.000000000000
 20       0.000000000000
 21       0.000000000000
 22       0.000000000000
 23       0.000000000000
 24       0.000000000000
 25       0.000000000000
 26       0.000000000000
 27       0.000000000000
 28       0.000000000000
 29       0.000000000000
 30       0.000000000000
 31       0.000000000000
 32       0.000000000000
 33       0.000000000000
 34       0.000000000000
 35       0.000000000000
 36       0.000000000000
 37       0.000000000000
 38       0.000000000000
 39       0.000000000000
 40       0.000000000000
 41       0.000000000000
 42       0.000000000000
 43       0.000000000000
 44       0.000000000000
 45       0.000000000000
 46       0.000000000000
 47       0.000000000000
 48       0.000000000000
 49       0.000000000000
 50       0.000000000000
 51       0.000000000000
 52       0.000000000000
 53       0.000000000000
 54       0.000000000000
 55       0.000000000000
 56       0.000000000000
 57       0.000000000000
 58       0.000000000000
 59       0.000000000000
 60       0.000000000000
 61       0.000000000000
 62       0.000000000000
 63       0.000000000000
 64       0.000000000000
 65       0.000000000000
 66       0.000000000000
 67       0.000000000000
 68       0.000000000000
 69       0.000000000000
 70       0.000000000000
 71       0.000000000000
 72       0.000000000000
 73       0.000000000000
 74       0.000000000000
 75       0.000000000000
 76       0.000000000000
 77       0.000000000000
 78       0.000000000000
 79       0.000000000000
 80       0.000000000000
 81       0.000000000000
 82       0.000000000000
 83       0.000000000000
 84       0.000000000000
 85       0.000000000000
 86       0.000000000000
 87       0.000000000000
 88       0.000000000000
 89       0.000000000000
 90       0.000000000000
 91       0.000000000000
 92       0.000000000000
 93       0.000000000000
 94       0.000000000000
 95       0.000000000000
 96       0.000000000000
 97       0.000000000000
 98       0.000000000000
 99       0.000000000000
100       0.000000000000
101       0.000000000000
102       0.000000000000
103       0.000000000000
104       0.000000000000
105       0.000000000000
106       0.000000000000
107       0.000000000000
108       0.000000000000
109       0.000000000000
110       0.000000000000
111       0.000000000000
112       0.000000000000
113       0.000000000000
114       0.000000000000
115       0.000000000000
116       0.000000000000
117       0.000000000000
118       0.000000000000
119       0.000000000000
120       0.000000000000
121       0.000000000000
122       0.000000000000
123       0.000000000000
124       0.000000000000
125       0.000000000000
126       0.000000000000
127       0.000000000000
128       0.000000000000
129       0.000000000000
130       1.000000000000
131       0.000000000000
132       0.000000000000
133       0.000000000000
134       0.000000000000
135       0.000000000000
136       0.000000000000
137       0.000000000000
138       0.000000000000
139       0.000000000000
140       0.000000000000
141       0.000000000000
142       0.000000000000
143       0.000000000000
144       0.000000000000
145       0.000000000000
146       0.000000000000
147       0.000000000000
148       0.000000000000
149       0.000000000000
150       0.000000000000
151       0.000000000000
152       0.000000000000
153       0.000000000000
154       0.000000000000
155       0.000000000000
156       0.000000000000
157       0.000000000000
158       0.000000000000
159       0.000000000000
160       0.000000000000
161       0.000000000000
162       0.000000000000
163       0.000000000000
164       0.000000000000
165       0.000000000000
166       0.000000000000
167       0.000000000000
168       0.000000000000
169       0.000000000000
170       0.000000000000
171       0.000000000000
172       0.000000000000
 Sym=     1a
 Ene=  2.15841434253832E+00
Spin= Alpha
 Occup= 0.018666
  1       0.000000000000
  2       0.000000000000
  3       0.000000000000
  4       0.000000000000
  5       0.000000000000
  6       0.000000000000
  7       0.000000000000
  8       0.000000000000
  9       0.000000000000
 10       0.000000000000
 11       0.000000000000
 12       0.000000000000
 13       0.000000000000
 14       0.000000000000
 15       0.000000000000
 16       0.000000000000
 17       0.000000000000
 18       0.000000000000
 19       0.000000000000
 20       0.000000000000
 21       0.000000000000
 22       0.000000000000
 23       0.000000000000
 24       0.000000000000
 25       0.000000000000
 26       0.000000000000
 27       0.000000000000
 28       0.000000000000
 29       0.000000000000
 30       0.000000000000
 31       0.000000000000
 32       0.000000000000
 33       0.000000000000
 34       0.000000000000
 35       0.000000000000
 36       0.000000000000
 37       0.000000000000
 38       0.000000000000
 39       0.000000000000
 40       0.000000000000
 41       0.000000000000
 42       0.000000000000
 43       0.000000000000
 44       0.000000000000
 45       0.000000000000
 46       0.000000000000
 47       0.000000000000
 48       0.000000000000
 49       0.000000000000
 50       0.000000000000
 51       0.000000000000
 52       0.000000000000
 53       0.000000000000
 54       0.000000000000
 55       0.000000000000
 56       0.000000000000
 57       0.000000000000
 58       0.000000000000
 59       0.000000000000
 60       0.000000000000
 61       0.000000000000
 62       0.000000000000
 63       0.000000000000
 64       0.000000000000
 65       0.000000000000
 66       0.000000000000
 67       0.000000000000
 68       0.000000000000
 69       0.000000000000
 70       0.000000000000
 71       0.000000000000
 72       0.000000000000
 73       0.000000000000
 74       0.000000000000
 75       0.000000000000
 76       0.000000000000
 77       0.000000000000
 78       0.000000000000
 79       0.000000000000
 80       0.000000000000
 81       0.000000000000
 82       0.000000000000
 83       0.000000000000
 84       0.000000000000
 85       0.000000000000
 86       0.000000000000
 87       0.000000000000
 88       0.000000000000
 89       0.000000000000
 90       0.000000000000
 91       0.000000000000
 92       0.000000000000
 93       0.000000000000
 94       0.000000000000
 95       0.000000000000
 96       0.000000000000
 97       0.000000000000
 98       0.000000000000
 99       0.000000000000
100       0.000000000000
101       0.000000000000
102       0.000000000000
103       0.000000000000
104       0.000000000000
105       0.000000000000
106       0.000000000000
107       0.000000000000
108       0.000000000000
109       0.000000000000
110       0.000000000000
111       0.000000000000
112       0.000000000000
113       0.000000000000
114       0.000000000000
115       0.000000000000
116       0.000000000000
117       0.000000000000
118       0.000000000000
119       0.000000000000
120       0.000000000000
121       0.000000000000
122       0.000000000000
123       0.000000000000
124       0.000000000000
125       0.000000000000
126       0.000000000000
127       0.000000000000
128       0.000000000000
129       0.000000000000
130       0.000000000000
131      -1.547365960517
132       1.621998761472
133      -0.592344466797
134       0.000000000000
135       0.000000000000
136       0.000000000000
137       0.000000000000
138       0.000000000000
139       0.000000000000
140       0.000000000000
141       0.000000000000
142       0.000000000000
143       0.000000000000
144       0.000000000000
145       0.000000000000
146       0.000000000000
147       0.000000000000
148       0.000000000000
149       0.000000000000
150       0.000000000000
151       0.000000000000
152       0.000000000000
153       0.000000000000
154       0.000000000000
155       0.000000000000
156       0.000000000000
157       0.000000000000
158       0.000000000000
159       0.000000000000
160       0.000000000000
161       0.000000000000
162       0.000000000000
163       0.000000000000
164       0.000000000000
165       0.000000000000
166       0.000000000000
167       0.000000000000
168       0.000000000000
169       0.000000000000
170       0.000000000000
171       0.000000000000
172       0.000000000000
 Sym=     1a
 Ene=  9.25971264699698E-02
Spin= Alpha
 Occup= 0.492112
  1       0.000000000000
  2       0.000000000000
  3       0.000000000000
  4       0.000000000000
  5       0.000000000000
  6       0.000000000000
  7       0.000000000000
  8       0.000000000000
  9       0.000000000000
 10       0.000000000000
 11       0.000000000000
 12       0.000000000000
 13       0.000000000000
 14       0.000000000000
 15       0.000000000000
 16       0.000000000000
 17       0.000000000000
 18       0.000000000000
 19       0.000000000000
 20       0.000000000000
 21       0.000000000000
 22       0.000000000000
 23       0.000000000000
 24       0.000000000000
 25       0.000000000000
 26       0.000000000000
 27       0.000000000000
 28       0.000000000000
 29       0.000000000000
 30       0.000000000000
 31       0.000000000000
 32       0.000000000000
 33       0.000000000000
 34       0.000000000000
 35       0.000000000000
 36       0.000000000000
 37       0.000000000000
 38       0.000000000000
 39       0.000000000000
 40       0.000000000000
 41       0.000000000000
 42       0.000000000000
 43       0.000000000000
 44       0.000000000000
 45       0.000000000000
 46       0.000000000000
 47       0.000000000000
 48       0.000000000000
 49       0.000000000000
 50       0.000000000000
 51       0.000000000000
 52       0.000000000000
 53       0.000000000000
 54       0.000000000000
 55       0.000000000000
 56       0.000000000000
 57       0.000000000000
 58       0.000000000000
 59       0.000000000000
 60       0.000000000000
 61       0.000000000000
 62       0.000000000000
 63       0.000000000000
 64       0.000000000000
 65       0.000000000000
 66       0.000000000000
 67       0.000000000000
 68       0.000000000000
 69       0.000000000000
 70       0.000000000000
 71       0.000000000000
 72       0.000000000000
 73       0.000000000000
 74       0.000000000000
 75       0.000000000000
 76       0.000000000000
 77       0.000000000000
 78       0.000000000000
 79       0.000000000000
 80       0.000000000000
 81       0.000000000000
 82       0.000000000000
 83       0.000000000000
 84       0.000000000000
 85       0.000000000000
 86       0.000000000000
 87       0.000000000000
 88       0.000000000000
 89       0.000000000000
 90       0.000000000000
 91       0.000000000000
 92       0.000000000000
 93       0.000000000000
 94       0.000000000000
 95       0.000000000000
 96       0.000000000000
 97       0.000000000000
 98       0.000000000000
 99       0.000000000000
100       0.000000000000
101       0.000000000000
102       0.000000000000
103       0.000000000000
104       0.000000000000
105       0.000000000000
106       0.000000000000
107       0.000000000000
108       0.000000000000
109       0.000000000000
110       0.000000000000
111       0.000000000000
112       0.000000000000
113       0.000000000000
114       0.000000000000
115       0.000000000000
116       0.000000000000
117       0.000000000000
118       0.000000000000
119       0.000000000000
120       0.000000000000
121       0.000000000000
122       0.000000000000
123       0.000000000000
124       0.000000000000
125       0.000000000000
126       0.000000000000
127       0.000000000000
128       0.000000000000
129       0.000000000000
130       0.000000000000
131       0.148482994632
132      -1.482469984140
133       1.689474530383
134       0.000000000000
135       0.000000000000
136       0.000000000000
137       0.000000000000
138       0.000000000000
139       0.000000000000
140       0.000000000000
141       0.000000000000
142       0.000000000000
143       0.000000000000
144       0.000000000000
145       0.000000000000
146       0.000000000000
147       0.000000000000
148       0.000000000000
149       0.000000000000
150       0.000000000000
151       0.000000000000
152       0.000000000000
153       0.000000000000
154       0.000000000000
155       0.000000000000
156       0.000000000000
157       0.000000000000
158       0.000000000000
159       0.000000000000
160       0.000000000000
161       0.000000000000
162       0.000000000000
163       0.000000000000
164       0.000000000000
165       0.000000000000
166       0.000000000000
167       0.000000000000
168       0.000000000000
169       0.000000000000
170       0.000000000000
171       0.000000000000
172       0.000000000000
 Sym=     1a
 Ene= -5.00665672587400E-01
Spin= Alpha
 Occup= 1.655124
  1       0.000000000000
  2       0.000000000000
  3       0.000000000000
  4       0.000000000000
  5       0.000000000000
  6       0.000000000000
  7       0.000000000000
  8       0.000000000000
  9       0.000000000000
 10       0.000000000000
 11       0.000000000000
 12       0.000000000000
 13       0.000000000000
 14       0.000000000000
 15       0.000000000000
 16       0.000000000000
 17       0.000000000000
 18       0.000000000000
 19       0.000000000000
 20       0.000000000000
 21       0.000000000000
 22       0.000000000000
 23       0.000000000000
 24       0.000000000000
 25       0.000000000000
 26       0.000000000000
 27       0.000000000000
 28       0.000000000000
 29       0.000000000000
 30       0.000000000000
 31       0.000000000000
 32       0.000000000000
 33       0.000000000000
 34       0.000000000000
 35       0.000000000000
 36       0.000000000000
 37       0.000000000000
 38       0.000000000000
 39       0.000000000000
 40       0.000000000000
 41       0.000000000000
 42       0.000000000000
 43       0.000000000000
 44       0.000000000000
 45       0.000000000000
 46       0.000000000000
 47       0.000000000000
 48       0.000000000000
 49       0.000000000000
 50       0.000000000000
 51       0.000000000000
 52       0.000000000000
 53       0.000000000000
 54       0.000000000000
 55       0.000000000000
 56       0.000000000000
 57       0.000000000000
 58       0.000000000000
 59       0.000000000000
 60       0.000000000000
 61       0.000000000000
 62       0.000000000000
 63       0.000000000000
 64       0.000000000000
 65       0.000000000000
 66       0.000000000000
 67       0.000000000000
 68       0.000000000000
 69       0.000000000000
 70       0.000000000000
 71       0.000000000000
 72       0.000000000000
 73       0.000000000000
 74       0.000000000000
 75       0.000000000000
 76       0.000000000000
 77       0.000000000000
 78       0.000000000000
 79       0.000000000000
 80       0.000000000000
 81       0.000000000000
 82       0.000000000000
 83       0.000000000000
 84       0.000000000000
 85       0.000000000000
 86       0.000000000000
 87       0.000000000000
 88       0.000000000000
 89       0.000000000000
 90       0.000000000000
 91       0.000000000000
 92       0.000000000000
 93       0.000000000000
 94       0.000000000000
 95       0.000000000000
 96       0.000000000000
 97       0.000000000000
 98       0.000000000000
 99       0.000000000000
100       0.000000000000
101       0.000000000000
102       0.000000000000
103       0.000000000000
104       0.000000000000
105       0.000000000000
106       0.000000000000
107       0.000000000000
108       0.000000000000
109       0.000000000000
110       0.000000000000
111       0.000000000000
112       0.000000000000
113       0.000000000000
114       0.000000000000
115       0.000000000000
116       0.000000000000
117       0.000000000000
118       0.000000000000
119       0.000000000000
120       0.000000000000
121       0.000000000000
122       0.000000000000
123       0.000000000000
124       0.000000000000
125       0.000000000000
126       0.000000000000
127       0.000000000000
128       0.000000000000
129       0.000000000000
130       0.000000000000
131       0.103074756384
132       0.834744607539
133       0.113497502378
134       0.000000000000
135       0.000000000000
136       0.000000000000
137       0.000000000000
138       0.000000000000
139       0.000000000000
140       0.000000000000
141       0.000000000000
142       0.000000000000
143       0.000000000000
144       0.000000000000
145       0.000000000000
146       0.000000000000
147       0.000000000000
148       0.000000000000
149       0.000000000000
150       0.000000000000
151       0.000000000000
152       0.000000000000
153       0.000000000000
154       0.000000000000
155       0.000000000000
156       0.000000000000
157       0.000000000000
158       0.000000000000
159       0.000000000000
160       0.000000000000
161       0.000000000000
162       0.000000000000
163       0.000000000000
164       0.000000000000
165       0.000000000000
166       0.000000000000
167       0.000000000000
168       0.000000000000
169       0.000000000000
170       0.000000000000
171       0.000000000000
172       0.000000000000
 Sym=     1a
 Ene=  1.41961699570996E+00
Spin= Alpha
 Occup= 0.113434
  1       0.000000000000
  2       0.000000000000
  3       0.000000000000
  4       0.000000000000
  5       0.000000000000
  6       0.000000000000
  7       0.000000000000
  8       0.000000000000
  9       0.000000000000
 10       0.000000000000
 11       0.000000000000
 12       0.000000000000
 13       0.000000000000
 14       0.000000000000
 15       0.000000000000
 16       0.000000000000
 17       0.000000000000
 18       0.000000000000
 19       0.000000000000
 20       0.000000000000
 21       0.000000000000
 22       0.000000000000
 23       0.000000000000
 24       0.000000000000
 25       0.000000000000
 26       0.000000000000
 27       0.000000000000
 28       0.000000000000
 29       0.000000000000
 30       0.000000000000
 31       0.000000000000
 32       0.000000000000
 33       0.000000000000
 34       0.000000000000
 35       0.000000000000
 36       0.000000000000
 37       0.000000000000
 38       0.000000000000
 39       0.000000000000
 40       0.000000000000
 41       0.000000000000
 42       0.000000000000
 43       0.000000000000
 44       0.000000000000
 45       0.000000000000
 46       0.000000000000
 47       0.000000000000
 48       0.000000000000
 49       0.000000000000
 50       0.000000000000
 51       0.000000000000
 52       0.000000000000
 53       0.000000000000
 54       0.000000000000
 55       0.000000000000
 56       0.000000000000
 57       0.000000000000
 58       0.000000000000
 59       0.000000000000
 60       0.000000000000
 61       0.000000000000
 62       0.000000000000
 63       0.000000000000
 64       0.000000000000
 65       0.000000000000
 66       0.000000000000
 67       0.000000000000
 68       0.000000000000
 69       0.000000000000
 70       0.000000000000
 71       0.000000000000
 72       0.000000000000
 73       0.000000000000
 74       0.000000000000
 75       0.000000000000
 76       0.000000000000
 77       0.000000000000
 78       0.000000000000
 79       0.000000000000
 80       0.000000000000
 81       0.000000000000
 82       0.000000000000
 83       0.000000000000
 84       0.000000000000
 85       0.000000000000
 86       0.000000000000
 87       0.000000000000
 88       0.000000000000
 89       0.000000000000
 90       0.000000000000
 91       0.000000000000
 92       0.000000000000
 93       0.000000000000
 94       0.000000000000
 95       0.000000000000
 96       0.000000000000
 97       0.000000000000
 98       0.000000000000
 99       0.000000000000
100       0.000000000000
101       0.000000000000
102       0.000000000000
103       0.000000000000
104       0.000000000000
105       0.000000000000
106       0.000000000000
107       0.000000000000
108       0.000000000000
109       0.000000000000
110       0.000000000000
111       0.000000000000
112       0.000000000000
113       0.000000000000
114       0.000000000000
115       0.000000000000
116       0.000000000000
117       0.000000000000
118       0.000000000000
119       0.000000000000
120       0.000000000000
121       0.000000000000
122       0.000000000000
123       0.000000000000
124       0.000000000000
125       0.000000000000
126       0.000000000000
127       0.000000000000
128       0.000000000000
129       0.000000000000
130       0.000000000000
131       0.000000000000
132       0.000000000000
133       0.000000000000
134       1.000000000000
135       0.000000000000
136       0.000000000000
137       0.000000000000
138       0.000000000000
139       0.000000000000
140       0.000000000000
141       0.000000000000
142       0.000000000000
143       0.000000000000
144       0.000000000000
145       0.000000000000
146       0.000000000000
147       0.000000000000
148       0.000000000000
149       0.000000000000
150       0.000000000000
151       0.000000000000
152       0.000000000000
153       0.000000000000
154       0.000000000000
155       0.000000000000
156       0.000000000000
157       0.000000000000
158       0.000000000000
159       0.000000000000
160       0.000000000000
161       0.000000000000
162       0.000000000000
163       0.000000000000
164       0.000000000000
165       0.000000000000
166       0.000000000000
167       0.000000000000
168       0.000000000000
169       0.000000000000
170       0.000000000000
171       0.000000000000
172       0.000000000000
 Sym=     1a
 Ene=  1.30419730947467E+00
Spin= Alpha
 Occup= 0.113434
  1       0.000000000000
  2       0.000000000000
  3       0.000000000000
  4       0.000000000000
  5       0.000000000000
  6       0.000000000000
  7       0.000000000000
  8       0.000000000000
  9       0.000000000000
 10       0.000000000000
 11       0.000000000000
 12       0.000000000000
 13       0.000000000000
 14       0.000000000000
 15       0.000000000000
 16       0.000000000000
 17       0.000000000000
 18       0.000000000000
 19       0.000000000000
 20       0.000000000000
 21       0.000000000000
 22       0.000000000000
 23       0.000000000000
 24       0.000000000000
 25       0.000000000000
 26       0.000000000000
 27       0.000000000000
 28       0.000000000000
 29       0.000000000000
 30       0.000000000000
 31       0.000000000000
 32       0.000000000000
 33       0.000000000000
 34       0.000000000000
 35       0.000000000000
 36       0.000000000000
 37       0.000000000000
 38       0.000000000000
 39       0.000000000000
 40       0.000000000000
 41       0.000000000000
 42       0.000000000000
 43       0.000000000000
 44       0.000000000000
 45       0.000000000000
 46       0.000000000000
 47       0.000000000000
 48       0.000000000000
 49       0.000000000000
 50       0.000000000000
 51       0.000000000000
 52       0.000000000000
 53       0.000000000000
 54       0.000000000000
 55       0.000000000000
 56       0.000000000000
 57       0.000000000000
 58       0.000000000000
 59       0.000000000000
 60       0.000000000000
 61       0.000000000000
 62       0.000000000000
 63       0.000000000000
 64       0.000000000000
 65       0.000000000000
 66       0.000000000000
 67       0.000000000000
 68       0.000000000000
 69       0.000000000000
 70       0.000000000000
 71       0.000000000000
 72       0.000000000000
 73       0.000000000000
 74       0.000000000000
 75       0.000000000000
 76       0.000000000000
 77       0.000000000000
 78       0.000000000000
 79       0.000000000000
 80       0.000000000000
 81       0.000000000000
 82       0.000000000000
 83       0.000000000000
 84       0.000000000000
 85       0.000000000000
 86       0.000000000000
 87       0.000000000000
 88       0.000000000000
 89       0.000000000000
 90       0.000000000000
 91       0.000000000000
 92       0.000000000000
 93       0.000000000000
 94       0.000000000000
 95       0.000000000000
 96       0.000000000000
 97       0.000000000000
 98       0.000000000000
 99       0.000000000000
100       0.000000000000
101       0.000000000000
102       0.000000000000
103       0.000000000000
104       0.000000000000
105       0.000000000000
106       0.000000000000
107       0.000000000000
108       0.000000000000
109       0.000000000000
110       0.000000000000
111       0.000000000000
112       0.000000000000
113       0.000000000000
114       0.000000000000
115       0.000000000000
116       0.000000000000
117       0.000000000000
118       0.000000000000
119       0.000000000000
120       0.000000000000
121       0.000000000000
122       0.000000000000
123       0.000000000000
124       0.000000000000
125       0.000000000000
126       0.000000000000
127       0.000000000000
128       0.000000000000
129       0.000000000000
130       0.000000000000
131       0.000000000000
132       0.000000000000
133       0.000000000000
134       0.000000000000
135       1.000000000000
136       0.000000000000
137       0.000000000000
138       0.000000000000
139       0.000000000000
140       0.000000000000
141       0.000000000000
142       0.000000000000
143       0.000000000000
144       0.000000000000
145       0.000000000000
146       0.000000000000
147       0.000000000000
148       0.000000000000
149       0.000000000000
150       0.000000000000
151       0.000000000000
152       0.000000000000
153       0.000000000000
154       0.000000000000
155       0.000000000000
156       0.000000000000
157       0.000000000000
158       0.000000000000
159       0.000000000000
160       0.000000000000
161       0.000000000000
162       0.000000000000
163       0.000000000000
164       0.000000000000
165       0.000000000000
166       0.000000000000
167       0.000000000000
168       0.000000000000
169       0.000000000000
170       0.000000000000
171       0.000000000000
172       0.000000000000
 Sym=     1a
 Ene=  1.20848302625705E+00
Spin= Alpha
 Occup= 0.113434
  1       0.000000000000
  2       0.000000000000
  3       0.000000000000
  4       0.000000000000
  5       0.000000000000
  6       0.000000000000
  7       0.000000000000
  8       0.000000000000
  9       0.000000000000
 10       0.000000000000
 11       0.000000000000
 12       0.000000000000
 13       0.000000000000
 14       0.000000000000
 15       0.000000000000
 16       0.000000000000
 17       0.000000000000
 18       0.000000000000
 19       0.000000000000
 20       0.000000000000
 21       0.000000000000
 22       0.000000000000
 23       0.000000000000
 24       0.000000000000
 25       0.000000000000
 26       0.000000000000
 27       0.000000000000
 28       0.000000000000
 29       0.000000000000
 30       0.000000000000
 31       0.000000000000
 32       0.000000000000
 33       0.000000000000
 34       0.000000000000
 35       0.000000000000
 36       0.000000000000
 37       0.000000000000
 38       0.000000000000
 39       0.000000000000
 40       0.000000000000
 41       0.000000000000
 42       0.000000000000
 43       0.000000000000
 44       0.000000000000
 45       0.000000000000
 46       0.000000000000
 47       0.000000000000
 48       0.000000000000
 49       0.000000000000
 50       0.000000000000
 51       0.000000000000
 52       0.000000000000
 53       0.000000000000
 54       0.000000000000
 55       0.000000000000
 56       0.000000000000
 57       0.000000000000
 58       0.000000000000
 59       0.000000000000
 60       0.000000000000
 61       0.000000000000
 62       0.000000000000
 63       0.000000000000
 64       0.000000000000
 65       0.000000000000
 66       0.000000000000
 67       0.000000000000
 68       0.000000000000
 69       0.000000000000
 70       0.000000000000
 71       0.000000000000
 72       0.000000000000
 73       0.000000000000
 74       0.000000000000
 75       0.000000000000
 76       0.000000000000
 77       0.000000000000
 78       0.000000000000
 79       0.000000000000
 80       0.000000000000
 81       0.000000000000
 82       0.000000000000
 83       0.000000000000
 84       0.000000000000
 85       0.000000000000
 86       0.000000000000
 87       0.000000000000
 88       0.000000000000
 89       0.000000000000
 90       0.000000000000
 91       0.000000000000
 92       0.000000000000
 93       0.000000000000
 94       0.000000000000
 95       0.000000000000
 96       0.000000000000
 97       0.000000000000
 98       0.000000000000
 99       0.000000000000
100       0.000000000000
101       0.000000000000
102       0.000000000000
103       0.000000000000
104       0.000000000000
105       0.000000000000
106       0.000000000000
107       0.000000000000
108       0.000000000000
109       0.000000000000
110       0.000000000000
111       0.000000000000
112       0.000000000000
113       0.000000000000
114       0.000000000000
115       0.000000000000
116       0.000000000000
117       0.000000000000
118       0.000000000000
119       0.000000000000
120       0.000000000000
121       0.000000000000
122       0.000000000000
123       0.000000000000
124       0.000000000000
125       0.000000000000
126       0.000000000000
127       0.000000000000
128       0.000000000000
129       0.000000000000
130       0.000000000000
131       0.000000000000
132       0.000000000000
133       0.000000000000
134       0.000000000000
135       0.000000000000
136       1.000000000000
137       0.000000000000
138       0.000000000000
139       0.000000000000
140       0.000000000000
141       0.000000000000
142       0.000000000000
143       0.000000000000
144       0.000000000000
145       0.000000000000
146       0.000000000000
147       0.000000000000
148       0.000000000000
149       0.000000000000
150       0.000000000000
151       0.000000000000
152       0.000000000000
153       0.000000000000
154       0.000000000000
155       0.000000000000
156       0.000000000000
157       0.000000000000
158       0.000000000000
159       0.000000000000
160       0.000000000000
161       0.000000000000
162       0.000000000000
163       0.000000000000
164       0.000000000000
165       0.000000000000
166       0.000000000000
167       0.000000000000
168       0.000000000000
169       0.000000000000
170       0.000000000000
171       0.000000000000
172       0.000000000000
 Sym=     1a
 Ene=  2.15658427665986E+00
Spin= Alpha
 Occup= 0.018765
  1       0.000000000000
  2       0.000000000000
  3       0.000000000000
  4       0.000000000000
  5       0.000000000000
  6       0.000000000000
  7       0.000000000000
  8       0.000000000000
  9       0.000000000000
 10       0.000000000000
 11       0.000000000000
 12       0.000000000000
 13       0.000000000000
 14       0.000000000000
 15       0.000000000000
 16       0.000000000000
 17       0.000000000000
 18       0.000000000000
 19       0.000000000000
 20       0.000000000000
 21       0.000000000000
 22       0.000000000000
 23       0.000000000000
 24       0.000000000000
 25       0.000000000000
 26       0.000000000000
 27       0.000000000000
 28       0.000000000000
 29       0.000000000000
 30       0.000000000000
 31       0.000000000000
 32       0.000000000000
 33       0.000000000000
 34       0.000000000000
 35       0.000000000000
 36       0.000000000000
 37       0.000000000000
 38       0.000000000000
 39       0.000000000000
 40       0.000000000000
 41       0.000000000000
 42       0.000000000000
 43       0.000000000000
 44       0.000000000000
 45       0.000000000000
 46       0.000000000000
 47       0.000000000000
 48       0.000000000000
 49       0.000000000000
 50       0.000000000000
 51       0.000000000000
 52       0.000000000000
 53       0.000000000000
 54       0.000000000000
 55       0.000000000000
 56       0.000000000000
 57       0.000000000000
 58       0.000000000000
 59       0.000000000000
 60       0.000000000000
 61       0.000000000000
 62       0.000000000000
 63       0.000000000000
 64       0.000000000000
 65       0.000000000000
 66       0.000000000000
 67       0.000000000000
 68       0.000000000000
 69       0.000000000000
 70       0.000000000000
 71       0.000000000000
 72       0.000000000000
 73       0.000000000000
 74       0.000000000000
 75       0.000000000000
 76       0.000000000000
 77       0.000000000000
 78       0.000000000000
 79       0.000000000000
 80       0.000000000000
 81       0.000000000000
 82       0.000000000000
 83       0.000000000000
 84       0.000000000000
 85       0.000000000000
 86       0.000000000000
 87       0.000000000000
 88       0.000000000000
 89       0.000000000000
 90       0.000000000000
 91       0.000000000000
 92       0.000000000000
 93       0.000000000000
 94       0.000000000000
 95       0.000000000000
 96       0.000000000000
 97       0.000000000000
 98       0.000000000000
 99       0.000000000000
100       0.000000000000
101       0.000000000000
102       0.000000000000
103       0.000000000000
104       0.000000000000
105       0.000000000000
106       0.000000000000
107       0.000000000000
108       0.000000000000
109       0.000000000000
110       0.000000000000
111       0.000000000000
112       0.000000000000
113       0.000000000000
114       0.000000000000
115       0.000000000000
116       0.000000000000
117       0.000000000000
118       0.000000000000
119       0.000000000000
120       0.000000000000
121       0.000000000000
122       0.000000000000
123       0.000000000000
124       0.000000000000
125       0.000000000000
126       0.000000000000
127       0.000000000000
128       0.000000000000
129       0.000000000000
130       0.000000000000
131       0.000000000000
132       0.000000000000
133       0.000000000000
134       0.000000000000
135       0.000000000000
136       0.000000000000
137      -1.546284588401
138       1.615839291903
139      -0.582837826572
140       0.000000000000
141       0.000000000000
142       0.000000000000
143       0.000000000000
144       0.000000000000
145       0.000000000000
146       0.000000000000
147       0.000000000000
148       0.000000000000
149       0.000000000000
150       0.000000000000
151       0.000000000000
152       0.000000000000
153       0.000000000000
154       0.000000000000
155       0.000000000000
156       0.000000000000
157       0.000000000000
158       0.000000000000
159       0.000000000000
160       0.000000000000
161       0.000000000000
162       0.000000000000
163       0.000000000000
164       0.000000000000
165       0.000000000000
166       0.000000000000
167       0.000000000000
168       0.000000000000
169       0.000000000000
170       0.000000000000
171       0.000000000000
172       0.000000000000
 Sym=     1a
 Ene=  8.98621160458257E-02
Spin= Alpha
 Occup= 0.509191
  1       0.000000000000
  2       0.000000000000
  3       0.000000000000
  4       0.000000000000
  5       0.000000000000
  6       0.000000000000
  7       0.000000000000
  8       0.000000000000
  9       0.000000000000
 10       0.000000000000
 11       0.000000000000
 12       0.000000000000
 13       0.000000000000
 14       0.000000000000
 15       0.000000000000
 16       0.000000000000
 17       0.000000000000
 18       0.000000000000
 19       0.000000000000
 20       0.000000000000
 21       0.000000000000
 22       0.000000000000
 23       0.000000000000
 24       0.000000000000
 25       0.000000000000
 26       0.000000000000
 27       0.000000000000
 28       0.000000000000
 29       0.000000000000
 30       0.000000000000
 31       0.000000000000
 32       0.000000000000
 33       0.000000000000
 34       0.000000000000
 35       0.000000000000
 36       0.000000000000
 37       0.000000000000
 38       0.000000000000
 39       0.000000000000
 40       0.000000000000
 41       0.000000000000
 42       0.000000000000
 43       0.000000000000
 44       0.000000000000
 45       0.000000000000
 46       0.000000000000
 47       0.000000000000
 48       0.000000000000
 49       0.000000000000
 50       0.000000000000
 51       0.000000000000
 52       0.000000000000
 53       0.000000000000
 54       0.000000000000
 55       0.000000000000
 56       0.000000000000
 57       0.000000000000
 58       0.000000000000
 59       0.000000000000
 60       0.000000000000
 61       0.000000000000
 62       0.000000000000
 63       0.000000000000
 64       0.000000000000
 65       0.000000000000
 66       0.000000000000
 67       0.000000000000
 68       0.000000000000
 69       0.000000000000
 70       0.000000000000
 71       0.000000000000
 72       0.000000000000
 73       0.000000000000
 74       0.000000000000
 75       0.000000000000
 76       0.000000000000
 77       0.000000000000
 78       0.000000000000
 79       0.000000000000
 80       0.000000000000
 81       0.000000000000
 82       0.000000000000
 83       0.000000000000
 84       0.000000000000
 85       0.000000000000
 86       0.000000000000
 87       0.000000000000
 88       0.000000000000
 89       0.000000000000
 90       0.000000000000
 91       0.000000000000
 92       0.000000000000
 93       0.000000000000
 94       0.000000000000
 95       0.000000000000
 96       0.000000000000
 97       0.000000000000
 98       0.000000000000
 99       0.000000000000
100       0.000000000000
101       0.000000000000
102       0.000000000000
103       0.000000000000
104       0.000000000000
105       0.000000000000
106       0.000000000000
107       0.000000000000
108       0.000000000000
109       0.000000000000
110       0.000000000000
111       0.000000000000
112       0.000000000000
113       0.000000000000
114       0.000000000000
115       0.000000000000
116       0.000000000000
117       0.000000000000
118       0.000000000000
119       0.000000000000
120       0.000000000000
121       0.000000000000
122       0.000000000000
123       0.000000000000
124       0.000000000000
125       0.000000000000
126       0.000000000000
127       0.000000000000
128       0.000000000000
129       0.000000000000
130       0.000000000000
131       0.000000000000
132       0.000000000000
133       0.000000000000
134       0.000000000000
135       0.000000000000
136       0.000000000000
137       0.156739667463
138      -1.492810658652
139       1.692474144539
140       0.000000000000
141       0.000000000000
142       0.000000000000
143       0.000000000000
144       0.000000000000
145       0.000000000000
146       0.000000000000
147       0.000000000000
148       0.000000000000
149       0.000000000000
150       0.000000000000
151       0.000000000000
152       0.000000000000
153       0.000000000000
154       0.000000000000
155       0.000000000000
156       0.000000000000
157       0.000000000000
158       0.000000000000
159       0.000000000000
160       0.000000000000
161       0.000000000000
162       0.000000000000
163       0.000000000000
164       0.000000000000
165       0.000000000000
166       0.000000000000
167       0.000000000000
168       0.000000000000
169       0.000000000000
170       0.000000000000
171       0.000000000000
172       0.000000000000
 Sym=     1a
 Ene= -5.02405576475570E-01
Spin= Alpha
 Occup= 1.660983
  1       0.000000000000
  2       0.000000000000
  3       0.000000000000
  4       0.000000000000
  5       0.000000000000
  6       0.000000000000
  7       0.000000000000
  8       0.000000000000
  9       0.000000000000
 10       0.000000000000
 11       0.000000000000
 12       0.000000000000
 13       0.000000000000
 14       0.000000000000
 15       0.000000000000
 16       0.000000000000
 17       0.000000000000
 18       0.000000000000
 19       0.000000000000
 20       0.000000000000
 21       0.000000000000
 22       0.000000000000
 23       0.000000000000
 24       0.000000000000
 25       0.000000000000
 26       0.000000000000
 27       0.000000000000
 28       0.000000000000
 29       0.000000000000
 30       0.000000000000
 31       0.000000000000
 32       0.000000000000
 33       0.000000000000
 34       0.000000000000
 35       0.000000000000
 36       0.000000000000
 37       0.000000000000
 38       0.000000000000
 39       0.000000000000
 40       0.000000000000
 41       0.000000000000
 42       0.000000000000
 43       0.000000000000
 44       0.000000000000
 45       0.000000000000
 46       0.000000000000
 47       0.000000000000
 48       0.000000000000
 49       0.000000000000
 50       0.000000000000
 51       0.000000000000
 52       0.000000000000
 53       0.000000000000
 54       0.000000000000
 55       0.000000000000
 56       0.000000000000
 57       0.000000000000
 58       0.000000000000
 59       0.000000000000
 60       0.000000000000
 61       0.000000000000
 62       0.000000000000
 63       0.000000000000
 64       0.000000000000
 65       0.000000000000
 66       0.000000000000
 67       0.000000000000
 68       0.000000000000
 69       0.000000000000
 70       0.000000000000
 71       0.000000000000
 72       0.000000000000
 73       0.000000000000
 74       0.000000000000
 75       0.000000000000
 76       0.000000000000
 77       0.000000000000
 78       0.000000000000
 79       0.000000000000
 80       0.000000000000
 81       0.000000000000
 82       0.000000000000
 83       0.000000000000
 84       0.000000000000
 85       0.000000000000
 86       0.000000000000
 87       0.000000000000
 88       0.000000000000
 89       0.000000000000
 90       0.000000000000
 91       0.000000000000
 92       0.000000000000
 93       0.000000000000
 94       0.000000000000
 95       0.000000000000
 96       0.000000000000
 97       0.000000000000
 98       0.000000000000
 99       0.000000000000
100       0.000000000000
101       0.000000000000
102       0.000000000000
103       0.000000000000
104       0.000000000000
105       0.000000000000
106       0.000000000000
107       0.000000000000
108       0.000000000000
109       0.000000000000
110       0.000000000000
111       0.000000000000
112       0.000000000000
113       0.000000000000
114       0.000000000000
115       0.000000000000
116       0.000000000000
117       0.000000000000
118       0.000000000000
119       0.000000000000
120       0.000000000000
121       0.000000000000
122       0.000000000000
123       0.000000000000
124       0.000000000000
125       0.000000000000
126       0.000000000000
127       0.000000000000
128       0.000000000000
129       0.000000000000
130       0.000000000000
131       0.000000000000
132       0.000000000000
133       0.000000000000
134       0.000000000000
135       0.000000000000
136       0.000000000000
137       0.107003126966
138       0.828236389000
139       0.117937174759
140       0.000000000000
141       0.000000000000
142       0.000000000000
143       0.000000000000
144       0.000000000000
145       0.000000000000
146       0.000000000000
147       0.000000000000
148       0.000000000000
149       0.000000000000
150       0.000000000000
151       0.000000000000
152       0.000000000000
153       0.000000000000
154       0.000000000000
155       0.000000000000
156       0.000000000000
157       0.000000000000
158       0.000000000000
159       0.000000000000
160       0.000000000000
161       0.000000000000
162       0.000000000000
163       0.000000000000
164       0.000000000000
165       0.000000000000
166       0.000000000000
167       0.000000000000
168       0.000000000000
169       0.000000000000
170       0.000000000000
171       0.000000000000
172       0.000000000000
 Sym=     1a
 Ene=  1.20180664249651E+00
Spin= Alpha
 Occup= 0.112587
  1       0.000000000000
  2       0.000000000000
  3       0.000000000000
  4       0.000000000000
  5       0.000000000000
  6       0.000000000000
  7       0.000000000000
  8       0.000000000000
  9       0.000000000000
 10       0.000000000000
 11       0.000000000000
 12       0.000000000000
 13       0.000000000000
 14       0.000000000000
 15       0.000000000000
 16       0.000000000000
 17       0.000000000000
 18       0.000000000000
 19       0.000000000000
 20       0.000000000000
 21       0.000000000000
 22       0.000000000000
 23       0.000000000000
 24       0.000000000000
 25       0.000000000000
 26       0.000000000000
 27       0.000000000000
 28       0.000000000000
 29       0.000000000000
 30       0.000000000000
 31       0.000000000000
 32       0.000000000000
 33       0.000000000000
 34       0.000000000000
 35       0.000000000000
 36       0.000000000000
 37       0.000000000000
 38       0.000000000000
 39       0.000000000000
 40       0.000000000000
 41       0.000000000000
 42       0.000000000000
 43       0.000000000000
 44       0.000000000000
 45       0.000000000000
 46       0.000000000000
 47       0.000000000000
 48       0.000000000000
 49       0.000000000000
 50       0.000000000000
 51       0.000000000000
 52       0.000000000000
 53       0.000000000000
 54       0.000000000000
 55       0.000000000000
 56       0.000000000000
 57       0.000000000000
 58       0.000000000000
 59       0.000000000000
 60       0.000000000000
 61       0.000000000000
 62       0.000000000000
 63       0.000000000000
 64       0.000000000000
 65       0.000000000000
 66       0.000000000000
 67       0.000000000000
 68       0.000000000000
 69       0.000000000000
 70       0.000000000000
 71       0.000000000000
 72       0.000000000000
 73       0.000000000000
 74       0.000000000000
 75       0.000000000000
 76       0.000000000000
 77       0.000000000000
 78       0.000000000000
 79       0.000000000000
 80       0.000000000000
 81       0.000000000000
 82       0.000000000000
 83       0.000000000000
 84       0.000000000000
 85       0.000000000000
 86       0.000000000000
 87       0.000000000000
 88       0.000000000000
 89       0.000000000000
 90       0.000000000000
 91       0.000000000000
 92       0.000000000000
 93       0.000000000000
 94       0.000000000000
 95       0.000000000000
 96       0.000000000000
 97       0.000000000000
 98       0.000000000000
 99       0.000000000000
100       0.000000000000
101       0.000000000000
102       0.000000000000
103       0.000000000000
104       0.000000000000
105       0.000000000000
106       0.000000000000
107       0.000000000000
108       0.000000000000
109       0.000000000000
110       0.000000000000
111       0.000000000000
112       0.000000000000
113       0.000000000000
114       0.000000000000
115       0.000000000000
116       0.000000000000
117       0.000000000000
118       0.000000000000
119       0.000000000000
120       0.000000000000
121       0.000000000000
122       0.000000000000
123       0.000000000000
124       0.000000000000
125       0.000000000000
126       0.000000000000
127       0.000000000000
128       0.000000000000
129       0.000000000000
130       0.000000000000
131       0.000000000000
132       0.000000000000
133       0.000000000000
134       0.000000000000
135       0.000000000000
136       0.000000000000
137       0.000000000000
138       0.000000000000
139       0.000000000000
140       1.000000000000
141       0.000000000000
142       0.000000000000
143       0.000000000000
144       0.000000000000
145       0.000000000000
146       0.000000000000
147       0.000000000000
148       0.000000000000
149       0.000000000000
150       0.000000000000
151       0.000000000000
152       0.000000000000
153       0.000000000000
154       0.000000000000
155       0.000000000000
156       0.000000000000
157       0.000000000000
158       0.000000000000
159       0.000000000000
160       0.000000000000
161       0.000000000000
162       0.000000000000
163       0.000000000000
164       0.000000000000
165       0.000000000000
166       0.000000000000
167       0.000000000000
168       0.000000000000
169       0.000000000000
170       0.000000000000
171       0.000000000000
172       0.000000000000
 Sym=     1a
 Ene=  1.30777449485605E+00
Spin= Alpha
 Occup= 0.112587
  1       0.000000000000
  2       0.000000000000
  3       0.000000000000
  4       0.000000000000
  5       0.000000000000
  6       0.000000000000
  7       0.000000000000
  8       0.000000000000
  9       0.000000000000
 10       0.000000000000
 11       0.000000000000
 12       0.000000000000
 13       0.000000000000
 14       0.000000000000
 15       0.000000000000
 16       0.000000000000
 17       0.000000000000
 18       0.000000000000
 19       0.000000000000
 20       0.000000000000
 21       0.000000000000
 22       0.000000000000
 23       0.000000000000
 24       0.000000000000
 25       0.000000000000
 26       0.000000000000
 27       0.000000000000
 28       0.000000000000
 29       0.000000000000
 30       0.000000000000
 31       0.000000000000
 32       0.000000000000
 33       0.000000000000
 34       0.000000000000
 35       0.000000000000
 36       0.000000000000
 37       0.000000000000
 38       0.000000000000
 39       0.000000000000
 40       0.000000000000
 41       0.000000000000
 42       0.000000000000
 43       0.000000000000
 44       0.000000000000
 45       0.000000000000
 46       0.000000000000
 47       0.000000000000
 48       0.000000000000
 49       0.000000000000
 50       0.000000000000
 51       0.000000000000
 52       0.000000000000
 53       0.000000000000
 54       0.000000000000
 55       0.000000000000
 56       0.000000000000
 57       0.000000000000
 58       0.000000000000
 59       0.000000000000
 60       0.000000000000
 61       0.000000000000
 62       0.000000000000
 63       0.000000000000
 64       0.000000000000
 65       0.000000000000
 66       0.000000000000
 67       0.000000000000
 68       0.000000000000
 69       0.000000000000
 70       0.000000000000
 71       0.000000000000
 72       0.000000000000
 73       0.000000000000
 74       0.000000000000
 75       0.000000000000
 76       0.000000000000
 77       0.000000000000
 78       0.000000000000
 79       0.000000000000
 80       0.000000000000
 81       0.000000000000
 82       0.000000000000
 83       0.000000000000
 84       0.000000000000
 85       0.000000000000
 86       0.000000000000
 87       0.000000000000
 88       0.000000000000
 89       0.000000000000
 90       0.000000000000
 91       0.000000000000
 92       0.000000000000
 93       0.000000000000
 94       0.000000000000
 95       0.000000000000
 96       0.000000000000
 97       0.000000000000
 98       0.000000000000
 99       0.000000000000
100       0.000000000000
101       0.000000000000
102       0.000000000000
103       0.000000000000
104       0.000000000000
105       0.000000000000
106       0.000000000000
107       0.000000000000
108       0.000000000000
109       0.000000000000
110       0.000000000000
111       0.000000000000
112       0.000000000000
113       0.000000000000
114       0.000000000000
115       0.000000000000
116       0.000000000000
117       0.000000000000
118       0.000000000000
119       0.000000000000
120       0.000000000000
121       0.000000000000
122       0.000000000000
123       0.000000000000
124       0.000000000000
125       0.000000000000
126       0.000000000000
127       0.000000000000
128       0.000000000000
129       0.000000000000
130       0.000000000000
131       0.000000000000
132       0.000000000000
133       0.000000000000
134       0.000000000000
135       0.000000000000
136       0.000000000000
137       0.000000000000
138       0.000000000000
139       0.000000000000
140       0.000000000000
141       1.000000000000
142       0.000000000000
143       0.000000000000
144       0.000000000000
145       0.000000000000
146       0.000000000000
147       0.000000000000
148       0.000000000000
149       0.000000000000
150       0.000000000000
151       0.000000000000
152       0.000000000000
153       0.000000000000
154       0.000000000000
155       0.000000000000
156       0.000000000000
157       0.000000000000
158       0.000000000000
159       0.000000000000
160       0.000000000000
161       0.000000000000
162       0.000000000000
163       0.000000000000
164       0.000000000000
165       0.000000000000
166       0.000000000000
167       0.000000000000
168       0.000000000000
169       0.000000000000
170       0.000000000000
171       0.000000000000
172       0.000000000000
 Sym=     1a
 Ene=  1.42258484807429E+00
Spin= Alpha
 Occup= 0.112587
  1       0.000000000000
  2       0.000000000000
  3       0.000000000000
  4       0.000000000000
  5       0.000000000000
  6       0.000000000000
  7       0.000000000000
  8       0.000000000000
  9       0.000000000000
 10       0.000000000000
 11       0.000000000000
 12       0.000000000000
 13       0.000000000000
 14       0.000000000000
 15       0.000000000000
 16       0.000000000000
 17       0.000000000000
 18       0.000000000000
 19       0.000000000000
 20       0.000000000000
 21       0.000000000000
 22       0.000000000000
 23       0.000000000000
 24       0.000000000000
 25       0.000000000000
 26       0.000000000000
 27       0.000000000000
 28       0.000000000000
 29       0.000000000000
 30       0.000000000000
 31       0.000000000000
 32       0.000000000000
 33       0.000000000000
 34       0.000000000000
 35       0.000000000000
 36       0.000000000000
 37       0.000000000000
 38       0.000000000000
 39       0.000000000000
 40       0.000000000000
 41       0.000000000000
 42       0.000000000000
 43       0.000000000000
 44       0.000000000000
 45       0.000000000000
 46       0.000000000000
 47       0.000000000000
 48       0.000000000000
 49       0.000000000000
 50       0.000000000000
 51       0.000000000000
 52       0.000000000000
 53       0.000000000000
 54       0.000000000000
 55       0.000000000000
 56       0.000000000000
 57       0.000000000000
 58       0.000000000000
 59       0.000000000000
 60       0.000000000000
 61       0.000000000000
 62       0.000000000000
 63       0.000000000000
 64       0.000000000000
 65       0.000000000000
 66       0.000000000000
 67       0.000000000000
 68       0.000000000000
 69       0.000000000000
 70       0.000000000000
 71       0.000000000000
 72       0.000000000000
 73       0.000000000000
 74       0.000000000000
 75       0.000000000000
 76       0.000000000000
 77       0.000000000000
 78       0.000000000000
 79       0.000000000000
 80       0.000000000000
 81       0.000000000000
 82       0.000000000000
 83       0.000000000000
 84       0.000000000000
 85       0.000000000000
 86       0.000000000000
 87       0.000000000000
 88       0.000000000000
 89       0.000000000000
 90       0.000000000000
 91       0.000000000000
 92       0.000000000000
 93       0.000000000000
 94       0.000000000000
 95       0.000000000000
 96       0.000000000000
 97       0.000000000000
 98       0.000000000000
 99       0.000000000000
100       0.000000000000
101       0.000000000000
102       0.000000000000
103       0.000000000000
104       0.000000000000
105       0.000000000000
106       0.000000000000
107       0.000000000000
108       0.000000000000
109       0.000000000000
110       0.000000000000
111       0.000000000000
112       0.000000000000
113       0.000000000000
114       0.000000000000
115       0.000000000000
116       0.000000000000
117       0.000000000000
118       0.000000000000
119       0.000000000000
120       0.000000000000
121       0.000000000000
122       0.000000000000
123       0.000000000000
124       0.000000000000
125       0.000000000000
126       0.000000000000
127       0.000000000000
128       0.000000000000
129       0.000000000000
130       0.000000000000
131       0.000000000000
132       0.000000000000
133       0.000000000000
134       0.000000000000
135       0.000000000000
136       0.000000000000
137       0.000000000000
138       0.000000000000
139       0.000000000000
140       0.000000000000
141       0.000000000000
142       1.000000000000
143       0.000000000000
144       0.000000000000
145       0.000000000000
146       0.000000000000
147       0.000000000000
148       0.000000000000
149       0.000000000000
150       0.000000000000
151       0.000000000000
152       0.000000000000
153       0.000000000000
154       0.000000000000
155       0.000000000000
156       0.000000000000
157       0.000000000000
158       0.000000000000
159       0.000000000000
160       0.000000000000
161       0.000000000000
162       0.000000000000
163       0.000000000000
164       0.000000000000
165       0.000000000000
166       0.000000000000
167       0.000000000000
168       0.000000000000
169       0.000000000000
170       0.000000000000
171       0.000000000000
172       0.000000000000
 Sym=     1a
 Ene=  2.15841463414425E+00
Spin= Alpha
 Occup= 0.018666
  1       0.000000000000
  2       0.000000000000
  3       0.000000000000
  4       0.000000000000
  5       0.000000000000
  6       0.000000000000
  7       0.000000000000
  8       0.000000000000
  9       0.000000000000
 10       0.000000000000
 11       0.000000000000
 12       0.000000000000
 13       0.000000000000
 14       0.000000000000
 15       0.000000000000
 16       0.000000000000
 17       0.000000000000
 18       0.000000000000
 19       0.000000000000
 20       0.000000000000
 21       0.000000000000
 22       0.000000000000
 23       0.000000000000
 24       0.000000000000
 25       0.000000000000
 26       0.000000000000
 27       0.000000000000
 28       0.000000000000
 29       0.000000000000
 30       0.000000000000
 31       0.000000000000
 32       0.000000000000
 33       0.000000000000
 34       0.000000000000
 35       0.000000000000
 36       0.000000000000
 37       0.000000000000
 38       0.000000000000
 39       0.000000000000
 40       0.000000000000
 41       0.000000000000
 42       0.000000000000
 43       0.000000000000
 44       0.000000000000
 45       0.000000000000
 46       0.000000000000
 47       0.000000000000
 48       0.000000000000
 49       0.000000000000
 50       0.000000000000
 51       0.000000000000
 52       0.000000000000
 53       0.000000000000
 54       0.000000000000
 55       0.000000000000
 56       0.000000000000
 57       0.000000000000
 58       0.000000000000
 59       0.000000000000
 60       0.000000000000
 61       0.000000000000
 62       0.000000000000
 63       0.000000000000
 64       0.000000000000
 65       0.000000000000
 66       0.000000000000
 67       0.000000000000
 68       0.000000000000
 69       0.000000000000
 70       0.000000000000
 71       0.000000000000
 72       0.000000000000
 73       0.000000000000
 74       0.000000000000
 75       0.000000000000
 76       0.000000000000
 77       0.000000000000
 78       0.000000000000
 79       0.000000000000
 80       0.000000000000
 81       0.000000000000
 82       0.000000000000
 83       0.000000000000
 84       0.000000000000
 85       0.000000000000
 86       0.000000000000
 87       0.000000000000
 88       0.000000000000
 89       0.000000000000
 90       0.000000000000
 91       0.000000000000
 92       0.000000000000
 93       0.000000000000
 94       0.000000000000
 95       0.000000000000
 96       0.000000000000
 97       0.000000000000
 98       0.000000000000
 99       0.000000000000
100       0.000000000000
101       0.000000000000
102       0.000000000000
103       0.000000000000
104       0.000000000000
105       0.000000000000
106       0.000000000000
107       0.000000000000
108       0.000000000000
109       0.000000000000
110       0.000000000000
111       0.000000000000
112       0.000000000000
113       0.000000000000
114       0.000000000000
115       0.000000000000
116       0.000000000000
117       0.000000000000
118       0.000000000000
119       0.000000000000
120       0.000000000000
121       0.000000000000
122       0.000000000000
123       0.000000000000
124       0.000000000000
125       0.000000000000
126       0.000000000000
127       0.000000000000
128       0.000000000000
129       0.000000000000
130       0.000000000000
131       0.000000000000
132       0.000000000000
133       0.000000000000
134       0.000000000000
135       0.000000000000
136       0.000000000000
137       0.000000000000
138       0.000000000000
139       0.000000000000
140       0.000000000000
141       0.000000000000
142       0.000000000000
143      -1.547365961305
144       1.621998972045
145      -0.592344590970
146       0.000000000000
147       0.000000000000
148       0.000000000000
149       0.000000000000
150       0.000000000000
151       0.000000000000
152       0.000000000000
153       0.000000000000
154       0.000000000000
155       0.000000000000
156       0.000000000000
157       0.000000000000
158       0.000000000000
159       0.000000000000
160       0.000000000000
161       0.000000000000
162       0.000000000000
163       0.000000000000
164       0.000000000000
165       0.000000000000
166       0.000000000000
167       0.000000000000
168       0.000000000000
169       0.000000000000
170       0.000000000000
171       0.000000000000
172       0.000000000000
 Sym=     1a
 Ene=  9.25977771590002E-02
Spin= Alpha
 Occup= 0.492111
  1       0.000000000000
  2       0.000000000000
  3       0.000000000000
  4       0.000000000000
  5       0.000000000000
  6       0.000000000000
  7       0.000000000000
  8       0.000000000000
  9       0.000000000000
 10       0.000000000000
 11       0.000000000000
 12       0.000000000000
 13       0.000000000000
 14       0.000000000000
 15       0.000000000000
 16       0.000000000000
 17       0.000000000000
 18       0.000000000000
 19       0.000000000000
 20       0.000000000000
 21       0.000000000000
 22       0.000000000000
 23       0.000000000000
 24       0.000000000000
 25       0.000000000000
 26       0.000000000000
 27       0.000000000000
 28       0.000000000000
 29       0.000000000000
 30       0.000000000000
 31       0.000000000000
 32       0.000000000000
 33       0.000000000000
 34       0.000000000000
 35       0.000000000000
 36       0.000000000000
 37       0.000000000000
 38       0.000000000000
 39       0.000000000000
 40       0.000000000000
 41       0.000000000000
 42       0.000000000000
 43       0.000000000000
 44       0.000000000000
 45       0.000000000000
 46       0.000000000000
 47       0.000000000000
 48       0.000000000000
 49       0.000000000000
 50       0.000000000000
 51       0.000000000000
 52       0.000000000000
 53       0.000000000000
 54       0.000000000000
 55       0.000000000000
 56       0.000000000000
 57       0.000000000000
 58       0.000000000000
 59       0.000000000000
 60       0.000000000000
 61       0.000000000000
 62       0.000000000000
 63       0.000000000000
 64       0.000000000000
 65       0.000000000000
 66       0.000000000000
 67       0.000000000000
 68       0.000000000000
 69       0.000000000000
 70       0.000000000000
 71       0.000000000000
 72       0.000000000000
 73       0.000000000000
 74       0.000000000000
 75       0.000000000000
 76       0.000000000000
 77       0.000000000000
 78       0.000000000000
 79       0.000000000000
 80       0.000000000000
 81       0.000000000000
 82       0.000000000000
 83       0.000000000000
 84       0.000000000000
 85       0.000000000000
 86       0.000000000000
 87       0.000000000000
 88       0.000000000000
 89       0.000000000000
 90       0.000000000000
 91       0.000000000000
 92       0.000000000000
 93       0.000000000000
 94       0.000000000000
 95       0.000000000000
 96       0.000000000000
 97       0.000000000000
 98       0.000000000000
 99       0.000000000000
100       0.000000000000
101       0.000000000000
102       0.000000000000
103       0.000000000000
104       0.000000000000
105       0.000000000000
106       0.000000000000
107       0.000000000000
108       0.000000000000
109       0.000000000000
110       0.000000000000
111       0.000000000000
112       0.000000000000
113       0.000000000000
114       0.000000000000
115       0.000000000000
116       0.000000000000
117       0.000000000000
118       0.000000000000
119       0.000000000000
120       0.000000000000
121       0.000000000000
122       0.000000000000
123       0.000000000000
124       0.000000000000
125       0.000000000000
126       0.000000000000
127       0.000000000000
128       0.000000000000
129       0.000000000000
130       0.000000000000
131       0.000000000000
132       0.000000000000
133       0.000000000000
134       0.000000000000
135       0.000000000000
136       0.000000000000
137       0.000000000000
138       0.000000000000
139       0.000000000000
140       0.000000000000
141       0.000000000000
142       0.000000000000
143       0.148482887019
144      -1.482469711999
145       1.689474501701
146       0.000000000000
147       0.000000000000
148       0.000000000000
149       0.000000000000
150       0.000000000000
151       0.000000000000
152       0.000000000000
153       0.000000000000
154       0.000000000000
155       0.000000000000
156       0.000000000000
157       0.000000000000
158       0.000000000000
159       0.000000000000
160       0.000000000000
161       0.000000000000
162       0.000000000000
163       0.000000000000
164       0.000000000000
165       0.000000000000
166       0.000000000000
167       0.000000000000
168       0.000000000000
169       0.000000000000
170       0.000000000000
171       0.000000000000
172       0.000000000000
 Sym=     1a
 Ene= -5.00665647505768E-01
Spin= Alpha
 Occup= 1.655124
  1       0.000000000000
  2       0.000000000000
  3       0.000000000000
  4       0.000000000000
  5       0.000000000000
  6       0.000000000000
  7       0.000000000000
  8       0.000000000000
  9       0.000000000000
 10       0.000000000000
 11       0.000000000000
 12       0.000000000000
 13       0.000000000000
 14       0.000000000000
 15       0.000000000000
 16       0.000000000000
 17       0.000000000000
 18       0.000000000000
 19       0.000000000000
 20       0.000000000000
 21       0.000000000000
 22       0.000000000000
 23       0.000000000000
 24       0.000000000000
 25       0.000000000000
 26       0.000000000000
 27       0.000000000000
 28       0.000000000000
 29       0.000000000000
 30       0.000000000000
 31       0.000000000000
 32       0.000000000000
 33       0.000000000000
 34       0.000000000000
 35       0.000000000000
 36       0.000000000000
 37       0.000000000000
 38       0.000000000000
 39       0.000000000000
 40       0.000000000000
 41       0.000000000000
 42       0.000000000000
 43       0.000000000000
 44       0.000000000000
 45       0.000000000000
 46       0.000000000000
 47       0.000000000000
 48       0.000000000000
 49       0.000000000000
 50       0.000000000000
 51       0.000000000000
 52       0.000000000000
 53       0.000000000000
 54       0.000000000000
 55       0.000000000000
 56       0.000000000000
 57       0.000000000000
 58       0.000000000000
 59       0.000000000000
 60       0.000000000000
 61       0.000000000000
 62       0.000000000000
 63       0.000000000000
 64       0.000000000000
 65       0.000000000000
 66       0.000000000000
 67       0.000000000000
 68       0.000000000000
 69       0.000000000000
 70       0.000000000000
 71       0.000000000000
 72       0.000000000000
 73       0.000000000000
 74       0.000000000000
 75       0.000000000000
 76       0.000000000000
 77       0.000000000000
 78       0.000000000000
 79       0.000000000000
 80       0.000000000000
 81       0.000000000000
 82       0.000000000000
 83       0.000000000000
 84       0.000000000000
 85       0.000000000000
 86       0.000000000000
 87       0.000000000000
 88       0.000000000000
 89       0.000000000000
 90       0.000000000000
 91       0.000000000000
 92       0.000000000000
 93       0.000000000000
 94       0.000000000000
 95       0.000000000000
 96       0.000000000000
 97       0.000000000000
 98       0.000000000000
 99       0.000000000000
100       0.000000000000
101       0.000000000000
102       0.000000000000
103       0.000000000000
104       0.000000000000
105       0.000000000000
106       0.000000000000
107       0.000000000000
108       0.000000000000
109       0.000000000000
110       0.000000000000
111       0.000000000000
112       0.000000000000
113       0.000000000000
114       0.000000000000
115       0.000000000000
116       0.000000000000
117       0.000000000000
118       0.000000000000
119       0.000000000000
120       0.000000000000
121       0.000000000000
122       0.000000000000
123       0.000000000000
124       0.000000000000
125       0.000000000000
126       0.000000000000
127       0.000000000000
128       0.000000000000
129       0.000000000000
130       0.000000000000
131       0.000000000000
132       0.000000000000
133       0.000000000000
134       0.000000000000
135       0.000000000000
136       0.000000000000
137       0.000000000000
138       0.000000000000
139       0.000000000000
140       0.000000000000
141       0.000000000000
142       0.000000000000
143       0.103074899573
144       0.834744681683
145       0.113497281269
146       0.000000000000
147       0.000000000000
148       0.000000000000
149       0.000000000000
150       0.000000000000
151       0.000000000000
152       0.000000000000
153       0.000000000000
154       0.000000000000
155       0.000000000000
156       0.000000000000
157       0.000000000000
158       0.000000000000
159       0.000000000000
160       0.000000000000
161       0.000000000000
162       0.000000000000
163       0.000000000000
164       0.000000000000
165       0.000000000000
166       0.000000000000
167       0.000000000000
168       0.000000000000
169       0.000000000000
170       0.000000000000
171       0.000000000000
172       0.000000000000
 Sym=     1a
 Ene=  1.41963122666534E+00
Spin= Alpha
 Occup= 0.113434
  1       0.000000000000
  2       0.000000000000
  3       0.000000000000
  4       0.000000000000
  5       0.000000000000
  6       0.000000000000
  7       0.000000000000
  8       0.000000000000
  9       0.000000000000
 10       0.000000000000
 11       0.000000000000
 12       0.000000000000
 13       0.000000000000
 14       0.000000000000
 15       0.000000000000
 16       0.000000000000
 17       0.000000000000
 18       0.000000000000
 19       0.000000000000
 20       0.000000000000
 21       0.000000000000
 22       0.000000000000
 23       0.000000000000
 24       0.000000000000
 25       0.000000000000
 26       0.000000000000
 27       0.000000000000
 28       0.000000000000
 29       0.000000000000
 30       0.000000000000
 31       0.000000000000
 32       0.000000000000
 33       0.000000000000
 34       0.000000000000
 35       0.000000000000
 36       0.000000000000
 37       0.000000000000
 38       0.000000000000
 39       0.000000000000
 40       0.000000000000
 41       0.000000000000
 42       0.000000000000
 43       0.000000000000
 44       0.000000000000
 45       0.000000000000
 46       0.000000000000
 47       0.000000000000
 48       0.000000000000
 49       0.000000000000
 50       0.000000000000
 51       0.000000000000
 52       0.000000000000
 53       0.000000000000
 54       0.000000000000
 55       0.000000000000
 56       0.000000000000
 57       0.000000000000
 58       0.000000000000
 59       0.000000000000
 60       0.000000000000
 61       0.000000000000
 62       0.000000000000
 63       0.000000000000
 64       0.000000000000
 65       0.000000000000
 66       0.000000000000
 67       0.000000000000
 68       0.000000000000
 69       0.000000000000
 70       0.000000000000
 71       0.000000000000
 72       0.000000000000
 73       0.000000000000
 74       0.000000000000
 75       0.000000000000
 76       0.000000000000
 77       0.000000000000
 78       0.000000000000
 79       0.000000000000
 80       0.000000000000
 81       0.000000000000
 82       0.000000000000
 83       0.000000000000
 84       0.000000000000
 85       0.000000000000
 86       0.000000000000
 87       0.000000000000
 88       0.000000000000
 89       0.000000000000
 90       0.000000000000
 91       0.000000000000
 92       0.000000000000
 93       0.000000000000
 94       0.000000000000
 95       0.000000000000
 96       0.000000000000
 97       0.000000000000
 98       0.000000000000
 99       0.000000000000
100       0.000000000000
101       0.000000000000
102       0.000000000000
103       0.000000000000
104       0.000000000000
105       0.000000000000
106       0.000000000000
107       0.000000000000
108       0.000000000000
109       0.000000000000
110       0.000000000000
111       0.000000000000
112       0.000000000000
113       0.000000000000
114       0.000000000000
115       0.000000000000
116       0.000000000000
117       0.000000000000
118       0.000000000000
119       0.000000000000
120       0.000000000000
121       0.000000000000
122       0.000000000000
123       0.000000000000
124       0.000000000000
125       0.000000000000
126       0.000000000000
127       0.000000000000
128       0.000000000000
129       0.000000000000
130       0.000000000000
131       0.000000000000
132       0.000000000000
133       0.000000000000
134       0.000000000000
135       0.000000000000
136       0.000000000000
137       0.000000000000
138       0.000000000000
139       0.000000000000
140       0.000000000000
141       0.000000000000
142       0.000000000000
143       0.000000000000
144       0.000000000000
145       0.000000000000
146       1.000000000000
147       0.000000000000
148       0.000000000000
149       0.000000000000
150       0.000000000000
151       0.000000000000
152       0.000000000000
153       0.000000000000
154       0.000000000000
155       0.000000000000
156       0.000000000000
157       0.000000000000
158       0.000000000000
159       0.000000000000
160       0.000000000000
161       0.000000000000
162       0.000000000000
163       0.000000000000
164       0.000000000000
165       0.000000000000
166       0.000000000000
167       0.000000000000
168       0.000000000000
169       0.000000000000
170       0.000000000000
171       0.000000000000
172       0.000000000000
 Sym=     1a
 Ene=  1.30418091061386E+00
Spin= Alpha
 Occup= 0.113434
  1       0.000000000000
  2       0.000000000000
  3       0.000000000000
  4       0.000000000000
  5       0.000000000000
  6       0.000000000000
  7       0.000000000000
  8       0.000000000000
  9       0.000000000000
 10       0.000000000000
 11       0.000000000000
 12       0.000000000000
 13       0.000000000000
 14       0.000000000000
 15       0.000000000000
 16       0.000000000000
 17       0.000000000000
 18       0.000000000000
 19       0.000000000000
 20       0.000000000000
 21       0.000000000000
 22       0.000000000000
 23       0.000000000000
 24       0.000000000000
 25       0.000000000000
 26       0.000000000000
 27       0.000000000000
 28       0.000000000000
 29       0.000000000000
 30       0.000000000000
 31       0.000000000000
 32       0.000000000000
 33       0.000000000000
 34       0.000000000000
 35       0.000000000000
 36       0.000000000000
 37       0.000000000000
 38       0.000000000000
 39       0.000000000000
 40       0.000000000000
 41       0.000000000000
 42       0.000000000000
 43       0.000000000000
 44       0.000000000000
 45       0.000000000000
 46       0.000000000000
 47       0.000000000000
 48       0.000000000000
 49       0.000000000000
 50       0.000000000000
 51       0.000000000000
 52       0.000000000000
 53       0.000000000000
 54       0.000000000000
 55       0.000000000000
 56       0.000000000000
 57       0.000000000000
 58       0.000000000000
 59       0.000000000000
 60       0.000000000000
 61       0.000000000000
 62       0.000000000000
 63       0.000000000000
 64       0.000000000000
 65       0.000000000000
 66       0.000000000000
 67       0.000000000000
 68       0.000000000000
 69       0.000000000000
 70       0.000000000000
 71       0.000000000000
 72       0.000000000000
 73       0.000000000000
 74       0.000000000000
 75       0.000000000000
 76       0.000000000000
 77       0.000000000000
 78       0.000000000000
 79       0.000000000000
 80       0.000000000000
 81       0.000000000000
 82       0.000000000000
 83       0.000000000000
 84       0.000000000000
 85       0.000000000000
 86       0.000000000000
 87       0.000000000000
 88       0.000000000000
 89       0.000000000000
 90       0.000000000000
 91       0.000000000000
 92       0.000000000000
 93       0.000000000000
 94       0.000000000000
 95       0.000000000000
 96       0.000000000000
 97       0.000000000000
 98       0.000000000000
 99       0.000000000000
100       0.000000000000
101       0.000000000000
102       0.000000000000
103       0.000000000000
104       0.000000000000
105       0.000000000000
106       0.000000000000
107       0.000000000000
108       0.000000000000
109       0.000000000000
110       0.000000000000
111       0.000000000000
112       0.000000000000
113       0.000000000000
114       0.000000000000
115       0.000000000000
116       0.000000000000
117       0.000000000000
118       0.000000000000
119       0.000000000000
120       0.000000000000
121       0.000000000000
122       0.000000000000
123       0.000000000000
124       0.000000000000
125       0.000000000000
126       0.000000000000
127       0.000000000000
128       0.000000000000
129       0.000000000000
130       0.000000000000
131       0.000000000000
132       0.000000000000
133       0.000000000000
134       0.000000000000
135       0.000000000000
136       0.000000000000
137       0.000000000000
138       0.000000000000
139       0.000000000000
140       0.000000000000
141       0.000000000000
142       0.000000000000
143       0.000000000000
144       0.000000000000
145       0.000000000000
146       0.000000000000
147       1.000000000000
148       0.000000000000
149       0.000000000000
150       0.000000000000
151       0.000000000000
152       0.000000000000
153       0.000000000000
154       0.000000000000
155       0.000000000000
156       0.000000000000
157       0.000000000000
158       0.000000000000
159       0.000000000000
160       0.000000000000
161       0.000000000000
162       0.000000000000
163       0.000000000000
164       0.000000000000
165       0.000000000000
166       0.000000000000
167       0.000000000000
168       0.000000000000
169       0.000000000000
170       0.000000000000
171       0.000000000000
172       0.000000000000
 Sym=     1a
 Ene=  1.20848521361091E+00
Spin= Alpha
 Occup= 0.113434
  1       0.000000000000
  2       0.000000000000
  3       0.000000000000
  4       0.000000000000
  5       0.000000000000
  6       0.000000000000
  7       0.000000000000
  8       0.000000000000
  9       0.000000000000
 10       0.000000000000
 11       0.000000000000
 12       0.000000000000
 13       0.000000000000
 14       0.000000000000
 15       0.000000000000
 16       0.000000000000
 17       0.000000000000
 18       0.000000000000
 19       0.000000000000
 20       0.000000000000
 21       0.000000000000
 22       0.000000000000
 23       0.000000000000
 24       0.000000000000
 25       0.000000000000
 26       0.000000000000
 27       0.000000000000
 28       0.000000000000
 29       0.000000000000
 30       0.000000000000
 31       0.000000000000
 32       0.000000000000
 33       0.000000000000
 34       0.000000000000
 35       0.000000000000
 36       0.000000000000
 37       0.000000000000
 38       0.000000000000
 39       0.000000000000
 40       0.000000000000
 41       0.000000000000
 42       0.000000000000
 43       0.000000000000
 44       0.000000000000
 45       0.000000000000
 46       0.000000000000
 47       0.000000000000
 48       0.000000000000
 49       0.000000000000
 50       0.000000000000
 51       0.000000000000
 52       0.000000000000
 53       0.000000000000
 54       0.000000000000
 55       0.000000000000
 56       0.000000000000
 57       0.000000000000
 58       0.000000000000
 59       0.000000000000
 60       0.000000000000
 61       0.000000000000
 62       0.000000000000
 63       0.000000000000
 64       0.000000000000
 65       0.000000000000
 66       0.000000000000
 67       0.000000000000
 68       0.000000000000
 69       0.000000000000
 70       0.000000000000
 71       0.000000000000
 72       0.000000000000
 73       0.000000000000
 74       0.000000000000
 75       0.000000000000
 76       0.000000000000
 77       0.000000000000
 78       0.000000000000
 79       0.000000000000
 80       0.000000000000
 81       0.000000000000
 82       0.000000000000
 83       0.000000000000
 84       0.000000000000
 85       0.000000000000
 86       0.000000000000
 87       0.000000000000
 88       0.000000000000
 89       0.000000000000
 90       0.000000000000
 91       0.000000000000
 92       0.000000000000
 93       0.000000000000
 94       0.000000000000
 95       0.000000000000
 96       0.000000000000
 97       0.000000000000
 98       0.000000000000
 99       0.000000000000
100       0.000000000000
101       0.000000000000
102       0.000000000000
103       0.000000000000
104       0.000000000000
105       0.000000000000
106       0.000000000000
107       0.000000000000
108       0.000000000000
109       0.000000000000
110       0.000000000000
111       0.000000000000
112       0.000000000000
113       0.000000000000
114       0.000000000000
115       0.000000000000
116       0.000000000000
117       0.000000000000
118       0.000000000000
119       0.000000000000
120       0.000000000000
121       0.000000000000
122       0.000000000000
123       0.000000000000
124       0.000000000000
125       0.000000000000
126       0.000000000000
127       0.000000000000
128       0.000000000000
129       0.000000000000
130       0.000000000000
131       0.000000000000
132       0.000000000000
133       0.000000000000
134       0.000000000000
135       0.000000000000
136       0.000000000000
137       0.000000000000
138       0.000000000000
139       0.000000000000
140       0.000000000000
141       0.000000000000
142       0.000000000000
143       0.000000000000
144       0.000000000000
145       0.000000000000
146       0.000000000000
147       0.000000000000
148       1.000000000000
149       0.000000000000
150       0.000000000000
151       0.000000000000
152       0.000000000000
153       0.000000000000
154       0.000000000000
155       0.000000000000
156       0.000000000000
157       0.000000000000
158       0.000000000000
159       0.000000000000
160       0.000000000000
161       0.000000000000
162       0.000000000000
163       0.000000000000
164       0.000000000000
165       0.000000000000
166       0.000000000000
167       0.000000000000
168       0.000000000000
169       0.000000000000
170       0.000000000000
171       0.000000000000
172       0.000000000000
 Sym=     1a
 Ene=  2.15841424169647E+00
Spin= Alpha
 Occup= 0.018666
  1       0.000000000000
  2       0.000000000000
  3       0.000000000000
  4       0.000000000000
  5       0.000000000000
  6       0.000000000000
  7       0.000000000000
  8       0.000000000000
  9       0.000000000000
 10       0.000000000000
 11       0.000000000000
 12       0.000000000000
 13       0.000000000000
 14       0.000000000000
 15       0.000000000000
 16       0.000000000000
 17       0.000000000000
 18       0.000000000000
 19       0.000000000000
 20       0.000000000000
 21       0.000000000000
 22       0.000000000000
 23       0.000000000000
 24       0.000000000000
 25       0.000000000000
 26       0.000000000000
 27       0.000000000000
 28       0.000000000000
 29       0.000000000000
 30       0.000000000000
 31       0.000000000000
 32       0.000000000000
 33       0.000000000000
 34       0.000000000000
 35       0.000000000000
 36       0.000000000000
 37       0.000000000000
 38       0.000000000000
 39       0.000000000000
 40       0.000000000000
 41       0.000000000000
 42       0.000000000000
 43       0.000000000000
 44       0.000000000000
 45       0.000000000000
 46       0.000000000000
 47       0.000000000000
 48       0.000000000000
 49       0.000000000000
 50       0.000000000000
 51       0.000000000000
 52       0.000000000000
 53       0.000000000000
 54       0.000000000000
 55       0.000000000000
 56       0.000000000000
 57       0.000000000000
 58       0.000000000000
 59       0.000000000000
 60       0.000000000000
 61       0.000000000000
 62       0.000000000000
 63       0.000000000000
 64       0.000000000000
 65       0.000000000000
 66       0.000000000000
 67       0.000000000000
 68       0.000000000000
 69       0.000000000000
 70       0.000000000000
 71       0.000000000000
 72       0.000000000000
 73       0.000000000000
 74       0.000000000000
 75       0.000000000000
 76       0.000000000000
 77       0.000000000000
 78       0.000000000000
 79       0.000000000000
 80       0.000000000000
 81       0.000000000000
 82       0.000000000000
 83       0.000000000000
 84       0.000000000000
 85       0.000000000000
 86       0.000000000000
 87       0.000000000000
 88       0.000000000000
 89       0.000000000000
 90       0.000000000000
 91       0.000000000000
 92       0.000000000000
 93       0.000000000000
 94       0.000000000000
 95       0.000000000000
 96       0.000000000000
 97       0.000000000000
 98       0.000000000000
 99       0.000000000000
100       0.000000000000
101       0.000000000000
102       0.000000000000
103       0.000000000000
104       0.000000000000
105       0.000000000000
106       0.000000000000
107       0.000000000000
108       0.000000000000
109       0.000000000000
110       0.000000000000
111       0.000000000000
112       0.000000000000
113       0.000000000000
114       0.000000000000
115       0.000000000000
116       0.000000000000
117       0.000000000000
118       0.000000000000
119       0.000000000000
120       0.000000000000
121       0.000000000000
122       0.000000000000
123       0.000000000000
124       0.000000000000
125       0.000000000000
126       0.000000000000
127       0.000000000000
128       0.000000000000
129       0.000000000000
130       0.000000000000
131       0.000000000000
132       0.000000000000
133       0.000000000000
134       0.000000000000
135       0.000000000000
136       0.000000000000
137       0.000000000000
138       0.000000000000
139       0.000000000000
140       0.000000000000
141       0.000000000000
142       0.000000000000
143       0.000000000000
144       0.000000000000
145       0.000000000000
146       0.000000000000
147       0.000000000000
148       0.000000000000
149      -1.547365823546
150       1.621998007155
151      -0.592343256833
152       0.000000000000
153       0.000000000000
154       0.000000000000
155       0.000000000000
156       0.000000000000
157       0.000000000000
158       0.000000000000
159       0.000000000000
160       0.000000000000
161       0.000000000000
162       0.000000000000
163       0.000000000000
164       0.000000000000
165       0.000000000000
166       0.000000000000
167       0.000000000000
168       0.000000000000
169       0.000000000000
170       0.000000000000
171       0.000000000000
172       0.000000000000
 Sym=     1a
 Ene=  9.25976625841690E-02
Spin= Alpha
 Occup= 0.492112
  1       0.000000000000
  2       0.000000000000
  3       0.000000000000
  4       0.000000000000
  5       0.000000000000
  6       0.000000000000
  7       0.000000000000
  8       0.000000000000
  9       0.000000000000
 10       0.000000000000
 11       0.000000000000
 12       0.000000000000
 13       0.000000000000
 14       0.000000000000
 15       0.000000000000
 16       0.000000000000
 17       0.000000000000
 18       0.000000000000
 19       0.000000000000
 20       0.000000000000
 21       0.000000000000
 22       0.000000000000
 23       0.000000000000
 24       0.000000000000
 25       0.000000000000
 26       0.000000000000
 27       0.000000000000
 28       0.000000000000
 29       0.000000000000
 30       0.000000000000
 31       0.000000000000
 32       0.000000000000
 33       0.000000000000
 34       0.000000000000
 35       0.000000000000
 36       0.000000000000
 37       0.000000000000
 38       0.000000000000
 39       0.000000000000
 40       0.000000000000
 41       0.000000000000
 42       0.000000000000
 43       0.000000000000
 44       0.000000000000
 45       0.000000000000
 46       0.000000000000
 47       0.000000000000
 48       0.000000000000
 49       0.000000000000
 50       0.000000000000
 51       0.000000000000
 52       0.000000000000
 53       0.000000000000
 54       0.000000000000
 55       0.000000000000
 56       0.000000000000
 57       0.000000000000
 58       0.000000000000
 59       0.000000000000
 60       0.000000000000
 61       0.000000000000
 62       0.000000000000
 63       0.000000000000
 64       0.000000000000
 65       0.000000000000
 66       0.000000000000
 67       0.000000000000
 68       0.000000000000
 69       0.000000000000
 70       0.000000000000
 71       0.000000000000
 72       0.000000000000
 73       0.000000000000
 74       0.000000000000
 75       0.000000000000
 76       0.000000000000
 77       0.000000000000
 78       0.000000000000
 79       0.000000000000
 80       0.000000000000
 81       0.000000000000
 82       0.000000000000
 83       0.000000000000
 84       0.000000000000
 85       0.000000000000
 86       0.000000000000
 87       0.000000000000
 88       0.000000000000
 89       0.000000000000
 90       0.000000000000
 91       0.000000000000
 92       0.000000000000
 93       0.000000000000
 94       0.000000000000
 95       0.000000000000
 96       0.000000000000
 97       0.000000000000
 98       0.000000000000
 99       0.000000000000
100       0.000000000000
101       0.000000000000
102       0.000000000000
103       0.000000000000
104       0.000000000000
105       0.000000000000
106       0.000000000000
107       0.000000000000
108       0.000000000000
109       0.000000000000
110       0.000000000000
111       0.000000000000
112       0.000000000000
113       0.000000000000
114       0.000000000000
115       0.000000000000
116       0.000000000000
117       0.000000000000
118       0.000000000000
119       0.000000000000
120       0.000000000000
121       0.000000000000
122       0.000000000000
123       0.000000000000
124       0.000000000000
125       0.000000000000
126       0.000000000000
127       0.000000000000
128       0.000000000000
129       0.000000000000
130       0.000000000000
131       0.000000000000
132       0.000000000000
133       0.000000000000
134       0.000000000000
135       0.000000000000
136       0.000000000000
137       0.000000000000
138       0.000000000000
139       0.000000000000
140       0.000000000000
141       0.000000000000
142       0.000000000000
143       0.000000000000
144       0.000000000000
145       0.000000000000
146       0.000000000000
147       0.000000000000
148       0.000000000000
149       0.148484071236
150      -1.482471088755
151       1.689474944394
152       0.000000000000
153       0.000000000000
154       0.000000000000
155       0.000000000000
156       0.000000000000
157       0.000000000000
158       0.000000000000
159       0.000000000000
160       0.000000000000
161       0.000000000000
162       0.000000000000
163       0.000000000000
164       0.000000000000
165       0.000000000000
166       0.000000000000
167       0.000000000000
168       0.000000000000
169       0.000000000000
170       0.000000000000
171       0.000000000000
172       0.000000000000
 Sym=     1a
 Ene= -5.00666021582736E-01
Spin= Alpha
 Occup= 1.655125
  1       0.000000000000
  2       0.000000000000
  3       0.000000000000
  4       0.000000000000
  5       0.000000000000
  6       0.000000000000
  7       0.000000000000
  8       0.000000000000
  9       0.000000000000
 10       0.000000000000
 11       0.000000000000
 12       0.000000000000
 13       0.000000000000
 14       0.000000000000
 15       0.000000000000
 16       0.000000000000
 17       0.000000000000
 18       0.000000000000
 19       0.000000000000
 20       0.000000000000
 21       0.000000000000
 22       0.000000000000
 23       0.000000000000
 24       0.000000000000
 25       0.000000000000
 26       0.000000000000
 27       0.000000000000
 28       0.000000000000
 29       0.000000000000
 30       0.000000000000
 31       0.000000000000
 32       0.000000000000
 33       0.000000000000
 34       0.000000000000
 35       0.000000000000
 36       0.000000000000
 37       0.000000000000
 38       0.000000000000
 39       0.000000000000
 40       0.000000000000
 41       0.000000000000
 42       0.000000000000
 43       0.000000000000
 44       0.000000000000
 45       0.000000000000
 46       0.000000000000
 47       0.000000000000
 48       0.000000000000
 49       0.000000000000
 50       0.000000000000
 51       0.000000000000
 52       0.000000000000
 53       0.000000000000
 54       0.000000000000
 55       0.000000000000
 56       0.000000000000
 57       0.000000000000
 58       0.000000000000
 59       0.000000000000
 60       0.000000000000
 61       0.000000000000
 62       0.000000000000
 63       0.000000000000
 64       0.000000000000
 65       0.000000000000
 66       0.000000000000
 67       0.000000000000
 68       0.000000000000
 69       0.000000000000
 70       0.000000000000
 71       0.000000000000
 72       0.000000000000
 73       0.000000000000
 74       0.000000000000
 75       0.000000000000
 76       0.000000000000
 77       0.000000000000
 78       0.000000000000
 79       0.000000000000
 80       0.000000000000
 81       0.000000000000
 82       0.000000000000
 83       0.000000000000
 84       0.000000000000
 85       0.000000000000
 86       0.000000000000
 87       0.000000000000
 88       0.000000000000
 89       0.000000000000
 90       0.000000000000
 91       0.000000000000
 92       0.000000000000
 93       0.000000000000
 94       0.000000000000
 95       0.000000000000
 96       0.000000000000
 97       0.000000000000
 98       0.000000000000
 99       0.000000000000
100       0.000000000000
101       0.000000000000
102       0.000000000000
103       0.000000000000
104       0.000000000000
105       0.000000000000
106       0.000000000000
107       0.000000000000
108       0.000000000000
109       0.000000000000
110       0.000000000000
111       0.000000000000
112       0.000000000000
113       0.000000000000
114       0.000000000000
115       0.000000000000
116       0.000000000000
117       0.000000000000
118       0.000000000000
119       0.000000000000
120       0.000000000000
121       0.000000000000
122       0.000000000000
123       0.000000000000
124       0.000000000000
125       0.000000000000
126       0.000000000000
127       0.000000000000
128       0.000000000000
129       0.000000000000
130       0.000000000000
131       0.000000000000
132       0.000000000000
133       0.000000000000
134       0.000000000000
135       0.000000000000
136       0.000000000000
137       0.000000000000
138       0.000000000000
139       0.000000000000
140       0.000000000000
141       0.000000000000
142       0.000000000000
143       0.000000000000
144       0.000000000000
145       0.000000000000
146       0.000000000000
147       0.000000000000
148       0.000000000000
149       0.103075261697
150       0.834744111510
151       0.113497654402
152       0.000000000000
153       0.000000000000
154       0.000000000000
155       0.000000000000
156       0.000000000000
157       0.000000000000
158       0.000000000000
159       0.000000000000
160       0.000000000000
161       0.000000000000
162       0.000000000000
163       0.000000000000
164       0.000000000000
165       0.000000000000
166       0.000000000000
167       0.000000000000
168       0.000000000000
169       0.000000000000
170       0.000000000000
171       0.000000000000
172       0.000000000000
 Sym=     1a
 Ene=  1.41963151692317E+00
Spin= Alpha
 Occup= 0.113434
  1       0.000000000000
  2       0.000000000000
  3       0.000000000000
  4       0.000000000000
  5       0.000000000000
  6       0.000000000000
  7       0.000000000000
  8       0.000000000000
  9       0.000000000000
 10       0.000000000000
 11       0.000000000000
 12       0.000000000000
 13       0.000000000000
 14       0.000000000000
 15       0.000000000000
 16       0.000000000000
 17       0.000000000000
 18       0.000000000000
 19       0.000000000000
 20       0.000000000000
 21       0.000000000000
 22       0.000000000000
 23       0.000000000000
 24       0.000000000000
 25       0.000000000000
 26       0.000000000000
 27       0.000000000000
 28       0.000000000000
 29       0.000000000000
 30       0.000000000000
 31       0.000000000000
 32       0.000000000000
 33       0.000000000000
 34       0.000000000000
 35       0.000000000000
 36       0.000000000000
 37       0.000000000000
 38       0.000000000000
 39       0.000000000000
 40       0.000000000000
 41       0.000000000000
 42       0.000000000000
 43       0.000000000000
 44       0.000000000000
 45       0.000000000000
 46       0.000000000000
 47       0.000000000000
 48       0.000000000000
 49       0.000000000000
 50       0.000000000000
 51       0.000000000000
 52       0.000000000000
 53       0.000000000000
 54       0.000000000000
 55       0.000000000000
 56       0.000000000000
 57       0.000000000000
 58       0.000000000000
 59       0.000000000000
 60       0.000000000000
 61       0.000000000000
 62       0.000000000000
 63       0.000000000000
 64       0.000000000000
 65       0.000000000000
 66       0.000000000000
 67       0.000000000000
 68       0.000000000000
 69       0.000000000000
 70       0.000000000000
 71       0.000000000000
 72       0.000000000000
 73       0.000000000000
 74       0.000000000000
 75       0.000000000000
 76       0.000000000000
 77       0.000000000000
 78       0.000000000000
 79       0.000000000000
 80       0.000000000000
 81       0.000000000000
 82       0.000000000000
 83       0.000000000000
 84       0.000000000000
 85       0.000000000000
 86       0.000000000000
 87       0.000000000000
 88       0.000000000000
 89       0.000000000000
 90       0.000000000000
 91       0.000000000000
 92       0.000000000000
 93       0.000000000000
 94       0.000000000000
 95       0.000000000000
 96       0.000000000000
 97       0.000000000000
 98       0.000000000000
 99       0.000000000000
100       0.000000000000
101       0.000000000000
102       0.000000000000
103       0.000000000000
104       0.000000000000
105       0.000000000000
106       0.000000000000
107       0.000000000000
108       0.000000000000
109       0.000000000000
110       0.000000000000
111       0.000000000000
112       0.000000000000
113       0.000000000000
114       0.000000000000
115       0.000000000000
116       0.000000000000
117       0.000000000000
118       0.000000000000
119       0.000000000000
120       0.000000000000
121       0.000000000000
122       0.000000000000
123       0.000000000000
124       0.000000000000
125       0.000000000000
126       0.000000000000
127       0.000000000000
128       0.000000000000
129       0.000000000000
130       0.000000000000
131       0.000000000000
132       0.000000000000
133       0.000000000000
134       0.000000000000
135       0.000000000000
136       0.000000000000
137       0.000000000000
138       0.000000000000
139       0.000000000000
140       0.000000000000
141       0.000000000000
142       0.000000000000
143       0.000000000000
144       0.000000000000
145       0.000000000000
146       0.000000000000
147       0.000000000000
148       0.000000000000
149       0.000000000000
150       0.000000000000
151       0.000000000000
152       1.000000000000
153       0.000000000000
154       0.000000000000
155       0.000000000000
156       0.000000000000
157       0.000000000000
158       0.000000000000
159       0.000000000000
160       0.000000000000
161       0.000000000000
162       0.000000000000
163       0.000000000000
164       0.000000000000
165       0.000000000000
166       0.000000000000
167       0.000000000000
168       0.000000000000
169       0.000000000000
170       0.000000000000
171       0.000000000000
172       0.000000000000
 Sym=     1a
 Ene=  1.30418236042560E+00
Spin= Alpha
 Occup= 0.113434
  1       0.000000000000
  2       0.000000000000
  3       0.000000000000
  4       0.000000000000
  5       0.000000000000
  6       0.000000000000
  7       0.000000000000
  8       0.000000000000
  9       0.000000000000
 10       0.000000000000
 11       0.000000000000
 12       0.000000000000
 13       0.000000000000
 14       0.000000000000
 15       0.000000000000
 16       0.000000000000
 17       0.000000000000
 18       0.000000000000
 19       0.000000000000
 20       0.000000000000
 21       0.000000000000
 22       0.000000000000
 23       0.000000000000
 24       0.000000000000
 25       0.000000000000
 26       0.000000000000
 27       0.000000000000
 28       0.000000000000
 29       0.000000000000
 30       0.000000000000
 31       0.000000000000
 32       0.000000000000
 33       0.000000000000
 34       0.000000000000
 35       0.000000000000
 36       0.000000000000
 37       0.000000000000
 38       0.000000000000
 39       0.000000000000
 40       0.000000000000
 41       0.000000000000
 42       0.000000000000
 43       0.000000000000
 44       0.000000000000
 45       0.000000000000
 46       0.000000000000
 47       0.000000000000
 48       0.000000000000
 49       0.000000000000
 50       0.000000000000
 51       0.000000000000
 52       0.000000000000
 53       0.000000000000
 54       0.000000000000
 55       0.000000000000
 56       0.000000000000
 57       0.000000000000
 58       0.000000000000
 59       0.000000000000
 60       0.000000000000
 61       0.000000000000
 62       0.000000000000
 63       0.000000000000
 64       0.000000000000
 65       0.000000000000
 66       0.000000000000
 67       0.000000000000
 68       0.000000000000
 69       0.000000000000
 70       0.000000000000
 71       0.000000000000
 72       0.000000000000
 73       0.000000000000
 74       0.000000000000
 75       0.000000000000
 76       0.000000000000
 77       0.000000000000
 78       0.000000000000
 79       0.000000000000
 80       0.000000000000
 81       0.000000000000
 82       0.000000000000
 83       0.000000000000
 84       0.000000000000
 85       0.000000000000
 86       0.000000000000
 87       0.000000000000
 88       0.000000000000
 89       0.000000000000
 90       0.000000000000
 91       0.000000000000
 92       0.000000000000
 93       0.000000000000
 94       0.000000000000
 95       0.000000000000
 96       0.000000000000
 97       0.000000000000
 98       0.000000000000
 99       0.000000000000
100       0.000000000000
101       0.000000000000
102       0.000000000000
103       0.000000000000
104       0.000000000000
105       0.000000000000
106       0.000000000000
107       0.000000000000
108       0.000000000000
109       0.000000000000
110       0.000000000000
111       0.000000000000
112       0.000000000000
113       0.000000000000
114       0.000000000000
115       0.000000000000
116       0.000000000000
117       0.000000000000
118       0.000000000000
119       0.000000000000
120       0.000000000000
121       0.000000000000
122       0.000000000000
123       0.000000000000
124       0.000000000000
125       0.000000000000
126       0.000000000000
127       0.000000000000
128       0.000000000000
129       0.000000000000
130       0.000000000000
131       0.000000000000
132       0.000000000000
133       0.000000000000
134       0.000000000000
135       0.000000000000
136       0.000000000000
137       0.000000000000
138       0.000000000000
139       0.000000000000
140       0.000000000000
141       0.000000000000
142       0.000000000000
143       0.000000000000
144       0.000000000000
145       0.000000000000
146       0.000000000000
147       0.000000000000
148       0.000000000000
149       0.000000000000
150       0.000000000000
151       0.000000000000
152       0.000000000000
153       1.000000000000
154       0.000000000000
155       0.000000000000
156       0.000000000000
157       0.000000000000
158       0.000000000000
159       0.000000000000
160       0.000000000000
161       0.000000000000
162       0.000000000000
163       0.000000000000
164       0.000000000000
165       0.000000000000
166       0.000000000000
167       0.000000000000
168       0.000000000000
169       0.000000000000
170       0.000000000000
171       0.000000000000
172       0.000000000000
 Sym=     1a
 Ene=  1.20848278166670E+00
Spin= Alpha
 Occup= 0.113434
  1       0.000000000000
  2       0.000000000000
  3       0.000000000000
  4       0.000000000000
  5       0.000000000000
  6       0.000000000000
  7       0.000000000000
  8       0.000000000000
  9       0.000000000000
 10       0.000000000000
 11       0.000000000000
 12       0.000000000000
 13       0.000000000000
 14       0.000000000000
 15       0.000000000000
 16       0.000000000000
 17       0.000000000000
 18       0.000000000000
 19       0.000000000000
 20       0.000000000000
 21       0.000000000000
 22       0.000000000000
 23       0.000000000000
 24       0.000000000000
 25       0.000000000000
 26       0.000000000000
 27       0.000000000000
 28       0.000000000000
 29       0.000000000000
 30       0.000000000000
 31       0.000000000000
 32       0.000000000000
 33       0.000000000000
 34       0.000000000000
 35       0.000000000000
 36       0.000000000000
 37       0.000000000000
 38       0.000000000000
 39       0.000000000000
 40       0.000000000000
 41       0.000000000000
 42       0.000000000000
 43       0.000000000000
 44       0.000000000000
 45       0.000000000000
 46       0.000000000000
 47       0.000000000000
 48       0.000000000000
 49       0.000000000000
 50       0.000000000000
 51       0.000000000000
 52       0.000000000000
 53       0.000000000000
 54       0.000000000000
 55       0.000000000000
 56       0.000000000000
 57       0.000000000000
 58       0.000000000000
 59       0.000000000000
 60       0.000000000000
 61       0.000000000000
 62       0.000000000000
 63       0.000000000000
 64       0.000000000000
 65       0.000000000000
 66       0.000000000000
 67       0.000000000000
 68       0.000000000000
 69       0.000000000000
 70       0.000000000000
 71       0.000000000000
 72       0.000000000000
 73       0.000000000000
 74       0.000000000000
 75       0.000000000000
 76       0.000000000000
 77       0.000000000000
 78       0.000000000000
 79       0.000000000000
 80       0.000000000000
 81       0.000000000000
 82       0.000000000000
 83       0.000000000000
 84       0.000000000000
 85       0.000000000000
 86       0.000000000000
 87       0.000000000000
 88       0.000000000000
 89       0.000000000000
 90       0.000000000000
 91       0.000000000000
 92       0.000000000000
 93       0.000000000000
 94       0.000000000000
 95       0.000000000000
 96       0.000000000000
 97       0.000000000000
 98       0.000000000000
 99       0.000000000000
100       0.000000000000
101       0.000000000000
102       0.000000000000
103       0.000000000000
104       0.000000000000
105       0.000000000000
106       0.000000000000
107       0.000000000000
108       0.000000000000
109       0.000000000000
110       0.000000000000
111       0.000000000000
112       0.000000000000
113       0.000000000000
114       0.000000000000
115       0.000000000000
116       0.000000000000
117       0.000000000000
118       0.000000000000
119       0.000000000000
120       0.000000000000
121       0.000000000000
122       0.000000000000
123       0.000000000000
124       0.000000000000
125       0.000000000000
126       0.000000000000
127       0.000000000000
128       0.000000000000
129       0.000000000000
130       0.000000000000
131       0.000000000000
132       0.000000000000
133       0.000000000000
134       0.000000000000
135       0.000000000000
136       0.000000000000
137       0.000000000000
138       0.000000000000
139       0.000000000000
140       0.000000000000
141       0.000000000000
142       0.000000000000
143       0.000000000000
144       0.000000000000
145       0.000000000000
146       0.000000000000
147       0.000000000000
148       0.000000000000
149       0.000000000000
150       0.000000000000
151       0.000000000000
152       0.000000000000
153       0.000000000000
154       1.000000000000
155       0.000000000000
156       0.000000000000
157       0.000000000000
158       0.000000000000
159       0.000000000000
160       0.000000000000
161       0.000000000000
162       0.000000000000
163       0.000000000000
164       0.000000000000
165       0.000000000000
166       0.000000000000
167       0.000000000000
168       0.000000000000
169       0.000000000000
170       0.000000000000
171       0.000000000000
172       0.000000000000
 Sym=     1a
 Ene=  2.15658493428332E+00
Spin= Alpha
 Occup= 0.018765
  1       0.000000000000
  2       0.000000000000
  3       0.000000000000
  4       0.000000000000
  5       0.000000000000
  6       0.000000000000
  7       0.000000000000
  8       0.000000000000
  9       0.000000000000
 10       0.000000000000
 11       0.000000000000
 12       0.000000000000
 13       0.000000000000
 14       0.000000000000
 15       0.000000000000
 16       0.000000000000
 17       0.000000000000
 18       0.000000000000
 19       0.000000000000
 20       0.000000000000
 21       0.000000000000
 22       0.000000000000
 23       0.000000000000
 24       0.000000000000
 25       0.000000000000
 26       0.000000000000
 27       0.000000000000
 28       0.000000000000
 29       0.000000000000
 30       0.000000000000
 31       0.000000000000
 32       0.000000000000
 33       0.000000000000
 34       0.000000000000
 35       0.000000000000
 36       0.000000000000
 37       0.000000000000
 38       0.000000000000
 39       0.000000000000
 40       0.000000000000
 41       0.000000000000
 42       0.000000000000
 43       0.000000000000
 44       0.000000000000
 45       0.000000000000
 46       0.000000000000
 47       0.000000000000
 48       0.000000000000
 49       0.000000000000
 50       0.000000000000
 51       0.000000000000
 52       0.000000000000
 53       0.000000000000
 54       0.000000000000
 55       0.000000000000
 56       0.000000000000
 57       0.000000000000
 58       0.000000000000
 59       0.000000000000
 60       0.000000000000
 61       0.000000000000
 62       0.000000000000
 63       0.000000000000
 64       0.000000000000
 65       0.000000000000
 66       0.000000000000
 67       0.000000000000
 68       0.000000000000
 69       0.000000000000
 70       0.000000000000
 71       0.000000000000
 72       0.000000000000
 73       0.000000000000
 74       0.000000000000
 75       0.000000000000
 76       0.000000000000
 77       0.000000000000
 78       0.000000000000
 79       0.000000000000
 80       0.000000000000
 81       0.000000000000
 82       0.000000000000
 83       0.000000000000
 84       0.000000000000
 85       0.000000000000
 86       0.000000000000
 87       0.000000000000
 88       0.000000000000
 89       0.000000000000
 90       0.000000000000
 91       0.000000000000
 92       0.000000000000
 93       0.000000000000
 94       0.000000000000
 95       0.000000000000
 96       0.000000000000
 97       0.000000000000
 98       0.000000000000
 99       0.000000000000
100       0.000000000000
101       0.000000000000
102       0.000000000000
103       0.000000000000
104       0.000000000000
105       0.000000000000
106       0.000000000000
107       0.000000000000
108       0.000000000000
109       0.000000000000
110       0.000000000000
111       0.000000000000
112       0.000000000000
113       0.000000000000
114       0.000000000000
115       0.000000000000
116       0.000000000000
117       0.000000000000
118       0.000000000000
119       0.000000000000
120       0.000000000000
121       0.000000000000
122       0.000000000000
123       0.000000000000
124       0.000000000000
125       0.000000000000
126       0.000000000000
127       0.000000000000
128       0.000000000000
129       0.000000000000
130       0.000000000000
131       0.000000000000
132       0.000000000000
133       0.000000000000
134       0.000000000000
135       0.000000000000
136       0.000000000000
137       0.000000000000
138       0.000000000000
139       0.000000000000
140       0.000000000000
141       0.000000000000
142       0.000000000000
143       0.000000000000
144       0.000000000000
145       0.000000000000
146       0.000000000000
147       0.000000000000
148       0.000000000000
149       0.000000000000
150       0.000000000000
151       0.000000000000
152       0.000000000000
153       0.000000000000
154       0.000000000000
155      -1.546284642682
156       1.615840169640
157      -0.582838615300
158       0.000000000000
159       0.000000000000
160       0.000000000000
161       0.000000000000
162       0.000000000000
163       0.000000000000
164       0.000000000000
165       0.000000000000
166       0.000000000000
167       0.000000000000
168       0.000000000000
169       0.000000000000
170       0.000000000000
171       0.000000000000
172       0.000000000000
 Sym=     1a
 Ene=  8.98605739683409E-02
Spin= Alpha
 Occup= 0.509194
  1       0.000000000000
  2       0.000000000000
  3       0.000000000000
  4       0.000000000000
  5       0.000000000000
  6       0.000000000000
  7       0.000000000000
  8       0.000000000000
  9       0.000000000000
 10       0.000000000000
 11       0.000000000000
 12       0.000000000000
 13       0.000000000000
 14       0.000000000000
 15       0.000000000000
 16       0.000000000000
 17       0.000000000000
 18       0.000000000000
 19       0.000000000000
 20       0.000000000000
 21       0.000000000000
 22       0.000000000000
 23       0.000000000000
 24       0.000000000000
 25       0.000000000000
 26       0.000000000000
 27       0.000000000000
 28       0.000000000000
 29       0.000000000000
 30       0.000000000000
 31       0.000000000000
 32       0.000000000000
 33       0.000000000000
 34       0.000000000000
 35       0.000000000000
 36       0.000000000000
 37       0.000000000000
 38       0.000000000000
 39       0.000000000000
 40       0.000000000000
 41       0.000000000000
 42       0.000000000000
 43       0.000000000000
 44       0.000000000000
 45       0.000000000000
 46       0.000000000000
 47       0.000000000000
 48       0.000000000000
 49       0.000000000000
 50       0.000000000000
 51       0.000000000000
 52       0.000000000000
 53       0.000000000000
 54       0.000000000000
 55       0.000000000000
 56       0.000000000000
 57       0.000000000000
 58       0.000000000000
 59       0.000000000000
 60       0.000000000000
 61       0.000000000000
 62       0.000000000000
 63       0.000000000000
 64       0.000000000000
 65       0.000000000000
 66       0.000000000000
 67       0.000000000000
 68       0.000000000000
 69       0.000000000000
 70       0.000000000000
 71       0.000000000000
 72       0.000000000000
 73       0.000000000000
 74       0.000000000000
 75       0.000000000000
 76       0.000000000000
 77       0.000000000000
 78       0.000000000000
 79       0.000000000000
 80       0.000000000000
 81       0.000000000000
 82       0.000000000000
 83       0.000000000000
 84       0.000000000000
 85       0.000000000000
 86       0.000000000000
 87       0.000000000000
 88       0.000000000000
 89       0.000000000000
 90       0.000000000000
 91       0.000000000000
 92       0.000000000000
 93       0.000000000000
 94       0.000000000000
 95       0.000000000000
 96       0.000000000000
 97       0.000000000000
 98       0.000000000000
 99       0.000000000000
100       0.000000000000
101       0.000000000000
102       0.000000000000
103       0.000000000000
104       0.000000000000
105       0.000000000000
106       0.000000000000
107       0.000000000000
108       0.000000000000
109       0.000000000000
110       0.000000000000
111       0.000000000000
112       0.000000000000
113       0.000000000000
114       0.000000000000
115       0.000000000000
116       0.000000000000
117       0.000000000000
118       0.000000000000
119       0.000000000000
120       0.000000000000
121       0.000000000000
122       0.000000000000
123       0.000000000000
124       0.000000000000
125       0.000000000000
126       0.000000000000
127       0.000000000000
128       0.000000000000
129       0.000000000000
130       0.000000000000
131       0.000000000000
132       0.000000000000
133       0.000000000000
134       0.000000000000
135       0.000000000000
136       0.000000000000
137       0.000000000000
138       0.000000000000
139       0.000000000000
140       0.000000000000
141       0.000000000000
142       0.000000000000
143       0.000000000000
144       0.000000000000
145       0.000000000000
146       0.000000000000
147       0.000000000000
148       0.000000000000
149       0.000000000000
150       0.000000000000
151       0.000000000000
152       0.000000000000
153       0.000000000000
154       0.000000000000
155       0.156738937290
156      -1.492809794876
157       1.692473877634
158       0.000000000000
159       0.000000000000
160       0.000000000000
161       0.000000000000
162       0.000000000000
163       0.000000000000
164       0.000000000000
165       0.000000000000
166       0.000000000000
167       0.000000000000
168       0.000000000000
169       0.000000000000
170       0.000000000000
171       0.000000000000
172       0.000000000000
 Sym=     1a
 Ene= -5.02405455477045E-01
Spin= Alpha
 Occup= 1.660984
  1       0.000000000000
  2       0.000000000000
  3       0.000000000000
  4       0.000000000000
  5       0.000000000000
  6       0.000000000000
  7       0.000000000000
  8       0.000000000000
  9       0.000000000000
 10       0.000000000000
 11       0.000000000000
 12       0.000000000000
 13       0.000000000000
 14       0.000000000000
 15       0.000000000000
 16       0.000000000000
 17       0.000000000000
 18       0.000000000000
 19       0.000000000000
 20       0.000000000000
 21       0.000000000000
 22       0.000000000000
 23       0.000000000000
 24       0.000000000000
 25       0.000000000000
 26       0.000000000000
 27       0.000000000000
 28       0.000000000000
 29       0.000000000000
 30       0.000000000000
 31       0.000000000000
 32       0.000000000000
 33       0.000000000000
 34       0.000000000000
 35       0.000000000000
 36       0.000000000000
 37       0.000000000000
 38       0.000000000000
 39       0.000000000000
 40       0.000000000000
 41       0.000000000000
 42       0.000000000000
 43       0.000000000000
 44       0.000000000000
 45       0.000000000000
 46       0.000000000000
 47       0.000000000000
 48       0.000000000000
 49       0.000000000000
 50       0.000000000000
 51       0.000000000000
 52       0.000000000000
 53       0.000000000000
 54       0.000000000000
 55       0.000000000000
 56       0.000000000000
 57       0.000000000000
 58       0.000000000000
 59       0.000000000000
 60       0.000000000000
 61       0.000000000000
 62       0.000000000000
 63       0.000000000000
 64       0.000000000000
 65       0.000000000000
 66       0.000000000000
 67       0.000000000000
 68       0.000000000000
 69       0.000000000000
 70       0.000000000000
 71       0.000000000000
 72       0.000000000000
 73       0.000000000000
 74       0.000000000000
 75       0.000000000000
 76       0.000000000000
 77       0.000000000000
 78       0.000000000000
 79       0.000000000000
 80       0.000000000000
 81       0.000000000000
 82       0.000000000000
 83       0.000000000000
 84       0.000000000000
 85       0.000000000000
 86       0.000000000000
 87       0.000000000000
 88       0.000000000000
 89       0.000000000000
 90       0.000000000000
 91       0.000000000000
 92       0.000000000000
 93       0.000000000000
 94       0.000000000000
 95       0.000000000000
 96       0.000000000000
 97       0.000000000000
 98       0.000000000000
 99       0.000000000000
100       0.000000000000
101       0.000000000000
102       0.000000000000
103       0.000000000000
104       0.000000000000
105       0.000000000000
106       0.000000000000
107       0.000000000000
108       0.000000000000
109       0.000000000000
110       0.000000000000
111       0.000000000000
112       0.000000000000
113       0.000000000000
114       0.000000000000
115       0.000000000000
116       0.000000000000
117       0.000000000000
118       0.000000000000
119       0.000000000000
120       0.000000000000
121       0.000000000000
122       0.000000000000
123       0.000000000000
124       0.000000000000
125       0.000000000000
126       0.000000000000
127       0.000000000000
128       0.000000000000
129       0.000000000000
130       0.000000000000
131       0.000000000000
132       0.000000000000
133       0.000000000000
134       0.000000000000
135       0.000000000000
136       0.000000000000
137       0.000000000000
138       0.000000000000
139       0.000000000000
140       0.000000000000
141       0.000000000000
142       0.000000000000
143       0.000000000000
144       0.000000000000
145       0.000000000000
146       0.000000000000
147       0.000000000000
148       0.000000000000
149       0.000000000000
150       0.000000000000
151       0.000000000000
152       0.000000000000
153       0.000000000000
154       0.000000000000
155       0.107003412134
156       0.828236233454
157       0.117937107174
158       0.000000000000
159       0.000000000000
160       0.000000000000
161       0.000000000000
162       0.000000000000
163       0.000000000000
164       0.000000000000
165       0.000000000000
166       0.000000000000
167       0.000000000000
168       0.000000000000
169       0.000000000000
170       0.000000000000
171       0.000000000000
172       0.000000000000
 Sym=     1a
 Ene=  1.20155525604385E+00
Spin= Alpha
 Occup= 0.112587
  1       0.000000000000
  2       0.000000000000
  3       0.000000000000
  4       0.000000000000
  5       0.000000000000
  6       0.000000000000
  7       0.000000000000
  8       0.000000000000
  9       0.000000000000
 10       0.000000000000
 11       0.000000000000
 12       0.000000000000
 13       0.000000000000
 14       0.000000000000
 15       0.000000000000
 16       0.000000000000
 17       0.000000000000
 18       0.000000000000
 19       0.000000000000
 20       0.000000000000
 21       0.000000000000
 22       0.000000000000
 23       0.000000000000
 24       0.000000000000
 25       0.000000000000
 26       0.000000000000
 27       0.000000000000
 28       0.000000000000
 29       0.000000000000
 30       0.000000000000
 31       0.000000000000
 32       0.000000000000
 33       0.000000000000
 34       0.000000000000
 35       0.000000000000
 36       0.000000000000
 37       0.000000000000
 38       0.000000000000
 39       0.000000000000
 40       0.000000000000
 41       0.000000000000
 42       0.000000000000
 43       0.000000000000
 44       0.000000000000
 45       0.000000000000
 46       0.000000000000
 47       0.000000000000
 48       0.000000000000
 49       0.000000000000
 50       0.000000000000
 51       0.000000000000
 52       0.000000000000
 53       0.000000000000
 54       0.000000000000
 55       0.000000000000
 56       0.000000000000
 57       0.000000000000
 58       0.000000000000
 59       0.000000000000
 60       0.000000000000
 61       0.000000000000
 62       0.000000000000
 63       0.000000000000
 64       0.000000000000
 65       0.000000000000
 66       0.000000000000
 67       0.000000000000
 68       0.000000000000
 69       0.000000000000
 70       0.000000000000
 71       0.000000000000
 72       0.000000000000
 73       0.000000000000
 74       0.000000000000
 75       0.000000000000
 76       0.000000000000
 77       0.000000000000
 78       0.000000000000
 79       0.000000000000
 80       0.000000000000
 81       0.000000000000
 82       0.000000000000
 83       0.000000000000
 84       0.000000000000
 85       0.000000000000
 86       0.000000000000
 87       0.000000000000
 88       0.000000000000
 89       0.000000000000
 90       0.000000000000
 91       0.000000000000
 92       0.000000000000
 93       0.000000000000
 94       0.000000000000
 95       0.000000000000
 96       0.000000000000
 97       0.000000000000
 98       0.000000000000
 99       0.000000000000
100       0.000000000000
101       0.000000000000
102       0.000000000000
103       0.000000000000
104       0.000000000000
105       0.000000000000
106       0.000000000000
107       0.000000000000
108       0.000000000000
109       0.000000000000
110       0.000000000000
111       0.000000000000
112       0.000000000000
113       0.000000000000
114       0.000000000000
115       0.000000000000
116       0.000000000000
117       0.000000000000
118       0.000000000000
119       0.000000000000
120       0.000000000000
121       0.000000000000
122       0.000000000000
123       0.000000000000
124       0.000000000000
125       0.000000000000
126       0.000000000000
127       0.000000000000
128       0.000000000000
129       0.000000000000
130       0.000000000000
131       0.000000000000
132       0.000000000000
133       0.000000000000
134       0.000000000000
135       0.000000000000
136       0.000000000000
137       0.000000000000
138       0.000000000000
139       0.000000000000
140       0.000000000000
141       0.000000000000
142       0.000000000000
143       0.000000000000
144       0.000000000000
145       0.000000000000
146       0.000000000000
147       0.000000000000
148       0.000000000000
149       0.000000000000
150       0.000000000000
151       0.000000000000
152       0.000000000000
153       0.000000000000
154       0.000000000000
155       0.000000000000
156       0.000000000000
157       0.000000000000
158       1.000000000000
159       0.000000000000
160       0.000000000000
161       0.000000000000
162       0.000000000000
163       0.000000000000
164       0.000000000000
165       0.000000000000
166       0.000000000000
167       0.000000000000
168       0.000000000000
169       0.000000000000
170       0.000000000000
171       0.000000000000
172       0.000000000000
 Sym=     1a
 Ene=  1.30802683377538E+00
Spin= Alpha
 Occup= 0.112587
  1       0.000000000000
  2       0.000000000000
  3       0.000000000000
  4       0.000000000000
  5       0.000000000000
  6       0.000000000000
  7       0.000000000000
  8       0.000000000000
  9       0.000000000000
 10       0.000000000000
 11       0.000000000000
 12       0.000000000000
 13       0.000000000000
 14       0.000000000000
 15       0.000000000000
 16       0.000000000000
 17       0.000000000000
 18       0.000000000000
 19       0.000000000000
 20       0.000000000000
 21       0.000000000000
 22       0.000000000000
 23       0.000000000000
 24       0.000000000000
 25       0.000000000000
 26       0.000000000000
 27       0.000000000000
 28       0.000000000000
 29       0.000000000000
 30       0.000000000000
 31       0.000000000000
 32       0.000000000000
 33       0.000000000000
 34       0.000000000000
 35       0.000000000000
 36       0.000000000000
 37       0.000000000000
 38       0.000000000000
 39       0.000000000000
 40       0.000000000000
 41       0.000000000000
 42       0.000000000000
 43       0.000000000000
 44       0.000000000000
 45       0.000000000000
 46       0.000000000000
 47       0.000000000000
 48       0.000000000000
 49       0.000000000000
 50       0.000000000000
 51       0.000000000000
 52       0.000000000000
 53       0.000000000000
 54       0.000000000000
 55       0.000000000000
 56       0.000000000000
 57       0.000000000000
 58       0.000000000000
 59       0.000000000000
 60       0.000000000000
 61       0.000000000000
 62       0.000000000000
 63       0.000000000000
 64       0.000000000000
 65       0.000000000000
 66       0.000000000000
 67       0.000000000000
 68       0.000000000000
 69       0.000000000000
 70       0.000000000000
 71       0.000000000000
 72       0.000000000000
 73       0.000000000000
 74       0.000000000000
 75       0.000000000000
 76       0.000000000000
 77       0.000000000000
 78       0.000000000000
 79       0.000000000000
 80       0.000000000000
 81       0.000000000000
 82       0.000000000000
 83       0.000000000000
 84       0.000000000000
 85       0.000000000000
 86       0.000000000000
 87       0.000000000000
 88       0.000000000000
 89       0.000000000000
 90       0.000000000000
 91       0.000000000000
 92       0.000000000000
 93       0.000000000000
 94       0.000000000000
 95       0.000000000000
 96       0.000000000000
 97       0.000000000000
 98       0.000000000000
 99       0.000000000000
100       0.000000000000
101       0.000000000000
102       0.000000000000
103       0.000000000000
104       0.000000000000
105       0.000000000000
106       0.000000000000
107       0.000000000000
108       0.000000000000
109       0.000000000000
110       0.000000000000
111       0.000000000000
112       0.000000000000
113       0.000000000000
114       0.000000000000
115       0.000000000000
116       0.000000000000
117       0.000000000000
118       0.000000000000
119       0.000000000000
120       0.000000000000
121       0.000000000000
122       0.000000000000
123       0.000000000000
124       0.000000000000
125       0.000000000000
126       0.000000000000
127       0.000000000000
128       0.000000000000
129       0.000000000000
130       0.000000000000
131       0.000000000000
132       0.000000000000
133       0.000000000000
134       0.000000000000
135       0.000000000000
136       0.000000000000
137       0.000000000000
138       0.000000000000
139       0.000000000000
140       0.000000000000
141       0.000000000000
142       0.000000000000
143       0.000000000000
144       0.000000000000
145       0.000000000000
146       0.000000000000
147       0.000000000000
148       0.000000000000
149       0.000000000000
150       0.000000000000
151       0.000000000000
152       0.000000000000
153       0.000000000000
154       0.000000000000
155       0.000000000000
156       0.000000000000
157       0.000000000000
158       0.000000000000
159       1.000000000000
160       0.000000000000
161       0.000000000000
162       0.000000000000
163       0.000000000000
164       0.000000000000
165       0.000000000000
166       0.000000000000
167       0.000000000000
168       0.000000000000
169       0.000000000000
170       0.000000000000
171       0.000000000000
172       0.000000000000
 Sym=     1a
 Ene=  1.42258573518378E+00
Spin= Alpha
 Occup= 0.112587
  1       0.000000000000
  2       0.000000000000
  3       0.000000000000
  4       0.000000000000
  5       0.000000000000
  6       0.000000000000
  7       0.000000000000
  8       0.000000000000
  9       0.000000000000
 10       0.000000000000
 11       0.000000000000
 12       0.000000000000
 13       0.000000000000
 14       0.000000000000
 15       0.000000000000
 16       0.000000000000
 17       0.000000000000
 18       0.000000000000
 19       0.000000000000
 20       0.000000000000
 21       0.000000000000
 22       0.000000000000
 23       0.000000000000
 24       0.000000000000
 25       0.000000000000
 26       0.000000000000
 27       0.000000000000
 28       0.000000000000
 29       0.000000000000
 30       0.000000000000
 31       0.000000000000
 32       0.000000000000
 33       0.000000000000
 34       0.000000000000
 35       0.000000000000
 36       0.000000000000
 37       0.000000000000
 38       0.000000000000
 39       0.000000000000
 40       0.000000000000
 41       0.000000000000
 42       0.000000000000
 43       0.000000000000
 44       0.000000000000
 45       0.000000000000
 46       0.000000000000
 47       0.000000000000
 48       0.000000000000
 49       0.000000000000
 50       0.000000000000
 51       0.000000000000
 52       0.000000000000
 53       0.000000000000
 54       0.000000000000
 55       0.000000000000
 56       0.000000000000
 57       0.000000000000
 58       0.000000000000
 59       0.000000000000
 60       0.000000000000
 61       0.000000000000
 62       0.000000000000
 63       0.000000000000
 64       0.000000000000
 65       0.000000000000
 66       0.000000000000
 67       0.000000000000
 68       0.000000000000
 69       0.000000000000
 70       0.000000000000
 71       0.000000000000
 72       0.000000000000
 73       0.000000000000
 74       0.000000000000
 75       0.000000000000
 76       0.000000000000
 77       0.000000000000
 78       0.000000000000
 79       0.000000000000
 80       0.000000000000
 81       0.000000000000
 82       0.000000000000
 83       0.000000000000
 84       0.000000000000
 85       0.000000000000
 86       0.000000000000
 87       0.000000000000
 88       0.000000000000
 89       0.000000000000
 90       0.000000000000
 91       0.000000000000
 92       0.000000000000
 93       0.000000000000
 94       0.000000000000
 95       0.000000000000
 96       0.000000000000
 97       0.000000000000
 98       0.000000000000
 99       0.000000000000
100       0.000000000000
101       0.000000000000
102       0.000000000000
103       0.000000000000
104       0.000000000000
105       0.000000000000
106       0.000000000000
107       0.000000000000
108       0.000000000000
109       0.000000000000
110       0.000000000000
111       0.000000000000
112       0.000000000000
113       0.000000000000
114       0.000000000000
115       0.000000000000
116       0.000000000000
117       0.000000000000
118       0.000000000000
119       0.000000000000
120       0.000000000000
121       0.000000000000
122       0.000000000000
123       0.000000000000
124       0.000000000000
125       0.000000000000
126       0.000000000000
127       0.000000000000
128       0.000000000000
129       0.000000000000
130       0.000000000000
131       0.000000000000
132       0.000000000000
133       0.000000000000
134       0.000000000000
135       0.000000000000
136       0.000000000000
137       0.000000000000
138       0.000000000000
139       0.000000000000
140       0.000000000000
141       0.000000000000
142       0.000000000000
143       0.000000000000
144       0.000000000000
145       0.000000000000
146       0.000000000000
147       0.000000000000
148       0.000000000000
149       0.000000000000
150       0.000000000000
151       0.000000000000
152       0.000000000000
153       0.000000000000
154       0.000000000000
155       0.000000000000
156       0.000000000000
157       0.000000000000
158       0.000000000000
159       0.000000000000
160       1.000000000000
161       0.000000000000
162       0.000000000000
163       0.000000000000
164       0.000000000000
165       0.000000000000
166       0.000000000000
167       0.000000000000
168       0.000000000000
169       0.000000000000
170       0.000000000000
171       0.000000000000
172       0.000000000000
 Sym=     1a
 Ene=  2.15615949979503E+00
Spin= Alpha
 Occup= 0.019204
  1       0.000000000000
  2       0.000000000000
  3       0.000000000000
  4       0.000000000000
  5       0.000000000000
  6       0.000000000000
  7       0.000000000000
  8       0.000000000000
  9       0.000000000000
 10       0.000000000000
 11       0.000000000000
 12       0.000000000000
 13       0.000000000000
 14       0.000000000000
 15       0.000000000000
 16       0.000000000000
 17       0.000000000000
 18       0.000000000000
 19       0.000000000000
 20       0.000000000000
 21       0.000000000000
 22       0.000000000000
 23       0.000000000000
 24       0.000000000000
 25       0.000000000000
 26       0.000000000000
 27       0.000000000000
 28       0.000000000000
 29       0.000000000000
 30       0.000000000000
 31       0.000000000000
 32       0.000000000000
 33       0.000000000000
 34       0.000000000000
 35       0.000000000000
 36       0.000000000000
 37       0.000000000000
 38       0.000000000000
 39       0.000000000000
 40       0.000000000000
 41       0.000000000000
 42       0.000000000000
 43       0.000000000000
 44       0.000000000000
 45       0.000000000000
 46       0.000000000000
 47       0.000000000000
 48       0.000000000000
 49       0.000000000000
 50       0.000000000000
 51       0.000000000000
 52       0.000000000000
 53       0.000000000000
 54       0.000000000000
 55       0.000000000000
 56       0.000000000000
 57       0.000000000000
 58       0.000000000000
 59       0.000000000000
 60       0.000000000000
 61       0.000000000000
 62       0.000000000000
 63       0.000000000000
 64       0.000000000000
 65       0.000000000000
 66       0.000000000000
 67       0.000000000000
 68       0.000000000000
 69       0.000000000000
 70       0.000000000000
 71       0.000000000000
 72       0.000000000000
 73       0.000000000000
 74       0.000000000000
 75       0.000000000000
 76       0.000000000000
 77       0.000000000000
 78       0.000000000000
 79       0.000000000000
 80       0.000000000000
 81       0.000000000000
 82       0.000000000000
 83       0.000000000000
 84       0.000000000000
 85       0.000000000000
 86       0.000000000000
 87       0.000000000000
 88       0.000000000000
 89       0.000000000000
 90       0.000000000000
 91       0.000000000000
 92       0.000000000000
 93       0.000000000000
 94       0.000000000000
 95       0.000000000000
 96       0.000000000000
 97       0.000000000000
 98       0.000000000000
 99       0.000000000000
100       0.000000000000
101       0.000000000000
102       0.000000000000
103       0.000000000000
104       0.000000000000
105       0.000000000000
106       0.000000000000
107       0.000000000000
108       0.000000000000
109       0.000000000000
110       0.000000000000
111       0.000000000000
112       0.000000000000
113       0.000000000000
114       0.000000000000
115       0.000000000000
116       0.000000000000
117       0.000000000000
118       0.000000000000
119       0.000000000000
120       0.000000000000
121       0.000000000000
122       0.000000000000
123       0.000000000000
124       0.000000000000
125       0.000000000000
126       0.000000000000
127       0.000000000000
128       0.000000000000
129       0.000000000000
130       0.000000000000
131       0.000000000000
132       0.000000000000
133       0.000000000000
134       0.000000000000
135       0.000000000000
136       0.000000000000
137       0.000000000000
138       0.000000000000
139       0.000000000000
140       0.000000000000
141       0.000000000000
142       0.000000000000
143       0.000000000000
144       0.000000000000
145       0.000000000000
146       0.000000000000
147       0.000000000000
148       0.000000000000
149       0.000000000000
150       0.000000000000
151       0.000000000000
152       0.000000000000
153       0.000000000000
154       0.000000000000
155       0.000000000000
156       0.000000000000
157       0.000000000000
158       0.000000000000
159       0.000000000000
160       0.000000000000
161      -1.544957278410
162       1.610638456002
163      -0.572886884467
164       0.000000000000
165       0.000000000000
166       0.000000000000
167       0.000000000000
168       0.000000000000
169       0.000000000000
170       0.000000000000
171       0.000000000000
172       0.000000000000
 Sym=     1a
 Ene=  1.31572555018290E-01
Spin= Alpha
 Occup= 0.440546
  1       0.000000000000
  2       0.000000000000
  3       0.000000000000
  4       0.000000000000
  5       0.000000000000
  6       0.000000000000
  7       0.000000000000
  8       0.000000000000
  9       0.000000000000
 10       0.000000000000
 11       0.000000000000
 12       0.000000000000
 13       0.000000000000
 14       0.000000000000
 15       0.000000000000
 16       0.000000000000
 17       0.000000000000
 18       0.000000000000
 19       0.000000000000
 20       0.000000000000
 21       0.000000000000
 22       0.000000000000
 23       0.000000000000
 24       0.000000000000
 25       0.000000000000
 26       0.000000000000
 27       0.000000000000
 28       0.000000000000
 29       0.000000000000
 30       0.000000000000
 31       0.000000000000
 32       0.000000000000
 33       0.000000000000
 34       0.000000000000
 35       0.000000000000
 36       0.000000000000
 37       0.000000000000
 38       0.000000000000
 39       0.000000000000
 40       0.000000000000
 41       0.000000000000
 42       0.000000000000
 43       0.000000000000
 44       0.000000000000
 45       0.000000000000
 46       0.000000000000
 47       0.000000000000
 48       0.000000000000
 49       0.000000000000
 50       0.000000000000
 51       0.000000000000
 52       0.000000000000
 53       0.000000000000
 54       0.000000000000
 55       0.000000000000
 56       0.000000000000
 57       0.000000000000
 58       0.000000000000
 59       0.000000000000
 60       0.000000000000
 61       0.000000000000
 62       0.000000000000
 63       0.000000000000
 64       0.000000000000
 65       0.000000000000
 66       0.000000000000
 67       0.000000000000
 68       0.000000000000
 69       0.000000000000
 70       0.000000000000
 71       0.000000000000
 72       0.000000000000
 73       0.000000000000
 74       0.000000000000
 75       0.000000000000
 76       0.000000000000
 77       0.000000000000
 78       0.000000000000
 79       0.000000000000
 80       0.000000000000
 81       0.000000000000
 82       0.000000000000
 83       0.000000000000
 84       0.000000000000
 85       0.000000000000
 86       0.000000000000
 87       0.000000000000
 88       0.000000000000
 89       0.000000000000
 90       0.000000000000
 91       0.000000000000
 92       0.000000000000
 93       0.000000000000
 94       0.000000000000
 95       0.000000000000
 96       0.000000000000
 97       0.000000000000
 98       0.000000000000
 99       0.000000000000
100       0.000000000000
101       0.000000000000
102       0.000000000000
103       0.000000000000
104       0.000000000000
105       0.000000000000
106       0.000000000000
107       0.000000000000
108       0.000000000000
109       0.000000000000
110       0.000000000000
111       0.000000000000
112       0.000000000000
113       0.000000000000
114       0.000000000000
115       0.000000000000
116       0.000000000000
117       0.000000000000
118       0.000000000000
119       0.000000000000
120       0.000000000000
121       0.000000000000
122       0.000000000000
123       0.000000000000
124       0.000000000000
125       0.000000000000
126       0.000000000000
127       0.000000000000
128       0.000000000000
129       0.000000000000
130       0.000000000000
131       0.000000000000
132       0.000000000000
133       0.000000000000
134       0.000000000000
135       0.000000000000
136       0.000000000000
137       0.000000000000
138       0.000000000000
139       0.000000000000
140       0.000000000000
141       0.000000000000
142       0.000000000000
143       0.000000000000
144       0.000000000000
145       0.000000000000
146       0.000000000000
147       0.000000000000
148       0.000000000000
149       0.000000000000
150       0.000000000000
151       0.000000000000
152       0.000000000000
153       0.000000000000
154       0.000000000000
155       0.000000000000
156       0.000000000000
157       0.000000000000
158       0.000000000000
159       0.000000000000
160       0.000000000000
161       0.164388338460
162      -1.509094362124
163       1.694576672755
164       0.000000000000
165       0.000000000000
166       0.000000000000
167       0.000000000000
168       0.000000000000
169       0.000000000000
170       0.000000000000
171       0.000000000000
172       0.000000000000
 Sym=     1a
 Ene= -5.02426863790640E-01
Spin= Alpha
 Occup= 1.666471
  1       0.000000000000
  2       0.000000000000
  3       0.000000000000
  4       0.000000000000
  5       0.000000000000
  6       0.000000000000
  7       0.000000000000
  8       0.000000000000
  9       0.000000000000
 10       0.000000000000
 11       0.000000000000
 12       0.000000000000
 13       0.000000000000
 14       0.000000000000
 15       0.000000000000
 16       0.000000000000
 17       0.000000000000
 18       0.000000000000
 19       0.000000000000
 20       0.000000000000
 21       0.000000000000
 22       0.000000000000
 23       0.000000000000
 24       0.000000000000
 25       0.000000000000
 26       0.000000000000
 27       0.000000000000
 28       0.000000000000
 29       0.000000000000
 30       0.000000000000
 31       0.000000000000
 32       0.000000000000
 33       0.000000000000
 34       0.000000000000
 35       0.000000000000
 36       0.000000000000
 37       0.000000000000
 38       0.000000000000
 39       0.000000000000
 40       0.000000000000
 41       0.000000000000
 42       0.000000000000
 43       0.000000000000
 44       0.000000000000
 45       0.000000000000
 46       0.000000000000
 47       0.000000000000
 48       0.000000000000
 49       0.000000000000
 50       0.000000000000
 51       0.000000000000
 52       0.000000000000
 53       0.000000000000
 54       0.000000000000
 55       0.000000000000
 56       0.000000000000
 57       0.000000000000
 58       0.000000000000
 59       0.000000000000
 60       0.000000000000
 61       0.000000000000
 62       0.000000000000
 63       0.000000000000
 64       0.000000000000
 65       0.000000000000
 66       0.000000000000
 67       0.000000000000
 68       0.000000000000
 69       0.000000000000
 70       0.000000000000
 71       0.000000000000
 72       0.000000000000
 73       0.000000000000
 74       0.000000000000
 75       0.000000000000
 76       0.000000000000
 77       0.000000000000
 78       0.000000000000
 79       0.000000000000
 80       0.000000000000
 81       0.000000000000
 82       0.000000000000
 83       0.000000000000
 84       0.000000000000
 85       0.000000000000
 86       0.000000000000
 87       0.000000000000
 88       0.000000000000
 89       0.000000000000
 90       0.000000000000
 91       0.000000000000
 92       0.000000000000
 93       0.000000000000
 94       0.000000000000
 95       0.000000000000
 96       0.000000000000
 97       0.000000000000
 98       0.000000000000
 99       0.000000000000
100       0.000000000000
101       0.000000000000
102       0.000000000000
103       0.000000000000
104       0.000000000000
105       0.000000000000
106       0.000000000000
107       0.000000000000
108       0.000000000000
109       0.000000000000
110       0.000000000000
111       0.000000000000
112       0.000000000000
113       0.000000000000
114       0.000000000000
115       0.000000000000
116       0.000000000000
117       0.000000000000
118       0.000000000000
119       0.000000000000
120       0.000000000000
121       0.000000000000
122       0.000000000000
123       0.000000000000
124       0.000000000000
125       0.000000000000
126       0.000000000000
127       0.000000000000
128       0.000000000000
129       0.000000000000
130       0.000000000000
131       0.000000000000
132       0.000000000000
133       0.000000000000
134       0.000000000000
135       0.000000000000
136       0.000000000000
137       0.000000000000
138       0.000000000000
139       0.000000000000
140       0.000000000000
141       0.000000000000
142       0.000000000000
143       0.000000000000
144       0.000000000000
145       0.000000000000
146       0.000000000000
147       0.000000000000
148       0.000000000000
149       0.000000000000
150       0.000000000000
151       0.000000000000
152       0.000000000000
153       0.000000000000
154       0.000000000000
155       0.000000000000
156       0.000000000000
157       0.000000000000
158       0.000000000000
159       0.000000000000
160       0.000000000000
161       0.114439953389
162       0.808624613872
163       0.135234451851
164       0.000000000000
165       0.000000000000
166       0.000000000000
167       0.000000000000
168       0.000000000000
169       0.000000000000
170       0.000000000000
171       0.000000000000
172       0.000000000000
 Sym=     1a
 Ene=  1.17545225589310E+00
Spin= Alpha
 Occup= 0.111651
  1       0.000000000000
  2       0.000000000000
  3       0.000000000000
  4       0.000000000000
  5       0.000000000000
  6       0.000000000000
  7       0.000000000000
  8       0.000000000000
  9       0.000000000000
 10       0.000000000000
 11       0.000000000000
 12       0.000000000000
 13       0.000000000000
 14       0.000000000000
 15       0.000000000000
 16       0.000000000000
 17       0.000000000000
 18       0.000000000000
 19       0.000000000000
 20       0.000000000000
 21       0.000000000000
 22       0.000000000000
 23       0.000000000000
 24       0.000000000000
 25       0.000000000000
 26       0.000000000000
 27       0.000000000000
 28       0.000000000000
 29       0.000000000000
 30       0.000000000000
 31       0.000000000000
 32       0.000000000000
 33       0.000000000000
 34       0.000000000000
 35       0.000000000000
 36       0.000000000000
 37       0.000000000000
 38       0.000000000000
 39       0.000000000000
 40       0.000000000000
 41       0.000000000000
 42       0.000000000000
 43       0.000000000000
 44       0.000000000000
 45       0.000000000000
 46       0.000000000000
 47       0.000000000000
 48       0.000000000000
 49       0.000000000000
 50       0.000000000000
 51       0.000000000000
 52       0.000000000000
 53       0.000000000000
 54       0.000000000000
 55       0.000000000000
 56       0.000000000000
 57       0.000000000000
 58       0.000000000000
 59       0.000000000000
 60       0.000000000000
 61       0.000000000000
 62       0.000000000000
 63       0.000000000000
 64       0.000000000000
 65       0.000000000000
 66       0.000000000000
 67       0.000000000000
 68       0.000000000000
 69       0.000000000000
 70       0.000000000000
 71       0.000000000000
 72       0.000000000000
 73       0.000000000000
 74       0.000000000000
 75       0.000000000000
 76       0.000000000000
 77       0.000000000000
 78       0.000000000000
 79       0.000000000000
 80       0.000000000000
 81       0.000000000000
 82       0.000000000000
 83       0.000000000000
 84       0.000000000000
 85       0.000000000000
 86       0.000000000000
 87       0.000000000000
 88       0.000000000000
 89       0.000000000000
 90       0.000000000000
 91       0.000000000000
 92       0.000000000000
 93       0.000000000000
 94       0.000000000000
 95       0.000000000000
 96       0.000000000000
 97       0.000000000000
 98       0.000000000000
 99       0.000000000000
100       0.000000000000
101       0.000000000000
102       0.000000000000
103       0.000000000000
104       0.000000000000
105       0.000000000000
106       0.000000000000
107       0.000000000000
108       0.000000000000
109       0.000000000000
110       0.000000000000
111       0.000000000000
112       0.000000000000
113       0.000000000000
114       0.000000000000
115       0.000000000000
116       0.000000000000
117       0.000000000000
118       0.000000000000
119       0.000000000000
120       0.000000000000
121       0.000000000000
122       0.000000000000
123       0.000000000000
124       0.000000000000
125       0.000000000000
126       0.000000000000
127       0.000000000000
128       0.000000000000
129       0.000000000000
130       0.000000000000
131       0.000000000000
132       0.000000000000
133       0.000000000000
134       0.000000000000
135       0.000000000000
136       0.000000000000
137       0.000000000000
138       0.000000000000
139       0.000000000000
140       0.000000000000
141       0.000000000000
142       0.000000000000
143       0.000000000000
144       0.000000000000
145       0.000000000000
146       0.000000000000
147       0.000000000000
148       0.000000000000
149       0.000000000000
150       0.000000000000
151       0.000000000000
152       0.000000000000
153       0.000000000000
154       0.000000000000
155       0.000000000000
156       0.000000000000
157       0.000000000000
158       0.000000000000
159       0.000000000000
160       0.000000000000
161       0.000000000000
162       0.000000000000
163       0.000000000000
164       1.000000000000
165       0.000000000000
166       0.000000000000
167       0.000000000000
168       0.000000000000
169       0.000000000000
170       0.000000000000
171       0.000000000000
172       0.000000000000
 Sym=     1a
 Ene=  1.33189134479646E+00
Spin= Alpha
 Occup= 0.111651
  1       0.000000000000
  2       0.000000000000
  3       0.000000000000
  4       0.000000000000
  5       0.000000000000
  6       0.000000000000
  7       0.000000000000
  8       0.000000000000
  9       0.000000000000
 10       0.000000000000
 11       0.000000000000
 12       0.000000000000
 13       0.000000000000
 14       0.000000000000
 15       0.000000000000
 16       0.000000000000
 17       0.000000000000
 18       0.000000000000
 19       0.000000000000
 20       0.000000000000
 21       0.000000000000
 22       0.000000000000
 23       0.000000000000
 24       0.000000000000
 25       0.000000000000
 26       0.000000000000
 27       0.000000000000
 28       0.000000000000
 29       0.000000000000
 30       0.000000000000
 31       0.000000000000
 32       0.000000000000
 33       0.000000000000
 34       0.000000000000
 35       0.000000000000
 36       0.000000000000
 37       0.000000000000
 38       0.000000000000
 39       0.000000000000
 40       0.000000000000
 41       0.000000000000
 42       0.000000000000
 43       0.000000000000
 44       0.000000000000
 45       0.000000000000
 46       0.000000000000
 47       0.000000000000
 48       0.000000000000
 49       0.000000000000
 50       0.000000000000
 51       0.000000000000
 52       0.000000000000
 53       0.000000000000
 54       0.000000000000
 55       0.000000000000
 56       0.000000000000
 57       0.000000000000
 58       0.000000000000
 59       0.000000000000
 60       0.000000000000
 61       0.000000000000
 62       0.000000000000
 63       0.000000000000
 64       0.000000000000
 65       0.000000000000
 66       0.000000000000
 67       0.000000000000
 68       0.000000000000
 69       0.000000000000
 70       0.000000000000
 71       0.000000000000
 72       0.000000000000
 73       0.000000000000
 74       0.000000000000
 75       0.000000000000
 76       0.000000000000
 77       0.000000000000
 78       0.000000000000
 79       0.000000000000
 80       0.000000000000
 81       0.000000000000
 82       0.000000000000
 83       0.000000000000
 84       0.000000000000
 85       0.000000000000
 86       0.000000000000
 87       0.000000000000
 88       0.000000000000
 89       0.000000000000
 90       0.000000000000
 91       0.000000000000
 92       0.000000000000
 93       0.000000000000
 94       0.000000000000
 95       0.000000000000
 96       0.000000000000
 97       0.000000000000
 98       0.000000000000
 99       0.000000000000
100       0.000000000000
101       0.000000000000
102       0.000000000000
103       0.000000000000
104       0.000000000000
105       0.000000000000
106       0.000000000000
107       0.000000000000
108       0.000000000000
109       0.000000000000
110       0.000000000000
111       0.000000000000
112       0.000000000000
113       0.000000000000
114       0.000000000000
115       0.000000000000
116       0.000000000000
117       0.000000000000
118       0.000000000000
119       0.000000000000
120       0.000000000000
121       0.000000000000
122       0.000000000000
123       0.000000000000
124       0.000000000000
125       0.000000000000
126       0.000000000000
127       0.000000000000
128       0.000000000000
129       0.000000000000
130       0.000000000000
131       0.000000000000
132       0.000000000000
133       0.000000000000
134       0.000000000000
135       0.000000000000
136       0.000000000000
137       0.000000000000
138       0.000000000000
139       0.000000000000
140       0.000000000000
141       0.000000000000
142       0.000000000000
143       0.000000000000
144       0.000000000000
145       0.000000000000
146       0.000000000000
147       0.000000000000
148       0.000000000000
149       0.000000000000
150       0.000000000000
151       0.000000000000
152       0.000000000000
153       0.000000000000
154       0.000000000000
155       0.000000000000
156       0.000000000000
157       0.000000000000
158       0.000000000000
159       0.000000000000
160       0.000000000000
161       0.000000000000
162       0.000000000000
163       0.000000000000
164       0.000000000000
165       1.000000000000
166       0.000000000000
167       0.000000000000
168       0.000000000000
169       0.000000000000
170       0.000000000000
171       0.000000000000
172       0.000000000000
 Sym=     1a
 Ene=  1.42524884274052E+00
Spin= Alpha
 Occup= 0.111651
  1       0.000000000000
  2       0.000000000000
  3       0.000000000000
  4       0.000000000000
  5       0.000000000000
  6       0.000000000000
  7       0.000000000000
  8       0.000000000000
  9       0.000000000000
 10       0.000000000000
 11       0.000000000000
 12       0.000000000000
 13       0.000000000000
 14       0.000000000000
 15       0.000000000000
 16       0.000000000000
 17       0.000000000000
 18       0.000000000000
 19       0.000000000000
 20       0.000000000000
 21       0.000000000000
 22       0.000000000000
 23       0.000000000000
 24       0.000000000000
 25       0.000000000000
 26       0.000000000000
 27       0.000000000000
 28       0.000000000000
 29       0.000000000000
 30       0.000000000000
 31       0.000000000000
 32       0.000000000000
 33       0.000000000000
 34       0.000000000000
 35       0.000000000000
 36       0.000000000000
 37       0.000000000000
 38       0.000000000000
 39       0.000000000000
 40       0.000000000000
 41       0.000000000000
 42       0.000000000000
 43       0.000000000000
 44       0.000000000000
 45       0.000000000000
 46       0.000000000000
 47       0.000000000000
 48       0.000000000000
 49       0.000000000000
 50       0.000000000000
 51       0.000000000000
 52       0.000000000000
 53       0.000000000000
 54       0.000000000000
 55       0.000000000000
 56       0.000000000000
 57       0.000000000000
 58       0.000000000000
 59       0.000000000000
 60       0.000000000000
 61       0.000000000000
 62       0.000000000000
 63       0.000000000000
 64       0.000000000000
 65       0.000000000000
 66       0.000000000000
 67       0.000000000000
 68       0.000000000000
 69       0.000000000000
 70       0.000000000000
 71       0.000000000000
 72       0.000000000000
 73       0.000000000000
 74       0.000000000000
 75       0.000000000000
 76       0.000000000000
 77       0.000000000000
 78       0.000000000000
 79       0.000000000000
 80       0.000000000000
 81       0.000000000000
 82       0.000000000000
 83       0.000000000000
 84       0.000000000000
 85       0.000000000000
 86       0.000000000000
 87       0.000000000000
 88       0.000000000000
 89       0.000000000000
 90       0.000000000000
 91       0.000000000000
 92       0.000000000000
 93       0.000000000000
 94       0.000000000000
 95       0.000000000000
 96       0.000000000000
 97       0.000000000000
 98       0.000000000000
 99       0.000000000000
100       0.000000000000
101       0.000000000000
102       0.000000000000
103       0.000000000000
104       0.000000000000
105       0.000000000000
106       0.000000000000
107       0.000000000000
108       0.000000000000
109       0.000000000000
110       0.000000000000
111       0.000000000000
112       0.000000000000
113       0.000000000000
114       0.000000000000
115       0.000000000000
116       0.000000000000
117       0.000000000000
118       0.000000000000
119       0.000000000000
120       0.000000000000
121       0.000000000000
122       0.000000000000
123       0.000000000000
124       0.000000000000
125       0.000000000000
126       0.000000000000
127       0.000000000000
128       0.000000000000
129       0.000000000000
130       0.000000000000
131       0.000000000000
132       0.000000000000
133       0.000000000000
134       0.000000000000
135       0.000000000000
136       0.000000000000
137       0.000000000000
138       0.000000000000
139       0.000000000000
140       0.000000000000
141       0.000000000000
142       0.000000000000
143       0.000000000000
144       0.000000000000
145       0.000000000000
146       0.000000000000
147       0.000000000000
148       0.000000000000
149       0.000000000000
150       0.000000000000
151       0.000000000000
152       0.000000000000
153       0.000000000000
154       0.000000000000
155       0.000000000000
156       0.000000000000
157       0.000000000000
158       0.000000000000
159       0.000000000000
160       0.000000000000
161       0.000000000000
162       0.000000000000
163       0.000000000000
164       0.000000000000
165       0.000000000000
166       1.000000000000
167       0.000000000000
168       0.000000000000
169       0.000000000000
170       0.000000000000
171       0.000000000000
172       0.000000000000
 Sym=     1a
 Ene=  2.15616077666617E+00
Spin= Alpha
 Occup= 0.019204
  1       0.000000000000
  2       0.000000000000
  3       0.000000000000
  4       0.000000000000
  5       0.000000000000
  6       0.000000000000
  7       0.000000000000
  8       0.000000000000
  9       0.000000000000
 10       0.000000000000
 11       0.000000000000
 12       0.000000000000
 13       0.000000000000
 14       0.000000000000
 15       0.000000000000
 16       0.000000000000
 17       0.000000000000
 18       0.000000000000
 19       0.000000000000
 20       0.000000000000
 21       0.000000000000
 22       0.000000000000
 23       0.000000000000
 24       0.000000000000
 25       0.000000000000
 26       0.000000000000
 27       0.000000000000
 28       0.000000000000
 29       0.000000000000
 30       0.000000000000
 31       0.000000000000
 32       0.000000000000
 33       0.000000000000
 34       0.000000000000
 35       0.000000000000
 36       0.000000000000
 37       0.000000000000
 38       0.000000000000
 39       0.000000000000
 40       0.000000000000
 41       0.000000000000
 42       0.000000000000
 43       0.000000000000
 44       0.000000000000
 45       0.000000000000
 46       0.000000000000
 47       0.000000000000
 48       0.000000000000
 49       0.000000000000
 50       0.000000000000
 51       0.000000000000
 52       0.000000000000
 53       0.000000000000
 54       0.000000000000
 55       0.000000000000
 56       0.000000000000
 57       0.000000000000
 58       0.000000000000
 59       0.000000000000
 60       0.000000000000
 61       0.000000000000
 62       0.000000000000
 63       0.000000000000
 64       0.000000000000
 65       0.000000000000
 66       0.000000000000
 67       0.000000000000
 68       0.000000000000
 69       0.000000000000
 70       0.000000000000
 71       0.000000000000
 72       0.000000000000
 73       0.000000000000
 74       0.000000000000
 75       0.000000000000
 76       0.000000000000
 77       0.000000000000
 78       0.000000000000
 79       0.000000000000
 80       0.000000000000
 81       0.000000000000
 82       0.000000000000
 83       0.000000000000
 84       0.000000000000
 85       0.000000000000
 86       0.000000000000
 87       0.000000000000
 88       0.000000000000
 89       0.000000000000
 90       0.000000000000
 91       0.000000000000
 92       0.000000000000
 93       0.000000000000
 94       0.000000000000
 95       0.000000000000
 96       0.000000000000
 97       0.000000000000
 98       0.000000000000
 99       0.000000000000
100       0.000000000000
101       0.000000000000
102       0.000000000000
103       0.000000000000
104       0.000000000000
105       0.000000000000
106       0.000000000000
107       0.000000000000
108       0.000000000000
109       0.000000000000
110       0.000000000000
111       0.000000000000
112       0.000000000000
113       0.000000000000
114       0.000000000000
115       0.000000000000
116       0.000000000000
117       0.000000000000
118       0.000000000000
119       0.000000000000
120       0.000000000000
121       0.000000000000
122       0.000000000000
123       0.000000000000
124       0.000000000000
125       0.000000000000
126       0.000000000000
127       0.000000000000
128       0.000000000000
129       0.000000000000
130       0.000000000000
131       0.000000000000
132       0.000000000000
133       0.000000000000
134       0.000000000000
135       0.000000000000
136       0.000000000000
137       0.000000000000
138       0.000000000000
139       0.000000000000
140       0.000000000000
141       0.000000000000
142       0.000000000000
143       0.000000000000
144       0.000000000000
145       0.000000000000
146       0.000000000000
147       0.000000000000
148       0.000000000000
149       0.000000000000
150       0.000000000000
151       0.000000000000
152       0.000000000000
153       0.000000000000
154       0.000000000000
155       0.000000000000
156       0.000000000000
157       0.000000000000
158       0.000000000000
159       0.000000000000
160       0.000000000000
161       0.000000000000
162       0.000000000000
163       0.000000000000
164       0.000000000000
165       0.000000000000
166       0.000000000000
167      -1.544957380229
168       1.610639574487
169      -0.572888037304
170       0.000000000000
171       0.000000000000
172       0.000000000000
 Sym=     1a
 Ene=  1.31572084132685E-01
Spin= Alpha
 Occup= 0.440545
  1       0.000000000000
  2       0.000000000000
  3       0.000000000000
  4       0.000000000000
  5       0.000000000000
  6       0.000000000000
  7       0.000000000000
  8       0.000000000000
  9       0.000000000000
 10       0.000000000000
 11       0.000000000000
 12       0.000000000000
 13       0.000000000000
 14       0.000000000000
 15       0.000000000000
 16       0.000000000000
 17       0.000000000000
 18       0.000000000000
 19       0.000000000000
 20       0.000000000000
 21       0.000000000000
 22       0.000000000000
 23       0.000000000000
 24       0.000000000000
 25       0.000000000000
 26       0.000000000000
 27       0.000000000000
 28       0.000000000000
 29       0.000000000000
 30       0.000000000000
 31       0.000000000000
 32       0.000000000000
 33       0.000000000000
 34       0.000000000000
 35       0.000000000000
 36       0.000000000000
 37       0.000000000000
 38       0.000000000000
 39       0.000000000000
 40       0.000000000000
 41       0.000000000000
 42       0.000000000000
 43       0.000000000000
 44       0.000000000000
 45       0.000000000000
 46       0.000000000000
 47       0.000000000000
 48       0.000000000000
 49       0.000000000000
 50       0.000000000000
 51       0.000000000000
 52       0.000000000000
 53       0.000000000000
 54       0.000000000000
 55       0.000000000000
 56       0.000000000000
 57       0.000000000000
 58       0.000000000000
 59       0.000000000000
 60       0.000000000000
 61       0.000000000000
 62       0.000000000000
 63       0.000000000000
 64       0.000000000000
 65       0.000000000000
 66       0.000000000000
 67       0.000000000000
 68       0.000000000000
 69       0.000000000000
 70       0.000000000000
 71       0.000000000000
 72       0.000000000000
 73       0.000000000000
 74       0.000000000000
 75       0.000000000000
 76       0.000000000000
 77       0.000000000000
 78       0.000000000000
 79       0.000000000000
 80       0.000000000000
 81       0.000000000000
 82       0.000000000000
 83       0.000000000000
 84       0.000000000000
 85       0.000000000000
 86       0.000000000000
 87       0.000000000000
 88       0.000000000000
 89       0.000000000000
 90       0.000000000000
 91       0.000000000000
 92       0.000000000000
 93       0.000000000000
 94       0.000000000000
 95       0.000000000000
 96       0.000000000000
 97       0.000000000000
 98       0.000000000000
 99       0.000000000000
100       0.000000000000
101       0.000000000000
102       0.000000000000
103       0.000000000000
104       0.000000000000
105       0.000000000000
106       0.000000000000
107       0.000000000000
108       0.000000000000
109       0.000000000000
110       0.000000000000
111       0.000000000000
112       0.000000000000
113       0.000000000000
114       0.000000000000
115       0.000000000000
116       0.000000000000
117       0.000000000000
118       0.000000000000
119       0.000000000000
120       0.000000000000
121       0.000000000000
122       0.000000000000
123       0.000000000000
124       0.000000000000
125       0.000000000000
126       0.000000000000
127       0.000000000000
128       0.000000000000
129       0.000000000000
130       0.000000000000
131       0.000000000000
132       0.000000000000
133       0.000000000000
134       0.000000000000
135       0.000000000000
136       0.000000000000
137       0.000000000000
138       0.000000000000
139       0.000000000000
140       0.000000000000
141       0.000000000000
142       0.000000000000
143       0.000000000000
144       0.000000000000
145       0.000000000000
146       0.000000000000
147       0.000000000000
148       0.000000000000
149       0.000000000000
150       0.000000000000
151       0.000000000000
152       0.000000000000
153       0.000000000000
154       0.000000000000
155       0.000000000000
156       0.000000000000
157       0.000000000000
158       0.000000000000
159       0.000000000000
160       0.000000000000
161       0.000000000000
162       0.000000000000
163       0.000000000000
164       0.000000000000
165       0.000000000000
166       0.000000000000
167       0.164387228267
168      -1.509093585468
169       1.694576223007
170       0.000000000000
171       0.000000000000
172       0.000000000000
 Sym=     1a
 Ene= -5.02426833187099E-01
Spin= Alpha
 Occup= 1.666470
  1       0.000000000000
  2       0.000000000000
  3       0.000000000000
  4       0.000000000000
  5       0.000000000000
  6       0.000000000000
  7       0.000000000000
  8       0.000000000000
  9       0.000000000000
 10       0.000000000000
 11       0.000000000000
 12       0.000000000000
 13       0.000000000000
 14       0.000000000000
 15       0.000000000000
 16       0.000000000000
 17       0.000000000000
 18       0.000000000000
 19       0.000000000000
 20       0.000000000000
 21       0.000000000000
 22       0.000000000000
 23       0.000000000000
 24       0.000000000000
 25       0.000000000000
 26       0.000000000000
 27       0.000000000000
 28       0.000000000000
 29       0.000000000000
 30       0.000000000000
 31       0.000000000000
 32       0.000000000000
 33       0.000000000000
 34       0.000000000000
 35       0.000000000000
 36       0.000000000000
 37       0.000000000000
 38       0.000000000000
 39       0.000000000000
 40       0.000000000000
 41       0.000000000000
 42       0.000000000000
 43       0.000000000000
 44       0.000000000000
 45       0.000000000000
 46       0.000000000000
 47       0.000000000000
 48       0.000000000000
 49       0.000000000000
 50       0.000000000000
 51       0.000000000000
 52       0.000000000000
 53       0.000000000000
 54       0.000000000000
 55       0.000000000000
 56       0.000000000000
 57       0.000000000000
 58       0.000000000000
 59       0.000000000000
 60       0.000000000000
 61       0.000000000000
 62       0.000000000000
 63       0.000000000000
 64       0.000000000000
 65       0.000000000000
 66       0.000000000000
 67       0.000000000000
 68       0.000000000000
 69       0.000000000000
 70       0.000000000000
 71       0.000000000000
 72       0.000000000000
 73       0.000000000000
 74       0.000000000000
 75       0.000000000000
 76       0.000000000000
 77       0.000000000000
 78       0.000000000000
 79       0.000000000000
 80       0.000000000000
 81       0.000000000000
 82       0.000000000000
 83       0.000000000000
 84       0.000000000000
 85       0.000000000000
 86       0.000000000000
 87       0.000000000000
 88       0.000000000000
 89       0.000000000000
 90       0.000000000000
 91       0.000000000000
 92       0.000000000000
 93       0.000000000000
 94       0.000000000000
 95       0.000000000000
 96       0.000000000000
 97       0.000000000000
 98       0.000000000000
 99       0.000000000000
100       0.000000000000
101       0.000000000000
102       0.000000000000
103       0.000000000000
104       0.000000000000
105       0.000000000000
106       0.000000000000
107       0.000000000000
108       0.000000000000
109       0.000000000000
110       0.000000000000
111       0.000000000000
112       0.000000000000
113       0.000000000000
114       0.000000000000
115       0.000000000000
116       0.000000000000
117       0.000000000000
118       0.000000000000
119       0.000000000000
120       0.000000000000
121       0.000000000000
122       0.000000000000
123       0.000000000000
124       0.000000000000
125       0.000000000000
126       0.000000000000
127       0.000000000000
128       0.000000000000
129       0.000000000000
130       0.000000000000
131       0.000000000000
132       0.000000000000
133       0.000000000000
134       0.000000000000
135       0.000000000000
136       0.000000000000
137       0.000000000000
138       0.000000000000
139       0.000000000000
140       0.000000000000
141       0.000000000000
142       0.000000000000
143       0.000000000000
144       0.000000000000
145       0.000000000000
146       0.000000000000
147       0.000000000000
148       0.000000000000
149       0.000000000000
150       0.000000000000
151       0.000000000000
152       0.000000000000
153       0.000000000000
154       0.000000000000
155       0.000000000000
156       0.000000000000
157       0.000000000000
158       0.000000000000
159       0.000000000000
160       0.000000000000
161       0.000000000000
162       0.000000000000
163       0.000000000000
164       0.000000000000
165       0.000000000000
166       0.000000000000
167       0.114440173549
168       0.808623835478
169       0.135235203773
170       0.000000000000
171       0.000000000000
172       0.000000000000
 Sym=     1a
 Ene=  1.17569355675418E+00
Spin= Alpha
 Occup= 0.111651
  1       0.000000000000
  2       0.000000000000
  3       0.000000000000
  4       0.000000000000
  5       0.000000000000
  6       0.000000000000
  7       0.000000000000
  8       0.000000000000
  9       0.000000000000
 10       0.000000000000
 11       0.000000000000
 12       0.000000000000
 13       0.000000000000
 14       0.000000000000
 15       0.000000000000
 16       0.000000000000
 17       0.000000000000
 18       0.000000000000
 19       0.000000000000
 20       0.000000000000
 21       0.000000000000
 22       0.000000000000
 23       0.000000000000
 24       0.000000000000
 25       0.000000000000
 26       0.000000000000
 27       0.000000000000
 28       0.000000000000
 29       0.000000000000
 30       0.000000000000
 31       0.000000000000
 32       0.000000000000
 33       0.000000000000
 34       0.000000000000
 35       0.000000000000
 36       0.000000000000
 37       0.000000000000
 38       0.000000000000
 39       0.000000000000
 40       0.000000000000
 41       0.000000000000
 42       0.000000000000
 43       0.000000000000
 44       0.000000000000
 45       0.000000000000
 46       0.000000000000
 47       0.000000000000
 48       0.000000000000
 49       0.000000000000
 50       0.000000000000
 51       0.000000000000
 52       0.000000000000
 53       0.000000000000
 54       0.000000000000
 55       0.000000000000
 56       0.000000000000
 57       0.000000000000
 58       0.000000000000
 59       0.000000000000
 60       0.000000000000
 61       0.000000000000
 62       0.000000000000
 63       0.000000000000
 64       0.000000000000
 65       0.000000000000
 66       0.000000000000
 67       0.000000000000
 68       0.000000000000
 69       0.000000000000
 70       0.000000000000
 71       0.000000000000
 72       0.000000000000
 73       0.000000000000
 74       0.000000000000
 75       0.000000000000
 76       0.000000000000
 77       0.000000000000
 78       0.000000000000
 79       0.000000000000
 80       0.000000000000
 81       0.000000000000
 82       0.000000000000
 83       0.000000000000
 84       0.000000000000
 85       0.000000000000
 86       0.000000000000
 87       0.000000000000
 88       0.000000000000
 89       0.000000000000
 90       0.000000000000
 91       0.000000000000
 92       0.000000000000
 93       0.000000000000
 94       0.000000000000
 95       0.000000000000
 96       0.000000000000
 97       0.000000000000
 98       0.000000000000
 99       0.000000000000
100       0.000000000000
101       0.000000000000
102       0.000000000000
103       0.000000000000
104       0.000000000000
105       0.000000000000
106       0.000000000000
107       0.000000000000
108       0.000000000000
109       0.000000000000
110       0.000000000000
111       0.000000000000
112       0.000000000000
113       0.000000000000
114       0.000000000000
115       0.000000000000
116       0.000000000000
117       0.000000000000
118       0.000000000000
119       0.000000000000
120       0.000000000000
121       0.000000000000
122       0.000000000000
123       0.000000000000
124       0.000000000000
125       0.000000000000
126       0.000000000000
127       0.000000000000
128       0.000000000000
129       0.000000000000
130       0.000000000000
131       0.000000000000
132       0.000000000000
133       0.000000000000
134       0.000000000000
135       0.000000000000
136       0.000000000000
137       0.000000000000
138       0.000000000000
139       0.000000000000
140       0.000000000000
141       0.000000000000
142       0.000000000000
143       0.000000000000
144       0.000000000000
145       0.000000000000
146       0.000000000000
147       0.000000000000
148       0.000000000000
149       0.000000000000
150       0.000000000000
151       0.000000000000
152       0.000000000000
153       0.000000000000
154       0.000000000000
155       0.000000000000
156       0.000000000000
157       0.000000000000
158       0.000000000000
159       0.000000000000
160       0.000000000000
161       0.000000000000
162       0.000000000000
163       0.000000000000
164       0.000000000000
165       0.000000000000
166       0.000000000000
167       0.000000000000
168       0.000000000000
169       0.000000000000
170       1.000000000000
171       0.000000000000
172       0.000000000000
 Sym=     1a
 Ene=  1.33165009235509E+00
Spin= Alpha
 Occup= 0.111651
  1       0.000000000000
  2       0.000000000000
  3       0.000000000000
  4       0.000000000000
  5       0.000000000000
  6       0.000000000000
  7       0.000000000000
  8       0.000000000000
  9       0.000000000000
 10       0.000000000000
 11       0.000000000000
 12       0.000000000000
 13       0.000000000000
 14       0.000000000000
 15       0.000000000000
 16       0.000000000000
 17       0.000000000000
 18       0.000000000000
 19       0.000000000000
 20       0.000000000000
 21       0.000000000000
 22       0.000000000000
 23       0.000000000000
 24       0.000000000000
 25       0.000000000000
 26       0.000000000000
 27       0.000000000000
 28       0.000000000000
 29       0.000000000000
 30       0.000000000000
 31       0.000000000000
 32       0.000000000000
 33       0.000000000000
 34       0.000000000000
 35       0.000000000000
 36       0.000000000000
 37       0.000000000000
 38       0.000000000000
 39       0.000000000000
 40       0.000000000000
 41       0.000000000000
 42       0.000000000000
 43       0.000000000000
 44       0.000000000000
 45       0.000000000000
 46       0.000000000000
 47       0.000000000000
 48       0.000000000000
 49       0.000000000000
 50       0.000000000000
 51       0.000000000000
 52       0.000000000000
 53       0.000000000000
 54       0.000000000000
 55       0.000000000000
 56       0.000000000000
 57       0.000000000000
 58       0.000000000000
 59       0.000000000000
 60       0.000000000000
 61       0.000000000000
 62       0.000000000000
 63       0.000000000000
 64       0.000000000000
 65       0.000000000000
 66       0.000000000000
 67       0.000000000000
 68       0.000000000000
 69       0.000000000000
 70       0.000000000000
 71       0.000000000000
 72       0.000000000000
 73       0.000000000000
 74       0.000000000000
 75       0.000000000000
 76       0.000000000000
 77       0.000000000000
 78       0.000000000000
 79       0.000000000000
 80       0.000000000000
 81       0.000000000000
 82       0.000000000000
 83       0.000000000000
 84       0.000000000000
 85       0.000000000000
 86       0.000000000000
 87       0.000000000000
 88       0.000000000000
 89       0.000000000000
 90       0.000000000000
 91       0.000000000000
 92       0.000000000000
 93       0.000000000000
 94       0.000000000000
 95       0.000000000000
 96       0.000000000000
 97       0.000000000000
 98       0.000000000000
 99       0.000000000000
100       0.000000000000
101       0.000000000000
102       0.000000000000
103       0.000000000000
104       0.000000000000
105       0.000000000000
106       0.000000000000
107       0.000000000000
108       0.000000000000
109       0.000000000000
110       0.000000000000
111       0.000000000000
112       0.000000000000
113       0.000000000000
114       0.000000000000
115       0.000000000000
116       0.000000000000
117       0.000000000000
118       0.000000000000
119       0.000000000000
120       0.000000000000
121       0.000000000000
122       0.000000000000
123       0.000000000000
124       0.000000000000
125       0.000000000000
126       0.000000000000
127       0.000000000000
128       0.000000000000
129       0.000000000000
130       0.000000000000
131       0.000000000000
132       0.000000000000
133       0.000000000000
134       0.000000000000
135       0.000000000000
136       0.000000000000
137       0.000000000000
138       0.000000000000
139       0.000000000000
140       0.000000000000
141       0.000000000000
142       0.000000000000
143       0.000000000000
144       0.000000000000
145       0.000000000000
146       0.000000000000
147       0.000000000000
148       0.000000000000
149       0.000000000000
150       0.000000000000
151       0.000000000000
152       0.000000000000
153       0.000000000000
154       0.000000000000
155       0.000000000000
156       0.000000000000
157       0.000000000000
158       0.000000000000
159       0.000000000000
160       0.000000000000
161       0.000000000000
162       0.000000000000
163       0.000000000000
164       0.000000000000
165       0.000000000000
166       0.000000000000
167       0.000000000000
168       0.000000000000
169       0.000000000000
170       0.000000000000
171       1.000000000000
172       0.000000000000
 Sym=     1a
 Ene=  1.42524883159914E+00
Spin= Alpha
 Occup= 0.111651
  1       0.000000000000
  2       0.000000000000
  3       0.000000000000
  4       0.000000000000
  5       0.000000000000
  6       0.000000000000
  7       0.000000000000
  8       0.000000000000
  9       0.000000000000
 10       0.000000000000
 11       0.000000000000
 12       0.000000000000
 13       0.000000000000
 14       0.000000000000
 15       0.000000000000
 16       0.000000000000
 17       0.000000000000
 18       0.000000000000
 19       0.000000000000
 20       0.000000000000
 21       0.000000000000
 22       0.000000000000
 23       0.000000000000
 24       0.000000000000
 25       0.000000000000
 26       0.000000000000
 27       0.000000000000
 28       0.000000000000
 29       0.000000000000
 30       0.000000000000
 31       0.000000000000
 32       0.000000000000
 33       0.000000000000
 34       0.000000000000
 35       0.000000000000
 36       0.000000000000
 37       0.000000000000
 38       0.000000000000
 39       0.000000000000
 40       0.000000000000
 41       0.000000000000
 42       0.000000000000
 43       0.000000000000
 44       0.000000000000
 45       0.000000000000
 46       0.000000000000
 47       0.000000000000
 48       0.000000000000
 49       0.000000000000
 50       0.000000000000
 51       0.000000000000
 52       0.000000000000
 53       0.000000000000
 54       0.000000000000
 55       0.000000000000
 56       0.000000000000
 57       0.000000000000
 58       0.000000000000
 59       0.000000000000
 60       0.000000000000
 61       0.000000000000
 62       0.000000000000
 63       0.000000000000
 64       0.000000000000
 65       0.000000000000
 66       0.000000000000
 67       0.000000000000
 68       0.000000000000
 69       0.000000000000
 70       0.000000000000
 71       0.000000000000
 72       0.000000000000
 73       0.000000000000
 74       0.000000000000
 75       0.000000000000
 76       0.000000000000
 77       0.000000000000
 78       0.000000000000
 79       0.000000000000
 80       0.000000000000
 81       0.000000000000
 82       0.000000000000
 83       0.000000000000
 84       0.000000000000
 85       0.000000000000
 86       0.000000000000
 87       0.000000000000
 88       0.000000000000
 89       0.000000000000
 90       0.000000000000
 91       0.000000000000
 92       0.000000000000
 93       0.000000000000
 94       0.000000000000
 95       0.000000000000
 96       0.000000000000
 97       0.000000000000
 98       0.000000000000
 99       0.000000000000
100       0.000000000000
101       0.000000000000
102       0.000000000000
103       0.000000000000
104       0.000000000000
105       0.000000000000
106       0.000000000000
107       0.000000000000
108       0.000000000000
109       0.000000000000
110       0.000000000000
111       0.000000000000
112       0.000000000000
113       0.000000000000
114       0.000000000000
115       0.000000000000
116       0.000000000000
117       0.000000000000
118       0.000000000000
119       0.000000000000
120       0.000000000000
121       0.000000000000
122       0.000000000000
123       0.000000000000
124       0.000000000000
125       0.000000000000
126       0.000000000000
127       0.000000000000
128       0.000000000000
129       0.000000000000
130       0.000000000000
131       0.000000000000
132       0.000000000000
133       0.000000000000
134       0.000000000000
135       0.000000000000
136       0.000000000000
137       0.000000000000
138       0.000000000000
139       0.000000000000
140       0.000000000000
141       0.000000000000
142       0.000000000000
143       0.000000000000
144       0.000000000000
145       0.000000000000
146       0.000000000000
147       0.000000000000
148       0.000000000000
149       0.000000000000
150       0.000000000000
151       0.000000000000
152       0.000000000000
153       0.000000000000
154       0.000000000000
155       0.000000000000
156       0.000000000000
157       0.000000000000
158       0.000000000000
159       0.000000000000
160       0.000000000000
161       0.000000000000
162       0.000000000000
163       0.000000000000
164       0.000000000000
165       0.000000000000
166       0.000000000000
167       0.000000000000
168       0.000000000000
169       0.000000000000
170       0.000000000000
171       0.000000000000
172       1.000000000000
