12
Coordinates from ORCA-job ./isobutene E -157.237998720252
  C           0.00004395661714     -0.07574793487074     -0.00007500158363
  C          -1.26946789898163      0.72594756115553     -0.00005854263814
  C           1.26891772831019      0.72695677670143     -0.00005861026037
  C           0.00057530591207     -1.40280274933761     -0.00011151860631
  H          -1.31446173327402      1.37645355676106      0.87809115870338
  H          -1.31448090135162      1.37644281593124     -0.87821619267021
  H          -2.15264058769871      0.08747896688950     -0.00004681475114
  H           1.31341661929891      1.37749450550686     -0.87821066318601
  H           1.31340169537951      1.37748964569865      0.87809735453465
  H           2.15259485441868      0.08918676934917     -0.00005532820613
  H           0.92538495223361     -1.96833198907206     -0.00012688483429
  H          -0.92378399086413     -1.96906792471305     -0.00012895650180
