[Molden Format]
[Title]
PNAOs

[Atoms] AU
C    1   6          1.0987909774         0.0000000195         0.0013856064 
O    2   8         -1.1610484666        -0.0000000768        -0.0005317799 
H    3   1          2.2054476983         1.7750124409         0.0023131898 
H    4   1          2.2054475694        -1.7750123836         0.0023131896 
[GTO]
  1 0 
s   6 1.0  
    13575.3496820000         0.0006064549 
     2035.2333680000         0.0046979088 
      463.2256235900         0.0243324776 
      131.2001959800         0.0973999683 
       42.8530158910         0.3019558425 
       15.5841857660         0.6623360915 
s   2 1.0  
        6.2067138508         0.6559530853 
        2.5764896527         0.3758563329 
s   1 1.0  
        0.5769633942         1.0000000000 
s   1 1.0  
        0.2297283136         1.0000000000 
s   1 1.0  
        0.0951644400         1.0000000003 
p   4 1.0  
       34.6972322440         0.0113272200 
        7.9582622826         0.0761696592 
        2.3780826883         0.3019225220 
        0.8143320818         0.7278502735 
p   1 1.0  
        0.2888754725         0.9999999999 
p   1 1.0  
        0.1005682367         0.9999999995 
d   1 1.0  
        1.0970000000         1.0000000000 
d   1 1.0  
        0.3180000000         1.0000000000 
f   1 1.0  
        0.7610000000         1.0000000000 

  2 0 
s   6 1.0  
    27032.3826310000         0.0005722733 
     4052.3871392000         0.0044353233 
      922.3272271000         0.0230201076 
      261.2407098900         0.0928224906 
       85.3546413510         0.2937850002 
       31.0350352450         0.6740160450 
s   2 1.0  
       12.2608607280         0.6383993703 
        4.9987076005         0.3953458713 
s   1 1.0  
        1.1703108158         1.0000000000 
s   1 1.0  
        0.4647474099         1.0000000000 
s   1 1.0  
        0.1850453636         0.9999999999 
p   4 1.0  
       63.2749548010         0.0120183321 
       14.6270493790         0.0830054217 
        4.4501223456         0.3199174393 
        1.5275799647         0.7071554292 
p   1 1.0  
        0.5293511794         1.0000000000 
p   1 1.0  
        0.1747842127         1.0000000000 
d   1 1.0  
        2.3140000000         1.0000000000 
d   1 1.0  
        0.6450000000         1.0000000000 
f   1 1.0  
        1.4280000000         1.0000000000 

  3 0 
s   3 1.0  
       34.0613410000         0.0254393072 
        5.1235746000         0.1900859489 
        1.1646626000         0.8524411301 
s   1 1.0  
        0.3272304100         1.0000000002 
s   1 1.0  
        0.1030724100         1.0000000001 
p   1 1.0  
        0.8000000000         1.0000000000 

  4 0 
s   3 1.0  
       34.0613410000         0.0254393072 
        5.1235746000         0.1900859489 
        1.1646626000         0.8524411301 
s   1 1.0  
        0.3272304100         1.0000000002 
s   1 1.0  
        0.1030724100         1.0000000001 
p   1 1.0  
        0.8000000000         1.0000000000 

[5D]
[7F]
[MO]
 Sym=     1a
 Ene=  2.10696481528387E+01
Spin= Alpha
 Occup= 0.000126
  1      -1.384681377486
  2       1.609240578218
  3      -1.049442961977
  4       0.892150719930
  5      -0.377128833753
  6       0.000000000000
  7       0.000000000000
  8       0.000000000000
  9       0.000000000000
 10       0.000000000000
 11       0.000000000000
 12       0.000000000000
 13       0.000000000000
 14       0.000000000000
 15       0.000000000000
 16       0.000000000000
 17       0.000000000000
 18       0.000000000000
 19       0.000000000000
 20       0.000000000000
 21       0.000000000000
 22       0.000000000000
 23       0.000000000000
 24       0.000000000000
 25       0.000000000000
 26       0.000000000000
 27       0.000000000000
 28       0.000000000000
 29       0.000000000000
 30       0.000000000000
 31       0.000000000000
 32       0.000000000000
 33       0.000000000000
 34       0.000000000000
 35       0.000000000000
 36       0.000000000000
 37       0.000000000000
 38       0.000000000000
 39       0.000000000000
 40       0.000000000000
 41       0.000000000000
 42       0.000000000000
 43       0.000000000000
 44       0.000000000000
 45       0.000000000000
 46       0.000000000000
 47       0.000000000000
 48       0.000000000000
 49       0.000000000000
 50       0.000000000000
 51       0.000000000000
 52       0.000000000000
 53       0.000000000000
 54       0.000000000000
 55       0.000000000000
 56       0.000000000000
 57       0.000000000000
 58       0.000000000000
 59       0.000000000000
 60       0.000000000000
 61       0.000000000000
 62       0.000000000000
 63       0.000000000000
 64       0.000000000000
 65       0.000000000000
 66       0.000000000000
 67       0.000000000000
 68       0.000000000000
 69       0.000000000000
 70       0.000000000000
 71       0.000000000000
 72       0.000000000000
 73       0.000000000000
 74       0.000000000000
 Sym=     1a
 Ene=  1.16599590279713E+00
Spin= Alpha
 Occup= 0.008468
  1      -0.025886003254
  2      -0.496628954795
  3       2.882883519502
  4      -4.280974446910
  5       2.207774545082
  6       0.000000000000
  7       0.000000000000
  8       0.000000000000
  9       0.000000000000
 10       0.000000000000
 11       0.000000000000
 12       0.000000000000
 13       0.000000000000
 14       0.000000000000
 15       0.000000000000
 16       0.000000000000
 17       0.000000000000
 18       0.000000000000
 19       0.000000000000
 20       0.000000000000
 21       0.000000000000
 22       0.000000000000
 23       0.000000000000
 24       0.000000000000
 25       0.000000000000
 26       0.000000000000
 27       0.000000000000
 28       0.000000000000
 29       0.000000000000
 30       0.000000000000
 31       0.000000000000
 32       0.000000000000
 33       0.000000000000
 34       0.000000000000
 35       0.000000000000
 36       0.000000000000
 37       0.000000000000
 38       0.000000000000
 39       0.000000000000
 40       0.000000000000
 41       0.000000000000
 42       0.000000000000
 43       0.000000000000
 44       0.000000000000
 45       0.000000000000
 46       0.000000000000
 47       0.000000000000
 48       0.000000000000
 49       0.000000000000
 50       0.000000000000
 51       0.000000000000
 52       0.000000000000
 53       0.000000000000
 54       0.000000000000
 55       0.000000000000
 56       0.000000000000
 57       0.000000000000
 58       0.000000000000
 59       0.000000000000
 60       0.000000000000
 61       0.000000000000
 62       0.000000000000
 63       0.000000000000
 64       0.000000000000
 65       0.000000000000
 66       0.000000000000
 67       0.000000000000
 68       0.000000000000
 69       0.000000000000
 70       0.000000000000
 71       0.000000000000
 72       0.000000000000
 73       0.000000000000
 74       0.000000000000
 Sym=     1a
 Ene=  2.78976958645898E-01
Spin= Alpha
 Occup= 0.282516
  1       0.008487623368
  2      -0.347877085342
  3       0.827399167892
  4       0.676898755652
  5      -1.511064646986
  6       0.000000000000
  7       0.000000000000
  8       0.000000000000
  9       0.000000000000
 10       0.000000000000
 11       0.000000000000
 12       0.000000000000
 13       0.000000000000
 14       0.000000000000
 15       0.000000000000
 16       0.000000000000
 17       0.000000000000
 18       0.000000000000
 19       0.000000000000
 20       0.000000000000
 21       0.000000000000
 22       0.000000000000
 23       0.000000000000
 24       0.000000000000
 25       0.000000000000
 26       0.000000000000
 27       0.000000000000
 28       0.000000000000
 29       0.000000000000
 30       0.000000000000
 31       0.000000000000
 32       0.000000000000
 33       0.000000000000
 34       0.000000000000
 35       0.000000000000
 36       0.000000000000
 37       0.000000000000
 38       0.000000000000
 39       0.000000000000
 40       0.000000000000
 41       0.000000000000
 42       0.000000000000
 43       0.000000000000
 44       0.000000000000
 45       0.000000000000
 46       0.000000000000
 47       0.000000000000
 48       0.000000000000
 49       0.000000000000
 50       0.000000000000
 51       0.000000000000
 52       0.000000000000
 53       0.000000000000
 54       0.000000000000
 55       0.000000000000
 56       0.000000000000
 57       0.000000000000
 58       0.000000000000
 59       0.000000000000
 60       0.000000000000
 61       0.000000000000
 62       0.000000000000
 63       0.000000000000
 64       0.000000000000
 65       0.000000000000
 66       0.000000000000
 67       0.000000000000
 68       0.000000000000
 69       0.000000000000
 70       0.000000000000
 71       0.000000000000
 72       0.000000000000
 73       0.000000000000
 74       0.000000000000
 Sym=     1a
 Ene= -8.68857554968506E-01
Spin= Alpha
 Occup= 1.839126
  1       0.096905258365
  2       0.209970899955
  3      -0.163078608777
  4      -0.851429134897
  5      -0.057473052686
  6       0.000000000000
  7       0.000000000000
  8       0.000000000000
  9       0.000000000000
 10       0.000000000000
 11       0.000000000000
 12       0.000000000000
 13       0.000000000000
 14       0.000000000000
 15       0.000000000000
 16       0.000000000000
 17       0.000000000000
 18       0.000000000000
 19       0.000000000000
 20       0.000000000000
 21       0.000000000000
 22       0.000000000000
 23       0.000000000000
 24       0.000000000000
 25       0.000000000000
 26       0.000000000000
 27       0.000000000000
 28       0.000000000000
 29       0.000000000000
 30       0.000000000000
 31       0.000000000000
 32       0.000000000000
 33       0.000000000000
 34       0.000000000000
 35       0.000000000000
 36       0.000000000000
 37       0.000000000000
 38       0.000000000000
 39       0.000000000000
 40       0.000000000000
 41       0.000000000000
 42       0.000000000000
 43       0.000000000000
 44       0.000000000000
 45       0.000000000000
 46       0.000000000000
 47       0.000000000000
 48       0.000000000000
 49       0.000000000000
 50       0.000000000000
 51       0.000000000000
 52       0.000000000000
 53       0.000000000000
 54       0.000000000000
 55       0.000000000000
 56       0.000000000000
 57       0.000000000000
 58       0.000000000000
 59       0.000000000000
 60       0.000000000000
 61       0.000000000000
 62       0.000000000000
 63       0.000000000000
 64       0.000000000000
 65       0.000000000000
 66       0.000000000000
 67       0.000000000000
 68       0.000000000000
 69       0.000000000000
 70       0.000000000000
 71       0.000000000000
 72       0.000000000000
 73       0.000000000000
 74       0.000000000000
 Sym=     1a
 Ene= -1.03770385191622E+01
Spin= Alpha
 Occup= 1.999991
  1       0.467361255294
  2       0.609754322666
  3       0.030764340705
  4      -0.017472514266
  5       0.005538597062
  6       0.000000000000
  7       0.000000000000
  8       0.000000000000
  9       0.000000000000
 10       0.000000000000
 11       0.000000000000
 12       0.000000000000
 13       0.000000000000
 14       0.000000000000
 15       0.000000000000
 16       0.000000000000
 17       0.000000000000
 18       0.000000000000
 19       0.000000000000
 20       0.000000000000
 21       0.000000000000
 22       0.000000000000
 23       0.000000000000
 24       0.000000000000
 25       0.000000000000
 26       0.000000000000
 27       0.000000000000
 28       0.000000000000
 29       0.000000000000
 30       0.000000000000
 31       0.000000000000
 32       0.000000000000
 33       0.000000000000
 34       0.000000000000
 35       0.000000000000
 36       0.000000000000
 37       0.000000000000
 38       0.000000000000
 39       0.000000000000
 40       0.000000000000
 41       0.000000000000
 42       0.000000000000
 43       0.000000000000
 44       0.000000000000
 45       0.000000000000
 46       0.000000000000
 47       0.000000000000
 48       0.000000000000
 49       0.000000000000
 50       0.000000000000
 51       0.000000000000
 52       0.000000000000
 53       0.000000000000
 54       0.000000000000
 55       0.000000000000
 56       0.000000000000
 57       0.000000000000
 58       0.000000000000
 59       0.000000000000
 60       0.000000000000
 61       0.000000000000
 62       0.000000000000
 63       0.000000000000
 64       0.000000000000
 65       0.000000000000
 66       0.000000000000
 67       0.000000000000
 68       0.000000000000
 69       0.000000000000
 70       0.000000000000
 71       0.000000000000
 72       0.000000000000
 73       0.000000000000
 74       0.000000000000
 Sym=     1a
 Ene=  1.12045998098028E+00
Spin= Alpha
 Occup= 0.007059
  1       0.000000000000
  2       0.000000000000
  3       0.000000000000
  4       0.000000000000
  5       0.000000000000
  6      -1.201135801360
  7       0.000000000000
  8       0.000000000000
  9       1.739528993372
 10       0.000000000000
 11       0.000000000000
 12      -1.107797711455
 13       0.000000000000
 14       0.000000000000
 15       0.000000000000
 16       0.000000000000
 17       0.000000000000
 18       0.000000000000
 19       0.000000000000
 20       0.000000000000
 21       0.000000000000
 22       0.000000000000
 23       0.000000000000
 24       0.000000000000
 25       0.000000000000
 26       0.000000000000
 27       0.000000000000
 28       0.000000000000
 29       0.000000000000
 30       0.000000000000
 31       0.000000000000
 32       0.000000000000
 33       0.000000000000
 34       0.000000000000
 35       0.000000000000
 36       0.000000000000
 37       0.000000000000
 38       0.000000000000
 39       0.000000000000
 40       0.000000000000
 41       0.000000000000
 42       0.000000000000
 43       0.000000000000
 44       0.000000000000
 45       0.000000000000
 46       0.000000000000
 47       0.000000000000
 48       0.000000000000
 49       0.000000000000
 50       0.000000000000
 51       0.000000000000
 52       0.000000000000
 53       0.000000000000
 54       0.000000000000
 55       0.000000000000
 56       0.000000000000
 57       0.000000000000
 58       0.000000000000
 59       0.000000000000
 60       0.000000000000
 61       0.000000000000
 62       0.000000000000
 63       0.000000000000
 64       0.000000000000
 65       0.000000000000
 66       0.000000000000
 67       0.000000000000
 68       0.000000000000
 69       0.000000000000
 70       0.000000000000
 71       0.000000000000
 72       0.000000000000
 73       0.000000000000
 74       0.000000000000
 Sym=     1a
 Ene=  1.29056300945793E+00
Spin= Alpha
 Occup= 0.007059
  1       0.000000000000
  2       0.000000000000
  3       0.000000000000
  4       0.000000000000
  5       0.000000000000
  6       0.000000000000
  7      -1.201135801360
  8       0.000000000000
  9       0.000000000000
 10       1.739528993372
 11       0.000000000000
 12       0.000000000000
 13      -1.107797711455
 14       0.000000000000
 15       0.000000000000
 16       0.000000000000
 17       0.000000000000
 18       0.000000000000
 19       0.000000000000
 20       0.000000000000
 21       0.000000000000
 22       0.000000000000
 23       0.000000000000
 24       0.000000000000
 25       0.000000000000
 26       0.000000000000
 27       0.000000000000
 28       0.000000000000
 29       0.000000000000
 30       0.000000000000
 31       0.000000000000
 32       0.000000000000
 33       0.000000000000
 34       0.000000000000
 35       0.000000000000
 36       0.000000000000
 37       0.000000000000
 38       0.000000000000
 39       0.000000000000
 40       0.000000000000
 41       0.000000000000
 42       0.000000000000
 43       0.000000000000
 44       0.000000000000
 45       0.000000000000
 46       0.000000000000
 47       0.000000000000
 48       0.000000000000
 49       0.000000000000
 50       0.000000000000
 51       0.000000000000
 52       0.000000000000
 53       0.000000000000
 54       0.000000000000
 55       0.000000000000
 56       0.000000000000
 57       0.000000000000
 58       0.000000000000
 59       0.000000000000
 60       0.000000000000
 61       0.000000000000
 62       0.000000000000
 63       0.000000000000
 64       0.000000000000
 65       0.000000000000
 66       0.000000000000
 67       0.000000000000
 68       0.000000000000
 69       0.000000000000
 70       0.000000000000
 71       0.000000000000
 72       0.000000000000
 73       0.000000000000
 74       0.000000000000
 Sym=     1a
 Ene=  1.35496826415807E+00
Spin= Alpha
 Occup= 0.007059
  1       0.000000000000
  2       0.000000000000
  3       0.000000000000
  4       0.000000000000
  5       0.000000000000
  6       0.000000000000
  7       0.000000000000
  8      -1.201135801360
  9       0.000000000000
 10       0.000000000000
 11       1.739528993372
 12       0.000000000000
 13       0.000000000000
 14      -1.107797711455
 15       0.000000000000
 16       0.000000000000
 17       0.000000000000
 18       0.000000000000
 19       0.000000000000
 20       0.000000000000
 21       0.000000000000
 22       0.000000000000
 23       0.000000000000
 24       0.000000000000
 25       0.000000000000
 26       0.000000000000
 27       0.000000000000
 28       0.000000000000
 29       0.000000000000
 30       0.000000000000
 31       0.000000000000
 32       0.000000000000
 33       0.000000000000
 34       0.000000000000
 35       0.000000000000
 36       0.000000000000
 37       0.000000000000
 38       0.000000000000
 39       0.000000000000
 40       0.000000000000
 41       0.000000000000
 42       0.000000000000
 43       0.000000000000
 44       0.000000000000
 45       0.000000000000
 46       0.000000000000
 47       0.000000000000
 48       0.000000000000
 49       0.000000000000
 50       0.000000000000
 51       0.000000000000
 52       0.000000000000
 53       0.000000000000
 54       0.000000000000
 55       0.000000000000
 56       0.000000000000
 57       0.000000000000
 58       0.000000000000
 59       0.000000000000
 60       0.000000000000
 61       0.000000000000
 62       0.000000000000
 63       0.000000000000
 64       0.000000000000
 65       0.000000000000
 66       0.000000000000
 67       0.000000000000
 68       0.000000000000
 69       0.000000000000
 70       0.000000000000
 71       0.000000000000
 72       0.000000000000
 73       0.000000000000
 74       0.000000000000
 Sym=     1a
 Ene=  1.84749808626489E-01
Spin= Alpha
 Occup= 0.145395
  1       0.000000000000
  2       0.000000000000
  3       0.000000000000
  4       0.000000000000
  5       0.000000000000
  6      -0.601026662575
  7       0.000000000000
  8       0.000000000000
  9      -0.315165610407
 10       0.000000000000
 11       0.000000000000
 12       1.048606971051
 13       0.000000000000
 14       0.000000000000
 15       0.000000000000
 16       0.000000000000
 17       0.000000000000
 18       0.000000000000
 19       0.000000000000
 20       0.000000000000
 21       0.000000000000
 22       0.000000000000
 23       0.000000000000
 24       0.000000000000
 25       0.000000000000
 26       0.000000000000
 27       0.000000000000
 28       0.000000000000
 29       0.000000000000
 30       0.000000000000
 31       0.000000000000
 32       0.000000000000
 33       0.000000000000
 34       0.000000000000
 35       0.000000000000
 36       0.000000000000
 37       0.000000000000
 38       0.000000000000
 39       0.000000000000
 40       0.000000000000
 41       0.000000000000
 42       0.000000000000
 43       0.000000000000
 44       0.000000000000
 45       0.000000000000
 46       0.000000000000
 47       0.000000000000
 48       0.000000000000
 49       0.000000000000
 50       0.000000000000
 51       0.000000000000
 52       0.000000000000
 53       0.000000000000
 54       0.000000000000
 55       0.000000000000
 56       0.000000000000
 57       0.000000000000
 58       0.000000000000
 59       0.000000000000
 60       0.000000000000
 61       0.000000000000
 62       0.000000000000
 63       0.000000000000
 64       0.000000000000
 65       0.000000000000
 66       0.000000000000
 67       0.000000000000
 68       0.000000000000
 69       0.000000000000
 70       0.000000000000
 71       0.000000000000
 72       0.000000000000
 73       0.000000000000
 74       0.000000000000
 Sym=     1a
 Ene=  3.35213405416521E-01
Spin= Alpha
 Occup= 0.145395
  1       0.000000000000
  2       0.000000000000
  3       0.000000000000
  4       0.000000000000
  5       0.000000000000
  6       0.000000000000
  7      -0.601026662575
  8       0.000000000000
  9       0.000000000000
 10      -0.315165610407
 11       0.000000000000
 12       0.000000000000
 13       1.048606971051
 14       0.000000000000
 15       0.000000000000
 16       0.000000000000
 17       0.000000000000
 18       0.000000000000
 19       0.000000000000
 20       0.000000000000
 21       0.000000000000
 22       0.000000000000
 23       0.000000000000
 24       0.000000000000
 25       0.000000000000
 26       0.000000000000
 27       0.000000000000
 28       0.000000000000
 29       0.000000000000
 30       0.000000000000
 31       0.000000000000
 32       0.000000000000
 33       0.000000000000
 34       0.000000000000
 35       0.000000000000
 36       0.000000000000
 37       0.000000000000
 38       0.000000000000
 39       0.000000000000
 40       0.000000000000
 41       0.000000000000
 42       0.000000000000
 43       0.000000000000
 44       0.000000000000
 45       0.000000000000
 46       0.000000000000
 47       0.000000000000
 48       0.000000000000
 49       0.000000000000
 50       0.000000000000
 51       0.000000000000
 52       0.000000000000
 53       0.000000000000
 54       0.000000000000
 55       0.000000000000
 56       0.000000000000
 57       0.000000000000
 58       0.000000000000
 59       0.000000000000
 60       0.000000000000
 61       0.000000000000
 62       0.000000000000
 63       0.000000000000
 64       0.000000000000
 65       0.000000000000
 66       0.000000000000
 67       0.000000000000
 68       0.000000000000
 69       0.000000000000
 70       0.000000000000
 71       0.000000000000
 72       0.000000000000
 73       0.000000000000
 74       0.000000000000
 Sym=     1a
 Ene=  3.77662173477757E-01
Spin= Alpha
 Occup= 0.145395
  1       0.000000000000
  2       0.000000000000
  3       0.000000000000
  4       0.000000000000
  5       0.000000000000
  6       0.000000000000
  7       0.000000000000
  8      -0.601026662575
  9       0.000000000000
 10       0.000000000000
 11      -0.315165610407
 12       0.000000000000
 13       0.000000000000
 14       1.048606971051
 15       0.000000000000
 16       0.000000000000
 17       0.000000000000
 18       0.000000000000
 19       0.000000000000
 20       0.000000000000
 21       0.000000000000
 22       0.000000000000
 23       0.000000000000
 24       0.000000000000
 25       0.000000000000
 26       0.000000000000
 27       0.000000000000
 28       0.000000000000
 29       0.000000000000
 30       0.000000000000
 31       0.000000000000
 32       0.000000000000
 33       0.000000000000
 34       0.000000000000
 35       0.000000000000
 36       0.000000000000
 37       0.000000000000
 38       0.000000000000
 39       0.000000000000
 40       0.000000000000
 41       0.000000000000
 42       0.000000000000
 43       0.000000000000
 44       0.000000000000
 45       0.000000000000
 46       0.000000000000
 47       0.000000000000
 48       0.000000000000
 49       0.000000000000
 50       0.000000000000
 51       0.000000000000
 52       0.000000000000
 53       0.000000000000
 54       0.000000000000
 55       0.000000000000
 56       0.000000000000
 57       0.000000000000
 58       0.000000000000
 59       0.000000000000
 60       0.000000000000
 61       0.000000000000
 62       0.000000000000
 63       0.000000000000
 64       0.000000000000
 65       0.000000000000
 66       0.000000000000
 67       0.000000000000
 68       0.000000000000
 69       0.000000000000
 70       0.000000000000
 71       0.000000000000
 72       0.000000000000
 73       0.000000000000
 74       0.000000000000
 Sym=     1a
 Ene= -7.53070053717858E-01
Spin= Alpha
 Occup= 1.490235
  1       0.000000000000
  2       0.000000000000
  3       0.000000000000
  4       0.000000000000
  5       0.000000000000
  6       0.274270901749
  7       0.000000000000
  8       0.000000000000
  9       0.696934092633
 10       0.000000000000
 11       0.000000000000
 12       0.154314026651
 13       0.000000000000
 14       0.000000000000
 15       0.000000000000
 16       0.000000000000
 17       0.000000000000
 18       0.000000000000
 19       0.000000000000
 20       0.000000000000
 21       0.000000000000
 22       0.000000000000
 23       0.000000000000
 24       0.000000000000
 25       0.000000000000
 26       0.000000000000
 27       0.000000000000
 28       0.000000000000
 29       0.000000000000
 30       0.000000000000
 31       0.000000000000
 32       0.000000000000
 33       0.000000000000
 34       0.000000000000
 35       0.000000000000
 36       0.000000000000
 37       0.000000000000
 38       0.000000000000
 39       0.000000000000
 40       0.000000000000
 41       0.000000000000
 42       0.000000000000
 43       0.000000000000
 44       0.000000000000
 45       0.000000000000
 46       0.000000000000
 47       0.000000000000
 48       0.000000000000
 49       0.000000000000
 50       0.000000000000
 51       0.000000000000
 52       0.000000000000
 53       0.000000000000
 54       0.000000000000
 55       0.000000000000
 56       0.000000000000
 57       0.000000000000
 58       0.000000000000
 59       0.000000000000
 60       0.000000000000
 61       0.000000000000
 62       0.000000000000
 63       0.000000000000
 64       0.000000000000
 65       0.000000000000
 66       0.000000000000
 67       0.000000000000
 68       0.000000000000
 69       0.000000000000
 70       0.000000000000
 71       0.000000000000
 72       0.000000000000
 73       0.000000000000
 74       0.000000000000
 Sym=     1a
 Ene= -4.55962506920570E-01
Spin= Alpha
 Occup= 1.490235
  1       0.000000000000
  2       0.000000000000
  3       0.000000000000
  4       0.000000000000
  5       0.000000000000
  6       0.000000000000
  7       0.274270901749
  8       0.000000000000
  9       0.000000000000
 10       0.696934092633
 11       0.000000000000
 12       0.000000000000
 13       0.154314026651
 14       0.000000000000
 15       0.000000000000
 16       0.000000000000
 17       0.000000000000
 18       0.000000000000
 19       0.000000000000
 20       0.000000000000
 21       0.000000000000
 22       0.000000000000
 23       0.000000000000
 24       0.000000000000
 25       0.000000000000
 26       0.000000000000
 27       0.000000000000
 28       0.000000000000
 29       0.000000000000
 30       0.000000000000
 31       0.000000000000
 32       0.000000000000
 33       0.000000000000
 34       0.000000000000
 35       0.000000000000
 36       0.000000000000
 37       0.000000000000
 38       0.000000000000
 39       0.000000000000
 40       0.000000000000
 41       0.000000000000
 42       0.000000000000
 43       0.000000000000
 44       0.000000000000
 45       0.000000000000
 46       0.000000000000
 47       0.000000000000
 48       0.000000000000
 49       0.000000000000
 50       0.000000000000
 51       0.000000000000
 52       0.000000000000
 53       0.000000000000
 54       0.000000000000
 55       0.000000000000
 56       0.000000000000
 57       0.000000000000
 58       0.000000000000
 59       0.000000000000
 60       0.000000000000
 61       0.000000000000
 62       0.000000000000
 63       0.000000000000
 64       0.000000000000
 65       0.000000000000
 66       0.000000000000
 67       0.000000000000
 68       0.000000000000
 69       0.000000000000
 70       0.000000000000
 71       0.000000000000
 72       0.000000000000
 73       0.000000000000
 74       0.000000000000
 Sym=     1a
 Ene= -2.13697119749843E-01
Spin= Alpha
 Occup= 1.490235
  1       0.000000000000
  2       0.000000000000
  3       0.000000000000
  4       0.000000000000
  5       0.000000000000
  6       0.000000000000
  7       0.000000000000
  8       0.274270901749
  9       0.000000000000
 10       0.000000000000
 11       0.696934092633
 12       0.000000000000
 13       0.000000000000
 14       0.154314026651
 15       0.000000000000
 16       0.000000000000
 17       0.000000000000
 18       0.000000000000
 19       0.000000000000
 20       0.000000000000
 21       0.000000000000
 22       0.000000000000
 23       0.000000000000
 24       0.000000000000
 25       0.000000000000
 26       0.000000000000
 27       0.000000000000
 28       0.000000000000
 29       0.000000000000
 30       0.000000000000
 31       0.000000000000
 32       0.000000000000
 33       0.000000000000
 34       0.000000000000
 35       0.000000000000
 36       0.000000000000
 37       0.000000000000
 38       0.000000000000
 39       0.000000000000
 40       0.000000000000
 41       0.000000000000
 42       0.000000000000
 43       0.000000000000
 44       0.000000000000
 45       0.000000000000
 46       0.000000000000
 47       0.000000000000
 48       0.000000000000
 49       0.000000000000
 50       0.000000000000
 51       0.000000000000
 52       0.000000000000
 53       0.000000000000
 54       0.000000000000
 55       0.000000000000
 56       0.000000000000
 57       0.000000000000
 58       0.000000000000
 59       0.000000000000
 60       0.000000000000
 61       0.000000000000
 62       0.000000000000
 63       0.000000000000
 64       0.000000000000
 65       0.000000000000
 66       0.000000000000
 67       0.000000000000
 68       0.000000000000
 69       0.000000000000
 70       0.000000000000
 71       0.000000000000
 72       0.000000000000
 73       0.000000000000
 74       0.000000000000
 Sym=     1a
 Ene=  2.88323072952126E+00
Spin= Alpha
 Occup= 0.017685
  1       0.000000000000
  2       0.000000000000
  3       0.000000000000
  4       0.000000000000
  5       0.000000000000
  6       0.000000000000
  7       0.000000000000
  8       0.000000000000
  9       0.000000000000
 10       0.000000000000
 11       0.000000000000
 12       0.000000000000
 13       0.000000000000
 14       0.000000000000
 15      -1.165477359835
 16       0.000000000000
 17       0.000000000000
 18       0.000000000000
 19       0.000000000000
 20       0.459872724144
 21       0.000000000000
 22       0.000000000000
 23       0.000000000000
 24       0.000000000000
 25       0.000000000000
 26       0.000000000000
 27       0.000000000000
 28       0.000000000000
 29       0.000000000000
 30       0.000000000000
 31       0.000000000000
 32       0.000000000000
 33       0.000000000000
 34       0.000000000000
 35       0.000000000000
 36       0.000000000000
 37       0.000000000000
 38       0.000000000000
 39       0.000000000000
 40       0.000000000000
 41       0.000000000000
 42       0.000000000000
 43       0.000000000000
 44       0.000000000000
 45       0.000000000000
 46       0.000000000000
 47       0.000000000000
 48       0.000000000000
 49       0.000000000000
 50       0.000000000000
 51       0.000000000000
 52       0.000000000000
 53       0.000000000000
 54       0.000000000000
 55       0.000000000000
 56       0.000000000000
 57       0.000000000000
 58       0.000000000000
 59       0.000000000000
 60       0.000000000000
 61       0.000000000000
 62       0.000000000000
 63       0.000000000000
 64       0.000000000000
 65       0.000000000000
 66       0.000000000000
 67       0.000000000000
 68       0.000000000000
 69       0.000000000000
 70       0.000000000000
 71       0.000000000000
 72       0.000000000000
 73       0.000000000000
 74       0.000000000000
 Sym=     1a
 Ene=  2.88852254289501E+00
Spin= Alpha
 Occup= 0.017685
  1       0.000000000000
  2       0.000000000000
  3       0.000000000000
  4       0.000000000000
  5       0.000000000000
  6       0.000000000000
  7       0.000000000000
  8       0.000000000000
  9       0.000000000000
 10       0.000000000000
 11       0.000000000000
 12       0.000000000000
 13       0.000000000000
 14       0.000000000000
 15       0.000000000000
 16      -1.165477359835
 17       0.000000000000
 18       0.000000000000
 19       0.000000000000
 20       0.000000000000
 21       0.459872724144
 22       0.000000000000
 23       0.000000000000
 24       0.000000000000
 25       0.000000000000
 26       0.000000000000
 27       0.000000000000
 28       0.000000000000
 29       0.000000000000
 30       0.000000000000
 31       0.000000000000
 32       0.000000000000
 33       0.000000000000
 34       0.000000000000
 35       0.000000000000
 36       0.000000000000
 37       0.000000000000
 38       0.000000000000
 39       0.000000000000
 40       0.000000000000
 41       0.000000000000
 42       0.000000000000
 43       0.000000000000
 44       0.000000000000
 45       0.000000000000
 46       0.000000000000
 47       0.000000000000
 48       0.000000000000
 49       0.000000000000
 50       0.000000000000
 51       0.000000000000
 52       0.000000000000
 53       0.000000000000
 54       0.000000000000
 55       0.000000000000
 56       0.000000000000
 57       0.000000000000
 58       0.000000000000
 59       0.000000000000
 60       0.000000000000
 61       0.000000000000
 62       0.000000000000
 63       0.000000000000
 64       0.000000000000
 65       0.000000000000
 66       0.000000000000
 67       0.000000000000
 68       0.000000000000
 69       0.000000000000
 70       0.000000000000
 71       0.000000000000
 72       0.000000000000
 73       0.000000000000
 74       0.000000000000
 Sym=     1a
 Ene=  2.93631089885631E+00
Spin= Alpha
 Occup= 0.017685
  1       0.000000000000
  2       0.000000000000
  3       0.000000000000
  4       0.000000000000
  5       0.000000000000
  6       0.000000000000
  7       0.000000000000
  8       0.000000000000
  9       0.000000000000
 10       0.000000000000
 11       0.000000000000
 12       0.000000000000
 13       0.000000000000
 14       0.000000000000
 15       0.000000000000
 16       0.000000000000
 17      -1.165477359835
 18       0.000000000000
 19       0.000000000000
 20       0.000000000000
 21       0.000000000000
 22       0.459872724144
 23       0.000000000000
 24       0.000000000000
 25       0.000000000000
 26       0.000000000000
 27       0.000000000000
 28       0.000000000000
 29       0.000000000000
 30       0.000000000000
 31       0.000000000000
 32       0.000000000000
 33       0.000000000000
 34       0.000000000000
 35       0.000000000000
 36       0.000000000000
 37       0.000000000000
 38       0.000000000000
 39       0.000000000000
 40       0.000000000000
 41       0.000000000000
 42       0.000000000000
 43       0.000000000000
 44       0.000000000000
 45       0.000000000000
 46       0.000000000000
 47       0.000000000000
 48       0.000000000000
 49       0.000000000000
 50       0.000000000000
 51       0.000000000000
 52       0.000000000000
 53       0.000000000000
 54       0.000000000000
 55       0.000000000000
 56       0.000000000000
 57       0.000000000000
 58       0.000000000000
 59       0.000000000000
 60       0.000000000000
 61       0.000000000000
 62       0.000000000000
 63       0.000000000000
 64       0.000000000000
 65       0.000000000000
 66       0.000000000000
 67       0.000000000000
 68       0.000000000000
 69       0.000000000000
 70       0.000000000000
 71       0.000000000000
 72       0.000000000000
 73       0.000000000000
 74       0.000000000000
 Sym=     1a
 Ene=  2.76428063919954E+00
Spin= Alpha
 Occup= 0.017685
  1       0.000000000000
  2       0.000000000000
  3       0.000000000000
  4       0.000000000000
  5       0.000000000000
  6       0.000000000000
  7       0.000000000000
  8       0.000000000000
  9       0.000000000000
 10       0.000000000000
 11       0.000000000000
 12       0.000000000000
 13       0.000000000000
 14       0.000000000000
 15       0.000000000000
 16       0.000000000000
 17       0.000000000000
 18      -1.165477359835
 19       0.000000000000
 20       0.000000000000
 21       0.000000000000
 22       0.000000000000
 23       0.459872724144
 24       0.000000000000
 25       0.000000000000
 26       0.000000000000
 27       0.000000000000
 28       0.000000000000
 29       0.000000000000
 30       0.000000000000
 31       0.000000000000
 32       0.000000000000
 33       0.000000000000
 34       0.000000000000
 35       0.000000000000
 36       0.000000000000
 37       0.000000000000
 38       0.000000000000
 39       0.000000000000
 40       0.000000000000
 41       0.000000000000
 42       0.000000000000
 43       0.000000000000
 44       0.000000000000
 45       0.000000000000
 46       0.000000000000
 47       0.000000000000
 48       0.000000000000
 49       0.000000000000
 50       0.000000000000
 51       0.000000000000
 52       0.000000000000
 53       0.000000000000
 54       0.000000000000
 55       0.000000000000
 56       0.000000000000
 57       0.000000000000
 58       0.000000000000
 59       0.000000000000
 60       0.000000000000
 61       0.000000000000
 62       0.000000000000
 63       0.000000000000
 64       0.000000000000
 65       0.000000000000
 66       0.000000000000
 67       0.000000000000
 68       0.000000000000
 69       0.000000000000
 70       0.000000000000
 71       0.000000000000
 72       0.000000000000
 73       0.000000000000
 74       0.000000000000
 Sym=     1a
 Ene=  2.83869661199128E+00
Spin= Alpha
 Occup= 0.017685
  1       0.000000000000
  2       0.000000000000
  3       0.000000000000
  4       0.000000000000
  5       0.000000000000
  6       0.000000000000
  7       0.000000000000
  8       0.000000000000
  9       0.000000000000
 10       0.000000000000
 11       0.000000000000
 12       0.000000000000
 13       0.000000000000
 14       0.000000000000
 15       0.000000000000
 16       0.000000000000
 17       0.000000000000
 18       0.000000000000
 19      -1.165477359835
 20       0.000000000000
 21       0.000000000000
 22       0.000000000000
 23       0.000000000000
 24       0.459872724144
 25       0.000000000000
 26       0.000000000000
 27       0.000000000000
 28       0.000000000000
 29       0.000000000000
 30       0.000000000000
 31       0.000000000000
 32       0.000000000000
 33       0.000000000000
 34       0.000000000000
 35       0.000000000000
 36       0.000000000000
 37       0.000000000000
 38       0.000000000000
 39       0.000000000000
 40       0.000000000000
 41       0.000000000000
 42       0.000000000000
 43       0.000000000000
 44       0.000000000000
 45       0.000000000000
 46       0.000000000000
 47       0.000000000000
 48       0.000000000000
 49       0.000000000000
 50       0.000000000000
 51       0.000000000000
 52       0.000000000000
 53       0.000000000000
 54       0.000000000000
 55       0.000000000000
 56       0.000000000000
 57       0.000000000000
 58       0.000000000000
 59       0.000000000000
 60       0.000000000000
 61       0.000000000000
 62       0.000000000000
 63       0.000000000000
 64       0.000000000000
 65       0.000000000000
 66       0.000000000000
 67       0.000000000000
 68       0.000000000000
 69       0.000000000000
 70       0.000000000000
 71       0.000000000000
 72       0.000000000000
 73       0.000000000000
 74       0.000000000000
 Sym=     1a
 Ene=  4.76194531681761E-01
Spin= Alpha
 Occup= 0.360487
  1       0.000000000000
  2       0.000000000000
  3       0.000000000000
  4       0.000000000000
  5       0.000000000000
  6       0.000000000000
  7       0.000000000000
  8       0.000000000000
  9       0.000000000000
 10       0.000000000000
 11       0.000000000000
 12       0.000000000000
 13       0.000000000000
 14       0.000000000000
 15      -0.188508689500
 16       0.000000000000
 17       0.000000000000
 18       0.000000000000
 19       0.000000000000
 20       1.087377616052
 21       0.000000000000
 22       0.000000000000
 23       0.000000000000
 24       0.000000000000
 25       0.000000000000
 26       0.000000000000
 27       0.000000000000
 28       0.000000000000
 29       0.000000000000
 30       0.000000000000
 31       0.000000000000
 32       0.000000000000
 33       0.000000000000
 34       0.000000000000
 35       0.000000000000
 36       0.000000000000
 37       0.000000000000
 38       0.000000000000
 39       0.000000000000
 40       0.000000000000
 41       0.000000000000
 42       0.000000000000
 43       0.000000000000
 44       0.000000000000
 45       0.000000000000
 46       0.000000000000
 47       0.000000000000
 48       0.000000000000
 49       0.000000000000
 50       0.000000000000
 51       0.000000000000
 52       0.000000000000
 53       0.000000000000
 54       0.000000000000
 55       0.000000000000
 56       0.000000000000
 57       0.000000000000
 58       0.000000000000
 59       0.000000000000
 60       0.000000000000
 61       0.000000000000
 62       0.000000000000
 63       0.000000000000
 64       0.000000000000
 65       0.000000000000
 66       0.000000000000
 67       0.000000000000
 68       0.000000000000
 69       0.000000000000
 70       0.000000000000
 71       0.000000000000
 72       0.000000000000
 73       0.000000000000
 74       0.000000000000
 Sym=     1a
 Ene=  5.78148223148665E-01
Spin= Alpha
 Occup= 0.360487
  1       0.000000000000
  2       0.000000000000
  3       0.000000000000
  4       0.000000000000
  5       0.000000000000
  6       0.000000000000
  7       0.000000000000
  8       0.000000000000
  9       0.000000000000
 10       0.000000000000
 11       0.000000000000
 12       0.000000000000
 13       0.000000000000
 14       0.000000000000
 15       0.000000000000
 16      -0.188508689500
 17       0.000000000000
 18       0.000000000000
 19       0.000000000000
 20       0.000000000000
 21       1.087377616052
 22       0.000000000000
 23       0.000000000000
 24       0.000000000000
 25       0.000000000000
 26       0.000000000000
 27       0.000000000000
 28       0.000000000000
 29       0.000000000000
 30       0.000000000000
 31       0.000000000000
 32       0.000000000000
 33       0.000000000000
 34       0.000000000000
 35       0.000000000000
 36       0.000000000000
 37       0.000000000000
 38       0.000000000000
 39       0.000000000000
 40       0.000000000000
 41       0.000000000000
 42       0.000000000000
 43       0.000000000000
 44       0.000000000000
 45       0.000000000000
 46       0.000000000000
 47       0.000000000000
 48       0.000000000000
 49       0.000000000000
 50       0.000000000000
 51       0.000000000000
 52       0.000000000000
 53       0.000000000000
 54       0.000000000000
 55       0.000000000000
 56       0.000000000000
 57       0.000000000000
 58       0.000000000000
 59       0.000000000000
 60       0.000000000000
 61       0.000000000000
 62       0.000000000000
 63       0.000000000000
 64       0.000000000000
 65       0.000000000000
 66       0.000000000000
 67       0.000000000000
 68       0.000000000000
 69       0.000000000000
 70       0.000000000000
 71       0.000000000000
 72       0.000000000000
 73       0.000000000000
 74       0.000000000000
 Sym=     1a
 Ene=  7.25516786494818E-01
Spin= Alpha
 Occup= 0.360487
  1       0.000000000000
  2       0.000000000000
  3       0.000000000000
  4       0.000000000000
  5       0.000000000000
  6       0.000000000000
  7       0.000000000000
  8       0.000000000000
  9       0.000000000000
 10       0.000000000000
 11       0.000000000000
 12       0.000000000000
 13       0.000000000000
 14       0.000000000000
 15       0.000000000000
 16       0.000000000000
 17      -0.188508689500
 18       0.000000000000
 19       0.000000000000
 20       0.000000000000
 21       0.000000000000
 22       1.087377616052
 23       0.000000000000
 24       0.000000000000
 25       0.000000000000
 26       0.000000000000
 27       0.000000000000
 28       0.000000000000
 29       0.000000000000
 30       0.000000000000
 31       0.000000000000
 32       0.000000000000
 33       0.000000000000
 34       0.000000000000
 35       0.000000000000
 36       0.000000000000
 37       0.000000000000
 38       0.000000000000
 39       0.000000000000
 40       0.000000000000
 41       0.000000000000
 42       0.000000000000
 43       0.000000000000
 44       0.000000000000
 45       0.000000000000
 46       0.000000000000
 47       0.000000000000
 48       0.000000000000
 49       0.000000000000
 50       0.000000000000
 51       0.000000000000
 52       0.000000000000
 53       0.000000000000
 54       0.000000000000
 55       0.000000000000
 56       0.000000000000
 57       0.000000000000
 58       0.000000000000
 59       0.000000000000
 60       0.000000000000
 61       0.000000000000
 62       0.000000000000
 63       0.000000000000
 64       0.000000000000
 65       0.000000000000
 66       0.000000000000
 67       0.000000000000
 68       0.000000000000
 69       0.000000000000
 70       0.000000000000
 71       0.000000000000
 72       0.000000000000
 73       0.000000000000
 74       0.000000000000
 Sym=     1a
 Ene=  2.72391506357117E-02
Spin= Alpha
 Occup= 0.360487
  1       0.000000000000
  2       0.000000000000
  3       0.000000000000
  4       0.000000000000
  5       0.000000000000
  6       0.000000000000
  7       0.000000000000
  8       0.000000000000
  9       0.000000000000
 10       0.000000000000
 11       0.000000000000
 12       0.000000000000
 13       0.000000000000
 14       0.000000000000
 15       0.000000000000
 16       0.000000000000
 17       0.000000000000
 18      -0.188508689500
 19       0.000000000000
 20       0.000000000000
 21       0.000000000000
 22       0.000000000000
 23       1.087377616052
 24       0.000000000000
 25       0.000000000000
 26       0.000000000000
 27       0.000000000000
 28       0.000000000000
 29       0.000000000000
 30       0.000000000000
 31       0.000000000000
 32       0.000000000000
 33       0.000000000000
 34       0.000000000000
 35       0.000000000000
 36       0.000000000000
 37       0.000000000000
 38       0.000000000000
 39       0.000000000000
 40       0.000000000000
 41       0.000000000000
 42       0.000000000000
 43       0.000000000000
 44       0.000000000000
 45       0.000000000000
 46       0.000000000000
 47       0.000000000000
 48       0.000000000000
 49       0.000000000000
 50       0.000000000000
 51       0.000000000000
 52       0.000000000000
 53       0.000000000000
 54       0.000000000000
 55       0.000000000000
 56       0.000000000000
 57       0.000000000000
 58       0.000000000000
 59       0.000000000000
 60       0.000000000000
 61       0.000000000000
 62       0.000000000000
 63       0.000000000000
 64       0.000000000000
 65       0.000000000000
 66       0.000000000000
 67       0.000000000000
 68       0.000000000000
 69       0.000000000000
 70       0.000000000000
 71       0.000000000000
 72       0.000000000000
 73       0.000000000000
 74       0.000000000000
 Sym=     1a
 Ene=  3.01173702360371E-01
Spin= Alpha
 Occup= 0.360487
  1       0.000000000000
  2       0.000000000000
  3       0.000000000000
  4       0.000000000000
  5       0.000000000000
  6       0.000000000000
  7       0.000000000000
  8       0.000000000000
  9       0.000000000000
 10       0.000000000000
 11       0.000000000000
 12       0.000000000000
 13       0.000000000000
 14       0.000000000000
 15       0.000000000000
 16       0.000000000000
 17       0.000000000000
 18       0.000000000000
 19      -0.188508689500
 20       0.000000000000
 21       0.000000000000
 22       0.000000000000
 23       0.000000000000
 24       1.087377616052
 25       0.000000000000
 26       0.000000000000
 27       0.000000000000
 28       0.000000000000
 29       0.000000000000
 30       0.000000000000
 31       0.000000000000
 32       0.000000000000
 33       0.000000000000
 34       0.000000000000
 35       0.000000000000
 36       0.000000000000
 37       0.000000000000
 38       0.000000000000
 39       0.000000000000
 40       0.000000000000
 41       0.000000000000
 42       0.000000000000
 43       0.000000000000
 44       0.000000000000
 45       0.000000000000
 46       0.000000000000
 47       0.000000000000
 48       0.000000000000
 49       0.000000000000
 50       0.000000000000
 51       0.000000000000
 52       0.000000000000
 53       0.000000000000
 54       0.000000000000
 55       0.000000000000
 56       0.000000000000
 57       0.000000000000
 58       0.000000000000
 59       0.000000000000
 60       0.000000000000
 61       0.000000000000
 62       0.000000000000
 63       0.000000000000
 64       0.000000000000
 65       0.000000000000
 66       0.000000000000
 67       0.000000000000
 68       0.000000000000
 69       0.000000000000
 70       0.000000000000
 71       0.000000000000
 72       0.000000000000
 73       0.000000000000
 74       0.000000000000
 Sym=     1a
 Ene=  2.59841988584987E+00
Spin= Alpha
 Occup= 0.054662
  1       0.000000000000
  2       0.000000000000
  3       0.000000000000
  4       0.000000000000
  5       0.000000000000
  6       0.000000000000
  7       0.000000000000
  8       0.000000000000
  9       0.000000000000
 10       0.000000000000
 11       0.000000000000
 12       0.000000000000
 13       0.000000000000
 14       0.000000000000
 15       0.000000000000
 16       0.000000000000
 17       0.000000000000
 18       0.000000000000
 19       0.000000000000
 20       0.000000000000
 21       0.000000000000
 22       0.000000000000
 23       0.000000000000
 24       0.000000000000
 25       1.000000000000
 26       0.000000000000
 27       0.000000000000
 28       0.000000000000
 29       0.000000000000
 30       0.000000000000
 31       0.000000000000
 32       0.000000000000
 33       0.000000000000
 34       0.000000000000
 35       0.000000000000
 36       0.000000000000
 37       0.000000000000
 38       0.000000000000
 39       0.000000000000
 40       0.000000000000
 41       0.000000000000
 42       0.000000000000
 43       0.000000000000
 44       0.000000000000
 45       0.000000000000
 46       0.000000000000
 47       0.000000000000
 48       0.000000000000
 49       0.000000000000
 50       0.000000000000
 51       0.000000000000
 52       0.000000000000
 53       0.000000000000
 54       0.000000000000
 55       0.000000000000
 56       0.000000000000
 57       0.000000000000
 58       0.000000000000
 59       0.000000000000
 60       0.000000000000
 61       0.000000000000
 62       0.000000000000
 63       0.000000000000
 64       0.000000000000
 65       0.000000000000
 66       0.000000000000
 67       0.000000000000
 68       0.000000000000
 69       0.000000000000
 70       0.000000000000
 71       0.000000000000
 72       0.000000000000
 73       0.000000000000
 74       0.000000000000
 Sym=     1a
 Ene=  2.40254742436729E+00
Spin= Alpha
 Occup= 0.054662
  1       0.000000000000
  2       0.000000000000
  3       0.000000000000
  4       0.000000000000
  5       0.000000000000
  6       0.000000000000
  7       0.000000000000
  8       0.000000000000
  9       0.000000000000
 10       0.000000000000
 11       0.000000000000
 12       0.000000000000
 13       0.000000000000
 14       0.000000000000
 15       0.000000000000
 16       0.000000000000
 17       0.000000000000
 18       0.000000000000
 19       0.000000000000
 20       0.000000000000
 21       0.000000000000
 22       0.000000000000
 23       0.000000000000
 24       0.000000000000
 25       0.000000000000
 26       1.000000000000
 27       0.000000000000
 28       0.000000000000
 29       0.000000000000
 30       0.000000000000
 31       0.000000000000
 32       0.000000000000
 33       0.000000000000
 34       0.000000000000
 35       0.000000000000
 36       0.000000000000
 37       0.000000000000
 38       0.000000000000
 39       0.000000000000
 40       0.000000000000
 41       0.000000000000
 42       0.000000000000
 43       0.000000000000
 44       0.000000000000
 45       0.000000000000
 46       0.000000000000
 47       0.000000000000
 48       0.000000000000
 49       0.000000000000
 50       0.000000000000
 51       0.000000000000
 52       0.000000000000
 53       0.000000000000
 54       0.000000000000
 55       0.000000000000
 56       0.000000000000
 57       0.000000000000
 58       0.000000000000
 59       0.000000000000
 60       0.000000000000
 61       0.000000000000
 62       0.000000000000
 63       0.000000000000
 64       0.000000000000
 65       0.000000000000
 66       0.000000000000
 67       0.000000000000
 68       0.000000000000
 69       0.000000000000
 70       0.000000000000
 71       0.000000000000
 72       0.000000000000
 73       0.000000000000
 74       0.000000000000
 Sym=     1a
 Ene=  2.61754764675879E+00
Spin= Alpha
 Occup= 0.054662
  1       0.000000000000
  2       0.000000000000
  3       0.000000000000
  4       0.000000000000
  5       0.000000000000
  6       0.000000000000
  7       0.000000000000
  8       0.000000000000
  9       0.000000000000
 10       0.000000000000
 11       0.000000000000
 12       0.000000000000
 13       0.000000000000
 14       0.000000000000
 15       0.000000000000
 16       0.000000000000
 17       0.000000000000
 18       0.000000000000
 19       0.000000000000
 20       0.000000000000
 21       0.000000000000
 22       0.000000000000
 23       0.000000000000
 24       0.000000000000
 25       0.000000000000
 26       0.000000000000
 27       1.000000000000
 28       0.000000000000
 29       0.000000000000
 30       0.000000000000
 31       0.000000000000
 32       0.000000000000
 33       0.000000000000
 34       0.000000000000
 35       0.000000000000
 36       0.000000000000
 37       0.000000000000
 38       0.000000000000
 39       0.000000000000
 40       0.000000000000
 41       0.000000000000
 42       0.000000000000
 43       0.000000000000
 44       0.000000000000
 45       0.000000000000
 46       0.000000000000
 47       0.000000000000
 48       0.000000000000
 49       0.000000000000
 50       0.000000000000
 51       0.000000000000
 52       0.000000000000
 53       0.000000000000
 54       0.000000000000
 55       0.000000000000
 56       0.000000000000
 57       0.000000000000
 58       0.000000000000
 59       0.000000000000
 60       0.000000000000
 61       0.000000000000
 62       0.000000000000
 63       0.000000000000
 64       0.000000000000
 65       0.000000000000
 66       0.000000000000
 67       0.000000000000
 68       0.000000000000
 69       0.000000000000
 70       0.000000000000
 71       0.000000000000
 72       0.000000000000
 73       0.000000000000
 74       0.000000000000
 Sym=     1a
 Ene=  2.54263721549257E+00
Spin= Alpha
 Occup= 0.054662
  1       0.000000000000
  2       0.000000000000
  3       0.000000000000
  4       0.000000000000
  5       0.000000000000
  6       0.000000000000
  7       0.000000000000
  8       0.000000000000
  9       0.000000000000
 10       0.000000000000
 11       0.000000000000
 12       0.000000000000
 13       0.000000000000
 14       0.000000000000
 15       0.000000000000
 16       0.000000000000
 17       0.000000000000
 18       0.000000000000
 19       0.000000000000
 20       0.000000000000
 21       0.000000000000
 22       0.000000000000
 23       0.000000000000
 24       0.000000000000
 25       0.000000000000
 26       0.000000000000
 27       0.000000000000
 28       1.000000000000
 29       0.000000000000
 30       0.000000000000
 31       0.000000000000
 32       0.000000000000
 33       0.000000000000
 34       0.000000000000
 35       0.000000000000
 36       0.000000000000
 37       0.000000000000
 38       0.000000000000
 39       0.000000000000
 40       0.000000000000
 41       0.000000000000
 42       0.000000000000
 43       0.000000000000
 44       0.000000000000
 45       0.000000000000
 46       0.000000000000
 47       0.000000000000
 48       0.000000000000
 49       0.000000000000
 50       0.000000000000
 51       0.000000000000
 52       0.000000000000
 53       0.000000000000
 54       0.000000000000
 55       0.000000000000
 56       0.000000000000
 57       0.000000000000
 58       0.000000000000
 59       0.000000000000
 60       0.000000000000
 61       0.000000000000
 62       0.000000000000
 63       0.000000000000
 64       0.000000000000
 65       0.000000000000
 66       0.000000000000
 67       0.000000000000
 68       0.000000000000
 69       0.000000000000
 70       0.000000000000
 71       0.000000000000
 72       0.000000000000
 73       0.000000000000
 74       0.000000000000
 Sym=     1a
 Ene=  2.61137602182674E+00
Spin= Alpha
 Occup= 0.054662
  1       0.000000000000
  2       0.000000000000
  3       0.000000000000
  4       0.000000000000
  5       0.000000000000
  6       0.000000000000
  7       0.000000000000
  8       0.000000000000
  9       0.000000000000
 10       0.000000000000
 11       0.000000000000
 12       0.000000000000
 13       0.000000000000
 14       0.000000000000
 15       0.000000000000
 16       0.000000000000
 17       0.000000000000
 18       0.000000000000
 19       0.000000000000
 20       0.000000000000
 21       0.000000000000
 22       0.000000000000
 23       0.000000000000
 24       0.000000000000
 25       0.000000000000
 26       0.000000000000
 27       0.000000000000
 28       0.000000000000
 29       1.000000000000
 30       0.000000000000
 31       0.000000000000
 32       0.000000000000
 33       0.000000000000
 34       0.000000000000
 35       0.000000000000
 36       0.000000000000
 37       0.000000000000
 38       0.000000000000
 39       0.000000000000
 40       0.000000000000
 41       0.000000000000
 42       0.000000000000
 43       0.000000000000
 44       0.000000000000
 45       0.000000000000
 46       0.000000000000
 47       0.000000000000
 48       0.000000000000
 49       0.000000000000
 50       0.000000000000
 51       0.000000000000
 52       0.000000000000
 53       0.000000000000
 54       0.000000000000
 55       0.000000000000
 56       0.000000000000
 57       0.000000000000
 58       0.000000000000
 59       0.000000000000
 60       0.000000000000
 61       0.000000000000
 62       0.000000000000
 63       0.000000000000
 64       0.000000000000
 65       0.000000000000
 66       0.000000000000
 67       0.000000000000
 68       0.000000000000
 69       0.000000000000
 70       0.000000000000
 71       0.000000000000
 72       0.000000000000
 73       0.000000000000
 74       0.000000000000
 Sym=     1a
 Ene=  2.08763494401890E+00
Spin= Alpha
 Occup= 0.054662
  1       0.000000000000
  2       0.000000000000
  3       0.000000000000
  4       0.000000000000
  5       0.000000000000
  6       0.000000000000
  7       0.000000000000
  8       0.000000000000
  9       0.000000000000
 10       0.000000000000
 11       0.000000000000
 12       0.000000000000
 13       0.000000000000
 14       0.000000000000
 15       0.000000000000
 16       0.000000000000
 17       0.000000000000
 18       0.000000000000
 19       0.000000000000
 20       0.000000000000
 21       0.000000000000
 22       0.000000000000
 23       0.000000000000
 24       0.000000000000
 25       0.000000000000
 26       0.000000000000
 27       0.000000000000
 28       0.000000000000
 29       0.000000000000
 30       1.000000000000
 31       0.000000000000
 32       0.000000000000
 33       0.000000000000
 34       0.000000000000
 35       0.000000000000
 36       0.000000000000
 37       0.000000000000
 38       0.000000000000
 39       0.000000000000
 40       0.000000000000
 41       0.000000000000
 42       0.000000000000
 43       0.000000000000
 44       0.000000000000
 45       0.000000000000
 46       0.000000000000
 47       0.000000000000
 48       0.000000000000
 49       0.000000000000
 50       0.000000000000
 51       0.000000000000
 52       0.000000000000
 53       0.000000000000
 54       0.000000000000
 55       0.000000000000
 56       0.000000000000
 57       0.000000000000
 58       0.000000000000
 59       0.000000000000
 60       0.000000000000
 61       0.000000000000
 62       0.000000000000
 63       0.000000000000
 64       0.000000000000
 65       0.000000000000
 66       0.000000000000
 67       0.000000000000
 68       0.000000000000
 69       0.000000000000
 70       0.000000000000
 71       0.000000000000
 72       0.000000000000
 73       0.000000000000
 74       0.000000000000
 Sym=     1a
 Ene=  2.38600251407659E+00
Spin= Alpha
 Occup= 0.054662
  1       0.000000000000
  2       0.000000000000
  3       0.000000000000
  4       0.000000000000
  5       0.000000000000
  6       0.000000000000
  7       0.000000000000
  8       0.000000000000
  9       0.000000000000
 10       0.000000000000
 11       0.000000000000
 12       0.000000000000
 13       0.000000000000
 14       0.000000000000
 15       0.000000000000
 16       0.000000000000
 17       0.000000000000
 18       0.000000000000
 19       0.000000000000
 20       0.000000000000
 21       0.000000000000
 22       0.000000000000
 23       0.000000000000
 24       0.000000000000
 25       0.000000000000
 26       0.000000000000
 27       0.000000000000
 28       0.000000000000
 29       0.000000000000
 30       0.000000000000
 31       1.000000000000
 32       0.000000000000
 33       0.000000000000
 34       0.000000000000
 35       0.000000000000
 36       0.000000000000
 37       0.000000000000
 38       0.000000000000
 39       0.000000000000
 40       0.000000000000
 41       0.000000000000
 42       0.000000000000
 43       0.000000000000
 44       0.000000000000
 45       0.000000000000
 46       0.000000000000
 47       0.000000000000
 48       0.000000000000
 49       0.000000000000
 50       0.000000000000
 51       0.000000000000
 52       0.000000000000
 53       0.000000000000
 54       0.000000000000
 55       0.000000000000
 56       0.000000000000
 57       0.000000000000
 58       0.000000000000
 59       0.000000000000
 60       0.000000000000
 61       0.000000000000
 62       0.000000000000
 63       0.000000000000
 64       0.000000000000
 65       0.000000000000
 66       0.000000000000
 67       0.000000000000
 68       0.000000000000
 69       0.000000000000
 70       0.000000000000
 71       0.000000000000
 72       0.000000000000
 73       0.000000000000
 74       0.000000000000
 Sym=     1a
 Ene=  4.14313035698544E+01
Spin= Alpha
 Occup= 0.000091
  1       0.000000000000
  2       0.000000000000
  3       0.000000000000
  4       0.000000000000
  5       0.000000000000
  6       0.000000000000
  7       0.000000000000
  8       0.000000000000
  9       0.000000000000
 10       0.000000000000
 11       0.000000000000
 12       0.000000000000
 13       0.000000000000
 14       0.000000000000
 15       0.000000000000
 16       0.000000000000
 17       0.000000000000
 18       0.000000000000
 19       0.000000000000
 20       0.000000000000
 21       0.000000000000
 22       0.000000000000
 23       0.000000000000
 24       0.000000000000
 25       0.000000000000
 26       0.000000000000
 27       0.000000000000
 28       0.000000000000
 29       0.000000000000
 30       0.000000000000
 31       0.000000000000
 32      -1.385600902078
 33       1.555721243153
 34      -0.770846395547
 35       0.374515875376
 36      -0.077027062798
 37       0.000000000000
 38       0.000000000000
 39       0.000000000000
 40       0.000000000000
 41       0.000000000000
 42       0.000000000000
 43       0.000000000000
 44       0.000000000000
 45       0.000000000000
 46       0.000000000000
 47       0.000000000000
 48       0.000000000000
 49       0.000000000000
 50       0.000000000000
 51       0.000000000000
 52       0.000000000000
 53       0.000000000000
 54       0.000000000000
 55       0.000000000000
 56       0.000000000000
 57       0.000000000000
 58       0.000000000000
 59       0.000000000000
 60       0.000000000000
 61       0.000000000000
 62       0.000000000000
 63       0.000000000000
 64       0.000000000000
 65       0.000000000000
 66       0.000000000000
 67       0.000000000000
 68       0.000000000000
 69       0.000000000000
 70       0.000000000000
 71       0.000000000000
 72       0.000000000000
 73       0.000000000000
 74       0.000000000000
 Sym=     1a
 Ene=  3.51430026009952E+00
Spin= Alpha
 Occup= 0.015403
  1       0.000000000000
  2       0.000000000000
  3       0.000000000000
  4       0.000000000000
  5       0.000000000000
  6       0.000000000000
  7       0.000000000000
  8       0.000000000000
  9       0.000000000000
 10       0.000000000000
 11       0.000000000000
 12       0.000000000000
 13       0.000000000000
 14       0.000000000000
 15       0.000000000000
 16       0.000000000000
 17       0.000000000000
 18       0.000000000000
 19       0.000000000000
 20       0.000000000000
 21       0.000000000000
 22       0.000000000000
 23       0.000000000000
 24       0.000000000000
 25       0.000000000000
 26       0.000000000000
 27       0.000000000000
 28       0.000000000000
 29       0.000000000000
 30       0.000000000000
 31       0.000000000000
 32      -0.090310224500
 33       0.749803355759
 34      -2.875701311837
 35       3.042367655447
 36      -0.837408938586
 37       0.000000000000
 38       0.000000000000
 39       0.000000000000
 40       0.000000000000
 41       0.000000000000
 42       0.000000000000
 43       0.000000000000
 44       0.000000000000
 45       0.000000000000
 46       0.000000000000
 47       0.000000000000
 48       0.000000000000
 49       0.000000000000
 50       0.000000000000
 51       0.000000000000
 52       0.000000000000
 53       0.000000000000
 54       0.000000000000
 55       0.000000000000
 56       0.000000000000
 57       0.000000000000
 58       0.000000000000
 59       0.000000000000
 60       0.000000000000
 61       0.000000000000
 62       0.000000000000
 63       0.000000000000
 64       0.000000000000
 65       0.000000000000
 66       0.000000000000
 67       0.000000000000
 68       0.000000000000
 69       0.000000000000
 70       0.000000000000
 71       0.000000000000
 72       0.000000000000
 73       0.000000000000
 74       0.000000000000
 Sym=     1a
 Ene=  6.73108256159577E-01
Spin= Alpha
 Occup= 0.311417
  1       0.000000000000
  2       0.000000000000
  3       0.000000000000
  4       0.000000000000
  5       0.000000000000
  6       0.000000000000
  7       0.000000000000
  8       0.000000000000
  9       0.000000000000
 10       0.000000000000
 11       0.000000000000
 12       0.000000000000
 13       0.000000000000
 14       0.000000000000
 15       0.000000000000
 16       0.000000000000
 17       0.000000000000
 18       0.000000000000
 19       0.000000000000
 20       0.000000000000
 21       0.000000000000
 22       0.000000000000
 23       0.000000000000
 24       0.000000000000
 25       0.000000000000
 26       0.000000000000
 27       0.000000000000
 28       0.000000000000
 29       0.000000000000
 30       0.000000000000
 31       0.000000000000
 32       0.113284983906
 33      -0.143664497374
 34       1.079022443043
 35      -3.038281071052
 36       2.418715494322
 37       0.000000000000
 38       0.000000000000
 39       0.000000000000
 40       0.000000000000
 41       0.000000000000
 42       0.000000000000
 43       0.000000000000
 44       0.000000000000
 45       0.000000000000
 46       0.000000000000
 47       0.000000000000
 48       0.000000000000
 49       0.000000000000
 50       0.000000000000
 51       0.000000000000
 52       0.000000000000
 53       0.000000000000
 54       0.000000000000
 55       0.000000000000
 56       0.000000000000
 57       0.000000000000
 58       0.000000000000
 59       0.000000000000
 60       0.000000000000
 61       0.000000000000
 62       0.000000000000
 63       0.000000000000
 64       0.000000000000
 65       0.000000000000
 66       0.000000000000
 67       0.000000000000
 68       0.000000000000
 69       0.000000000000
 70       0.000000000000
 71       0.000000000000
 72       0.000000000000
 73       0.000000000000
 74       0.000000000000
 Sym=     1a
 Ene= -1.09176628110846E+00
Spin= Alpha
 Occup= 1.983860
  1       0.000000000000
  2       0.000000000000
  3       0.000000000000
  4       0.000000000000
  5       0.000000000000
  6       0.000000000000
  7       0.000000000000
  8       0.000000000000
  9       0.000000000000
 10       0.000000000000
 11       0.000000000000
 12       0.000000000000
 13       0.000000000000
 14       0.000000000000
 15       0.000000000000
 16       0.000000000000
 17       0.000000000000
 18       0.000000000000
 19       0.000000000000
 20       0.000000000000
 21       0.000000000000
 22       0.000000000000
 23       0.000000000000
 24       0.000000000000
 25       0.000000000000
 26       0.000000000000
 27       0.000000000000
 28       0.000000000000
 29       0.000000000000
 30       0.000000000000
 31       0.000000000000
 32       0.108039582662
 33       0.244106686646
 34      -0.324960967873
 35      -0.546910700578
 36      -0.256814588419
 37       0.000000000000
 38       0.000000000000
 39       0.000000000000
 40       0.000000000000
 41       0.000000000000
 42       0.000000000000
 43       0.000000000000
 44       0.000000000000
 45       0.000000000000
 46       0.000000000000
 47       0.000000000000
 48       0.000000000000
 49       0.000000000000
 50       0.000000000000
 51       0.000000000000
 52       0.000000000000
 53       0.000000000000
 54       0.000000000000
 55       0.000000000000
 56       0.000000000000
 57       0.000000000000
 58       0.000000000000
 59       0.000000000000
 60       0.000000000000
 61       0.000000000000
 62       0.000000000000
 63       0.000000000000
 64       0.000000000000
 65       0.000000000000
 66       0.000000000000
 67       0.000000000000
 68       0.000000000000
 69       0.000000000000
 70       0.000000000000
 71       0.000000000000
 72       0.000000000000
 73       0.000000000000
 74       0.000000000000
 Sym=     1a
 Ene= -1.92495317107715E+01
Spin= Alpha
 Occup= 1.999995
  1       0.000000000000
  2       0.000000000000
  3       0.000000000000
  4       0.000000000000
  5       0.000000000000
  6       0.000000000000
  7       0.000000000000
  8       0.000000000000
  9       0.000000000000
 10       0.000000000000
 11       0.000000000000
 12       0.000000000000
 13       0.000000000000
 14       0.000000000000
 15       0.000000000000
 16       0.000000000000
 17       0.000000000000
 18       0.000000000000
 19       0.000000000000
 20       0.000000000000
 21       0.000000000000
 22       0.000000000000
 23       0.000000000000
 24       0.000000000000
 25       0.000000000000
 26       0.000000000000
 27       0.000000000000
 28       0.000000000000
 29       0.000000000000
 30       0.000000000000
 31       0.000000000000
 32       0.435146578700
 33       0.639234947801
 34       0.031650187843
 35      -0.013486786714
 36       0.005863127043
 37       0.000000000000
 38       0.000000000000
 39       0.000000000000
 40       0.000000000000
 41       0.000000000000
 42       0.000000000000
 43       0.000000000000
 44       0.000000000000
 45       0.000000000000
 46       0.000000000000
 47       0.000000000000
 48       0.000000000000
 49       0.000000000000
 50       0.000000000000
 51       0.000000000000
 52       0.000000000000
 53       0.000000000000
 54       0.000000000000
 55       0.000000000000
 56       0.000000000000
 57       0.000000000000
 58       0.000000000000
 59       0.000000000000
 60       0.000000000000
 61       0.000000000000
 62       0.000000000000
 63       0.000000000000
 64       0.000000000000
 65       0.000000000000
 66       0.000000000000
 67       0.000000000000
 68       0.000000000000
 69       0.000000000000
 70       0.000000000000
 71       0.000000000000
 72       0.000000000000
 73       0.000000000000
 74       0.000000000000
 Sym=     1a
 Ene=  2.27497772676805E+00
Spin= Alpha
 Occup= 0.007439
  1       0.000000000000
  2       0.000000000000
  3       0.000000000000
  4       0.000000000000
  5       0.000000000000
  6       0.000000000000
  7       0.000000000000
  8       0.000000000000
  9       0.000000000000
 10       0.000000000000
 11       0.000000000000
 12       0.000000000000
 13       0.000000000000
 14       0.000000000000
 15       0.000000000000
 16       0.000000000000
 17       0.000000000000
 18       0.000000000000
 19       0.000000000000
 20       0.000000000000
 21       0.000000000000
 22       0.000000000000
 23       0.000000000000
 24       0.000000000000
 25       0.000000000000
 26       0.000000000000
 27       0.000000000000
 28       0.000000000000
 29       0.000000000000
 30       0.000000000000
 31       0.000000000000
 32       0.000000000000
 33       0.000000000000
 34       0.000000000000
 35       0.000000000000
 36       0.000000000000
 37      -1.269046472845
 38       0.000000000000
 39       0.000000000000
 40       1.358018172107
 41       0.000000000000
 42       0.000000000000
 43      -0.405724868993
 44       0.000000000000
 45       0.000000000000
 46       0.000000000000
 47       0.000000000000
 48       0.000000000000
 49       0.000000000000
 50       0.000000000000
 51       0.000000000000
 52       0.000000000000
 53       0.000000000000
 54       0.000000000000
 55       0.000000000000
 56       0.000000000000
 57       0.000000000000
 58       0.000000000000
 59       0.000000000000
 60       0.000000000000
 61       0.000000000000
 62       0.000000000000
 63       0.000000000000
 64       0.000000000000
 65       0.000000000000
 66       0.000000000000
 67       0.000000000000
 68       0.000000000000
 69       0.000000000000
 70       0.000000000000
 71       0.000000000000
 72       0.000000000000
 73       0.000000000000
 74       0.000000000000
 Sym=     1a
 Ene=  2.47441457921407E+00
Spin= Alpha
 Occup= 0.007439
  1       0.000000000000
  2       0.000000000000
  3       0.000000000000
  4       0.000000000000
  5       0.000000000000
  6       0.000000000000
  7       0.000000000000
  8       0.000000000000
  9       0.000000000000
 10       0.000000000000
 11       0.000000000000
 12       0.000000000000
 13       0.000000000000
 14       0.000000000000
 15       0.000000000000
 16       0.000000000000
 17       0.000000000000
 18       0.000000000000
 19       0.000000000000
 20       0.000000000000
 21       0.000000000000
 22       0.000000000000
 23       0.000000000000
 24       0.000000000000
 25       0.000000000000
 26       0.000000000000
 27       0.000000000000
 28       0.000000000000
 29       0.000000000000
 30       0.000000000000
 31       0.000000000000
 32       0.000000000000
 33       0.000000000000
 34       0.000000000000
 35       0.000000000000
 36       0.000000000000
 37       0.000000000000
 38      -1.269046472845
 39       0.000000000000
 40       0.000000000000
 41       1.358018172107
 42       0.000000000000
 43       0.000000000000
 44      -0.405724868993
 45       0.000000000000
 46       0.000000000000
 47       0.000000000000
 48       0.000000000000
 49       0.000000000000
 50       0.000000000000
 51       0.000000000000
 52       0.000000000000
 53       0.000000000000
 54       0.000000000000
 55       0.000000000000
 56       0.000000000000
 57       0.000000000000
 58       0.000000000000
 59       0.000000000000
 60       0.000000000000
 61       0.000000000000
 62       0.000000000000
 63       0.000000000000
 64       0.000000000000
 65       0.000000000000
 66       0.000000000000
 67       0.000000000000
 68       0.000000000000
 69       0.000000000000
 70       0.000000000000
 71       0.000000000000
 72       0.000000000000
 73       0.000000000000
 74       0.000000000000
 Sym=     1a
 Ene=  2.46820648256338E+00
Spin= Alpha
 Occup= 0.007439
  1       0.000000000000
  2       0.000000000000
  3       0.000000000000
  4       0.000000000000
  5       0.000000000000
  6       0.000000000000
  7       0.000000000000
  8       0.000000000000
  9       0.000000000000
 10       0.000000000000
 11       0.000000000000
 12       0.000000000000
 13       0.000000000000
 14       0.000000000000
 15       0.000000000000
 16       0.000000000000
 17       0.000000000000
 18       0.000000000000
 19       0.000000000000
 20       0.000000000000
 21       0.000000000000
 22       0.000000000000
 23       0.000000000000
 24       0.000000000000
 25       0.000000000000
 26       0.000000000000
 27       0.000000000000
 28       0.000000000000
 29       0.000000000000
 30       0.000000000000
 31       0.000000000000
 32       0.000000000000
 33       0.000000000000
 34       0.000000000000
 35       0.000000000000
 36       0.000000000000
 37       0.000000000000
 38       0.000000000000
 39      -1.269046472845
 40       0.000000000000
 41       0.000000000000
 42       1.358018172107
 43       0.000000000000
 44       0.000000000000
 45      -0.405724868993
 46       0.000000000000
 47       0.000000000000
 48       0.000000000000
 49       0.000000000000
 50       0.000000000000
 51       0.000000000000
 52       0.000000000000
 53       0.000000000000
 54       0.000000000000
 55       0.000000000000
 56       0.000000000000
 57       0.000000000000
 58       0.000000000000
 59       0.000000000000
 60       0.000000000000
 61       0.000000000000
 62       0.000000000000
 63       0.000000000000
 64       0.000000000000
 65       0.000000000000
 66       0.000000000000
 67       0.000000000000
 68       0.000000000000
 69       0.000000000000
 70       0.000000000000
 71       0.000000000000
 72       0.000000000000
 73       0.000000000000
 74       0.000000000000
 Sym=     1a
 Ene=  2.32353462279280E-01
Spin= Alpha
 Occup= 0.268649
  1       0.000000000000
  2       0.000000000000
  3       0.000000000000
  4       0.000000000000
  5       0.000000000000
  6       0.000000000000
  7       0.000000000000
  8       0.000000000000
  9       0.000000000000
 10       0.000000000000
 11       0.000000000000
 12       0.000000000000
 13       0.000000000000
 14       0.000000000000
 15       0.000000000000
 16       0.000000000000
 17       0.000000000000
 18       0.000000000000
 19       0.000000000000
 20       0.000000000000
 21       0.000000000000
 22       0.000000000000
 23       0.000000000000
 24       0.000000000000
 25       0.000000000000
 26       0.000000000000
 27       0.000000000000
 28       0.000000000000
 29       0.000000000000
 30       0.000000000000
 31       0.000000000000
 32       0.000000000000
 33       0.000000000000
 34       0.000000000000
 35       0.000000000000
 36       0.000000000000
 37      -0.005600842151
 38       0.000000000000
 39       0.000000000000
 40      -1.089858075475
 41       0.000000000000
 42       0.000000000000
 43       1.372698071108
 44       0.000000000000
 45       0.000000000000
 46       0.000000000000
 47       0.000000000000
 48       0.000000000000
 49       0.000000000000
 50       0.000000000000
 51       0.000000000000
 52       0.000000000000
 53       0.000000000000
 54       0.000000000000
 55       0.000000000000
 56       0.000000000000
 57       0.000000000000
 58       0.000000000000
 59       0.000000000000
 60       0.000000000000
 61       0.000000000000
 62       0.000000000000
 63       0.000000000000
 64       0.000000000000
 65       0.000000000000
 66       0.000000000000
 67       0.000000000000
 68       0.000000000000
 69       0.000000000000
 70       0.000000000000
 71       0.000000000000
 72       0.000000000000
 73       0.000000000000
 74       0.000000000000
 Sym=     1a
 Ene=  5.96073400920491E-01
Spin= Alpha
 Occup= 0.268649
  1       0.000000000000
  2       0.000000000000
  3       0.000000000000
  4       0.000000000000
  5       0.000000000000
  6       0.000000000000
  7       0.000000000000
  8       0.000000000000
  9       0.000000000000
 10       0.000000000000
 11       0.000000000000
 12       0.000000000000
 13       0.000000000000
 14       0.000000000000
 15       0.000000000000
 16       0.000000000000
 17       0.000000000000
 18       0.000000000000
 19       0.000000000000
 20       0.000000000000
 21       0.000000000000
 22       0.000000000000
 23       0.000000000000
 24       0.000000000000
 25       0.000000000000
 26       0.000000000000
 27       0.000000000000
 28       0.000000000000
 29       0.000000000000
 30       0.000000000000
 31       0.000000000000
 32       0.000000000000
 33       0.000000000000
 34       0.000000000000
 35       0.000000000000
 36       0.000000000000
 37       0.000000000000
 38      -0.005600842151
 39       0.000000000000
 40       0.000000000000
 41      -1.089858075475
 42       0.000000000000
 43       0.000000000000
 44       1.372698071108
 45       0.000000000000
 46       0.000000000000
 47       0.000000000000
 48       0.000000000000
 49       0.000000000000
 50       0.000000000000
 51       0.000000000000
 52       0.000000000000
 53       0.000000000000
 54       0.000000000000
 55       0.000000000000
 56       0.000000000000
 57       0.000000000000
 58       0.000000000000
 59       0.000000000000
 60       0.000000000000
 61       0.000000000000
 62       0.000000000000
 63       0.000000000000
 64       0.000000000000
 65       0.000000000000
 66       0.000000000000
 67       0.000000000000
 68       0.000000000000
 69       0.000000000000
 70       0.000000000000
 71       0.000000000000
 72       0.000000000000
 73       0.000000000000
 74       0.000000000000
 Sym=     1a
 Ene=  6.27359178872413E-01
Spin= Alpha
 Occup= 0.268649
  1       0.000000000000
  2       0.000000000000
  3       0.000000000000
  4       0.000000000000
  5       0.000000000000
  6       0.000000000000
  7       0.000000000000
  8       0.000000000000
  9       0.000000000000
 10       0.000000000000
 11       0.000000000000
 12       0.000000000000
 13       0.000000000000
 14       0.000000000000
 15       0.000000000000
 16       0.000000000000
 17       0.000000000000
 18       0.000000000000
 19       0.000000000000
 20       0.000000000000
 21       0.000000000000
 22       0.000000000000
 23       0.000000000000
 24       0.000000000000
 25       0.000000000000
 26       0.000000000000
 27       0.000000000000
 28       0.000000000000
 29       0.000000000000
 30       0.000000000000
 31       0.000000000000
 32       0.000000000000
 33       0.000000000000
 34       0.000000000000
 35       0.000000000000
 36       0.000000000000
 37       0.000000000000
 38       0.000000000000
 39      -0.005600842151
 40       0.000000000000
 41       0.000000000000
 42      -1.089858075475
 43       0.000000000000
 44       0.000000000000
 45       1.372698071108
 46       0.000000000000
 47       0.000000000000
 48       0.000000000000
 49       0.000000000000
 50       0.000000000000
 51       0.000000000000
 52       0.000000000000
 53       0.000000000000
 54       0.000000000000
 55       0.000000000000
 56       0.000000000000
 57       0.000000000000
 58       0.000000000000
 59       0.000000000000
 60       0.000000000000
 61       0.000000000000
 62       0.000000000000
 63       0.000000000000
 64       0.000000000000
 65       0.000000000000
 66       0.000000000000
 67       0.000000000000
 68       0.000000000000
 69       0.000000000000
 70       0.000000000000
 71       0.000000000000
 72       0.000000000000
 73       0.000000000000
 74       0.000000000000
 Sym=     1a
 Ene= -6.76659941233605E-01
Spin= Alpha
 Occup= 1.784152
  1       0.000000000000
  2       0.000000000000
  3       0.000000000000
  4       0.000000000000
  5       0.000000000000
  6       0.000000000000
  7       0.000000000000
  8       0.000000000000
  9       0.000000000000
 10       0.000000000000
 11       0.000000000000
 12       0.000000000000
 13       0.000000000000
 14       0.000000000000
 15       0.000000000000
 16       0.000000000000
 17       0.000000000000
 18       0.000000000000
 19       0.000000000000
 20       0.000000000000
 21       0.000000000000
 22       0.000000000000
 23       0.000000000000
 24       0.000000000000
 25       0.000000000000
 26       0.000000000000
 27       0.000000000000
 28       0.000000000000
 29       0.000000000000
 30       0.000000000000
 31       0.000000000000
 32       0.000000000000
 33       0.000000000000
 34       0.000000000000
 35       0.000000000000
 36       0.000000000000
 37       0.410189615849
 38       0.000000000000
 39       0.000000000000
 40       0.458883502934
 41       0.000000000000
 42       0.000000000000
 43       0.336714496638
 44       0.000000000000
 45       0.000000000000
 46       0.000000000000
 47       0.000000000000
 48       0.000000000000
 49       0.000000000000
 50       0.000000000000
 51       0.000000000000
 52       0.000000000000
 53       0.000000000000
 54       0.000000000000
 55       0.000000000000
 56       0.000000000000
 57       0.000000000000
 58       0.000000000000
 59       0.000000000000
 60       0.000000000000
 61       0.000000000000
 62       0.000000000000
 63       0.000000000000
 64       0.000000000000
 65       0.000000000000
 66       0.000000000000
 67       0.000000000000
 68       0.000000000000
 69       0.000000000000
 70       0.000000000000
 71       0.000000000000
 72       0.000000000000
 73       0.000000000000
 74       0.000000000000
 Sym=     1a
 Ene= -4.24393629602770E-01
Spin= Alpha
 Occup= 1.784152
  1       0.000000000000
  2       0.000000000000
  3       0.000000000000
  4       0.000000000000
  5       0.000000000000
  6       0.000000000000
  7       0.000000000000
  8       0.000000000000
  9       0.000000000000
 10       0.000000000000
 11       0.000000000000
 12       0.000000000000
 13       0.000000000000
 14       0.000000000000
 15       0.000000000000
 16       0.000000000000
 17       0.000000000000
 18       0.000000000000
 19       0.000000000000
 20       0.000000000000
 21       0.000000000000
 22       0.000000000000
 23       0.000000000000
 24       0.000000000000
 25       0.000000000000
 26       0.000000000000
 27       0.000000000000
 28       0.000000000000
 29       0.000000000000
 30       0.000000000000
 31       0.000000000000
 32       0.000000000000
 33       0.000000000000
 34       0.000000000000
 35       0.000000000000
 36       0.000000000000
 37       0.000000000000
 38       0.410189615849
 39       0.000000000000
 40       0.000000000000
 41       0.458883502934
 42       0.000000000000
 43       0.000000000000
 44       0.336714496638
 45       0.000000000000
 46       0.000000000000
 47       0.000000000000
 48       0.000000000000
 49       0.000000000000
 50       0.000000000000
 51       0.000000000000
 52       0.000000000000
 53       0.000000000000
 54       0.000000000000
 55       0.000000000000
 56       0.000000000000
 57       0.000000000000
 58       0.000000000000
 59       0.000000000000
 60       0.000000000000
 61       0.000000000000
 62       0.000000000000
 63       0.000000000000
 64       0.000000000000
 65       0.000000000000
 66       0.000000000000
 67       0.000000000000
 68       0.000000000000
 69       0.000000000000
 70       0.000000000000
 71       0.000000000000
 72       0.000000000000
 73       0.000000000000
 74       0.000000000000
 Sym=     1a
 Ene= -3.74903285499430E-01
Spin= Alpha
 Occup= 1.784152
  1       0.000000000000
  2       0.000000000000
  3       0.000000000000
  4       0.000000000000
  5       0.000000000000
  6       0.000000000000
  7       0.000000000000
  8       0.000000000000
  9       0.000000000000
 10       0.000000000000
 11       0.000000000000
 12       0.000000000000
 13       0.000000000000
 14       0.000000000000
 15       0.000000000000
 16       0.000000000000
 17       0.000000000000
 18       0.000000000000
 19       0.000000000000
 20       0.000000000000
 21       0.000000000000
 22       0.000000000000
 23       0.000000000000
 24       0.000000000000
 25       0.000000000000
 26       0.000000000000
 27       0.000000000000
 28       0.000000000000
 29       0.000000000000
 30       0.000000000000
 31       0.000000000000
 32       0.000000000000
 33       0.000000000000
 34       0.000000000000
 35       0.000000000000
 36       0.000000000000
 37       0.000000000000
 38       0.000000000000
 39       0.410189615849
 40       0.000000000000
 41       0.000000000000
 42       0.458883502934
 43       0.000000000000
 44       0.000000000000
 45       0.336714496638
 46       0.000000000000
 47       0.000000000000
 48       0.000000000000
 49       0.000000000000
 50       0.000000000000
 51       0.000000000000
 52       0.000000000000
 53       0.000000000000
 54       0.000000000000
 55       0.000000000000
 56       0.000000000000
 57       0.000000000000
 58       0.000000000000
 59       0.000000000000
 60       0.000000000000
 61       0.000000000000
 62       0.000000000000
 63       0.000000000000
 64       0.000000000000
 65       0.000000000000
 66       0.000000000000
 67       0.000000000000
 68       0.000000000000
 69       0.000000000000
 70       0.000000000000
 71       0.000000000000
 72       0.000000000000
 73       0.000000000000
 74       0.000000000000
 Sym=     1a
 Ene=  5.85256072479682E+00
Spin= Alpha
 Occup= 0.001646
  1       0.000000000000
  2       0.000000000000
  3       0.000000000000
  4       0.000000000000
  5       0.000000000000
  6       0.000000000000
  7       0.000000000000
  8       0.000000000000
  9       0.000000000000
 10       0.000000000000
 11       0.000000000000
 12       0.000000000000
 13       0.000000000000
 14       0.000000000000
 15       0.000000000000
 16       0.000000000000
 17       0.000000000000
 18       0.000000000000
 19       0.000000000000
 20       0.000000000000
 21       0.000000000000
 22       0.000000000000
 23       0.000000000000
 24       0.000000000000
 25       0.000000000000
 26       0.000000000000
 27       0.000000000000
 28       0.000000000000
 29       0.000000000000
 30       0.000000000000
 31       0.000000000000
 32       0.000000000000
 33       0.000000000000
 34       0.000000000000
 35       0.000000000000
 36       0.000000000000
 37       0.000000000000
 38       0.000000000000
 39       0.000000000000
 40       0.000000000000
 41       0.000000000000
 42       0.000000000000
 43       0.000000000000
 44       0.000000000000
 45       0.000000000000
 46      -1.110850875555
 47       0.000000000000
 48       0.000000000000
 49       0.000000000000
 50       0.000000000000
 51       0.269964198667
 52       0.000000000000
 53       0.000000000000
 54       0.000000000000
 55       0.000000000000
 56       0.000000000000
 57       0.000000000000
 58       0.000000000000
 59       0.000000000000
 60       0.000000000000
 61       0.000000000000
 62       0.000000000000
 63       0.000000000000
 64       0.000000000000
 65       0.000000000000
 66       0.000000000000
 67       0.000000000000
 68       0.000000000000
 69       0.000000000000
 70       0.000000000000
 71       0.000000000000
 72       0.000000000000
 73       0.000000000000
 74       0.000000000000
 Sym=     1a
 Ene=  5.83827760552351E+00
Spin= Alpha
 Occup= 0.001646
  1       0.000000000000
  2       0.000000000000
  3       0.000000000000
  4       0.000000000000
  5       0.000000000000
  6       0.000000000000
  7       0.000000000000
  8       0.000000000000
  9       0.000000000000
 10       0.000000000000
 11       0.000000000000
 12       0.000000000000
 13       0.000000000000
 14       0.000000000000
 15       0.000000000000
 16       0.000000000000
 17       0.000000000000
 18       0.000000000000
 19       0.000000000000
 20       0.000000000000
 21       0.000000000000
 22       0.000000000000
 23       0.000000000000
 24       0.000000000000
 25       0.000000000000
 26       0.000000000000
 27       0.000000000000
 28       0.000000000000
 29       0.000000000000
 30       0.000000000000
 31       0.000000000000
 32       0.000000000000
 33       0.000000000000
 34       0.000000000000
 35       0.000000000000
 36       0.000000000000
 37       0.000000000000
 38       0.000000000000
 39       0.000000000000
 40       0.000000000000
 41       0.000000000000
 42       0.000000000000
 43       0.000000000000
 44       0.000000000000
 45       0.000000000000
 46       0.000000000000
 47      -1.110850875555
 48       0.000000000000
 49       0.000000000000
 50       0.000000000000
 51       0.000000000000
 52       0.269964198667
 53       0.000000000000
 54       0.000000000000
 55       0.000000000000
 56       0.000000000000
 57       0.000000000000
 58       0.000000000000
 59       0.000000000000
 60       0.000000000000
 61       0.000000000000
 62       0.000000000000
 63       0.000000000000
 64       0.000000000000
 65       0.000000000000
 66       0.000000000000
 67       0.000000000000
 68       0.000000000000
 69       0.000000000000
 70       0.000000000000
 71       0.000000000000
 72       0.000000000000
 73       0.000000000000
 74       0.000000000000
 Sym=     1a
 Ene=  5.88021573195558E+00
Spin= Alpha
 Occup= 0.001646
  1       0.000000000000
  2       0.000000000000
  3       0.000000000000
  4       0.000000000000
  5       0.000000000000
  6       0.000000000000
  7       0.000000000000
  8       0.000000000000
  9       0.000000000000
 10       0.000000000000
 11       0.000000000000
 12       0.000000000000
 13       0.000000000000
 14       0.000000000000
 15       0.000000000000
 16       0.000000000000
 17       0.000000000000
 18       0.000000000000
 19       0.000000000000
 20       0.000000000000
 21       0.000000000000
 22       0.000000000000
 23       0.000000000000
 24       0.000000000000
 25       0.000000000000
 26       0.000000000000
 27       0.000000000000
 28       0.000000000000
 29       0.000000000000
 30       0.000000000000
 31       0.000000000000
 32       0.000000000000
 33       0.000000000000
 34       0.000000000000
 35       0.000000000000
 36       0.000000000000
 37       0.000000000000
 38       0.000000000000
 39       0.000000000000
 40       0.000000000000
 41       0.000000000000
 42       0.000000000000
 43       0.000000000000
 44       0.000000000000
 45       0.000000000000
 46       0.000000000000
 47       0.000000000000
 48      -1.110850875555
 49       0.000000000000
 50       0.000000000000
 51       0.000000000000
 52       0.000000000000
 53       0.269964198667
 54       0.000000000000
 55       0.000000000000
 56       0.000000000000
 57       0.000000000000
 58       0.000000000000
 59       0.000000000000
 60       0.000000000000
 61       0.000000000000
 62       0.000000000000
 63       0.000000000000
 64       0.000000000000
 65       0.000000000000
 66       0.000000000000
 67       0.000000000000
 68       0.000000000000
 69       0.000000000000
 70       0.000000000000
 71       0.000000000000
 72       0.000000000000
 73       0.000000000000
 74       0.000000000000
 Sym=     1a
 Ene=  5.82956423008449E+00
Spin= Alpha
 Occup= 0.001646
  1       0.000000000000
  2       0.000000000000
  3       0.000000000000
  4       0.000000000000
  5       0.000000000000
  6       0.000000000000
  7       0.000000000000
  8       0.000000000000
  9       0.000000000000
 10       0.000000000000
 11       0.000000000000
 12       0.000000000000
 13       0.000000000000
 14       0.000000000000
 15       0.000000000000
 16       0.000000000000
 17       0.000000000000
 18       0.000000000000
 19       0.000000000000
 20       0.000000000000
 21       0.000000000000
 22       0.000000000000
 23       0.000000000000
 24       0.000000000000
 25       0.000000000000
 26       0.000000000000
 27       0.000000000000
 28       0.000000000000
 29       0.000000000000
 30       0.000000000000
 31       0.000000000000
 32       0.000000000000
 33       0.000000000000
 34       0.000000000000
 35       0.000000000000
 36       0.000000000000
 37       0.000000000000
 38       0.000000000000
 39       0.000000000000
 40       0.000000000000
 41       0.000000000000
 42       0.000000000000
 43       0.000000000000
 44       0.000000000000
 45       0.000000000000
 46       0.000000000000
 47       0.000000000000
 48       0.000000000000
 49      -1.110850875555
 50       0.000000000000
 51       0.000000000000
 52       0.000000000000
 53       0.000000000000
 54       0.269964198667
 55       0.000000000000
 56       0.000000000000
 57       0.000000000000
 58       0.000000000000
 59       0.000000000000
 60       0.000000000000
 61       0.000000000000
 62       0.000000000000
 63       0.000000000000
 64       0.000000000000
 65       0.000000000000
 66       0.000000000000
 67       0.000000000000
 68       0.000000000000
 69       0.000000000000
 70       0.000000000000
 71       0.000000000000
 72       0.000000000000
 73       0.000000000000
 74       0.000000000000
 Sym=     1a
 Ene=  5.85487813760227E+00
Spin= Alpha
 Occup= 0.001646
  1       0.000000000000
  2       0.000000000000
  3       0.000000000000
  4       0.000000000000
  5       0.000000000000
  6       0.000000000000
  7       0.000000000000
  8       0.000000000000
  9       0.000000000000
 10       0.000000000000
 11       0.000000000000
 12       0.000000000000
 13       0.000000000000
 14       0.000000000000
 15       0.000000000000
 16       0.000000000000
 17       0.000000000000
 18       0.000000000000
 19       0.000000000000
 20       0.000000000000
 21       0.000000000000
 22       0.000000000000
 23       0.000000000000
 24       0.000000000000
 25       0.000000000000
 26       0.000000000000
 27       0.000000000000
 28       0.000000000000
 29       0.000000000000
 30       0.000000000000
 31       0.000000000000
 32       0.000000000000
 33       0.000000000000
 34       0.000000000000
 35       0.000000000000
 36       0.000000000000
 37       0.000000000000
 38       0.000000000000
 39       0.000000000000
 40       0.000000000000
 41       0.000000000000
 42       0.000000000000
 43       0.000000000000
 44       0.000000000000
 45       0.000000000000
 46       0.000000000000
 47       0.000000000000
 48       0.000000000000
 49       0.000000000000
 50      -1.110850875555
 51       0.000000000000
 52       0.000000000000
 53       0.000000000000
 54       0.000000000000
 55       0.269964198667
 56       0.000000000000
 57       0.000000000000
 58       0.000000000000
 59       0.000000000000
 60       0.000000000000
 61       0.000000000000
 62       0.000000000000
 63       0.000000000000
 64       0.000000000000
 65       0.000000000000
 66       0.000000000000
 67       0.000000000000
 68       0.000000000000
 69       0.000000000000
 70       0.000000000000
 71       0.000000000000
 72       0.000000000000
 73       0.000000000000
 74       0.000000000000
 Sym=     1a
 Ene=  1.78976245344549E+00
Spin= Alpha
 Occup= 0.072068
  1       0.000000000000
  2       0.000000000000
  3       0.000000000000
  4       0.000000000000
  5       0.000000000000
  6       0.000000000000
  7       0.000000000000
  8       0.000000000000
  9       0.000000000000
 10       0.000000000000
 11       0.000000000000
 12       0.000000000000
 13       0.000000000000
 14       0.000000000000
 15       0.000000000000
 16       0.000000000000
 17       0.000000000000
 18       0.000000000000
 19       0.000000000000
 20       0.000000000000
 21       0.000000000000
 22       0.000000000000
 23       0.000000000000
 24       0.000000000000
 25       0.000000000000
 26       0.000000000000
 27       0.000000000000
 28       0.000000000000
 29       0.000000000000
 30       0.000000000000
 31       0.000000000000
 32       0.000000000000
 33       0.000000000000
 34       0.000000000000
 35       0.000000000000
 36       0.000000000000
 37       0.000000000000
 38       0.000000000000
 39       0.000000000000
 40       0.000000000000
 41       0.000000000000
 42       0.000000000000
 43       0.000000000000
 44       0.000000000000
 45       0.000000000000
 46      -0.347287269439
 47       0.000000000000
 48       0.000000000000
 49       0.000000000000
 50       0.000000000000
 51       1.132129606835
 52       0.000000000000
 53       0.000000000000
 54       0.000000000000
 55       0.000000000000
 56       0.000000000000
 57       0.000000000000
 58       0.000000000000
 59       0.000000000000
 60       0.000000000000
 61       0.000000000000
 62       0.000000000000
 63       0.000000000000
 64       0.000000000000
 65       0.000000000000
 66       0.000000000000
 67       0.000000000000
 68       0.000000000000
 69       0.000000000000
 70       0.000000000000
 71       0.000000000000
 72       0.000000000000
 73       0.000000000000
 74       0.000000000000
 Sym=     1a
 Ene=  1.76226314970243E+00
Spin= Alpha
 Occup= 0.072068
  1       0.000000000000
  2       0.000000000000
  3       0.000000000000
  4       0.000000000000
  5       0.000000000000
  6       0.000000000000
  7       0.000000000000
  8       0.000000000000
  9       0.000000000000
 10       0.000000000000
 11       0.000000000000
 12       0.000000000000
 13       0.000000000000
 14       0.000000000000
 15       0.000000000000
 16       0.000000000000
 17       0.000000000000
 18       0.000000000000
 19       0.000000000000
 20       0.000000000000
 21       0.000000000000
 22       0.000000000000
 23       0.000000000000
 24       0.000000000000
 25       0.000000000000
 26       0.000000000000
 27       0.000000000000
 28       0.000000000000
 29       0.000000000000
 30       0.000000000000
 31       0.000000000000
 32       0.000000000000
 33       0.000000000000
 34       0.000000000000
 35       0.000000000000
 36       0.000000000000
 37       0.000000000000
 38       0.000000000000
 39       0.000000000000
 40       0.000000000000
 41       0.000000000000
 42       0.000000000000
 43       0.000000000000
 44       0.000000000000
 45       0.000000000000
 46       0.000000000000
 47      -0.347287269439
 48       0.000000000000
 49       0.000000000000
 50       0.000000000000
 51       0.000000000000
 52       1.132129606835
 53       0.000000000000
 54       0.000000000000
 55       0.000000000000
 56       0.000000000000
 57       0.000000000000
 58       0.000000000000
 59       0.000000000000
 60       0.000000000000
 61       0.000000000000
 62       0.000000000000
 63       0.000000000000
 64       0.000000000000
 65       0.000000000000
 66       0.000000000000
 67       0.000000000000
 68       0.000000000000
 69       0.000000000000
 70       0.000000000000
 71       0.000000000000
 72       0.000000000000
 73       0.000000000000
 74       0.000000000000
 Sym=     1a
 Ene=  1.94295535030395E+00
Spin= Alpha
 Occup= 0.072068
  1       0.000000000000
  2       0.000000000000
  3       0.000000000000
  4       0.000000000000
  5       0.000000000000
  6       0.000000000000
  7       0.000000000000
  8       0.000000000000
  9       0.000000000000
 10       0.000000000000
 11       0.000000000000
 12       0.000000000000
 13       0.000000000000
 14       0.000000000000
 15       0.000000000000
 16       0.000000000000
 17       0.000000000000
 18       0.000000000000
 19       0.000000000000
 20       0.000000000000
 21       0.000000000000
 22       0.000000000000
 23       0.000000000000
 24       0.000000000000
 25       0.000000000000
 26       0.000000000000
 27       0.000000000000
 28       0.000000000000
 29       0.000000000000
 30       0.000000000000
 31       0.000000000000
 32       0.000000000000
 33       0.000000000000
 34       0.000000000000
 35       0.000000000000
 36       0.000000000000
 37       0.000000000000
 38       0.000000000000
 39       0.000000000000
 40       0.000000000000
 41       0.000000000000
 42       0.000000000000
 43       0.000000000000
 44       0.000000000000
 45       0.000000000000
 46       0.000000000000
 47       0.000000000000
 48      -0.347287269439
 49       0.000000000000
 50       0.000000000000
 51       0.000000000000
 52       0.000000000000
 53       1.132129606835
 54       0.000000000000
 55       0.000000000000
 56       0.000000000000
 57       0.000000000000
 58       0.000000000000
 59       0.000000000000
 60       0.000000000000
 61       0.000000000000
 62       0.000000000000
 63       0.000000000000
 64       0.000000000000
 65       0.000000000000
 66       0.000000000000
 67       0.000000000000
 68       0.000000000000
 69       0.000000000000
 70       0.000000000000
 71       0.000000000000
 72       0.000000000000
 73       0.000000000000
 74       0.000000000000
 Sym=     1a
 Ene=  1.50239245570172E+00
Spin= Alpha
 Occup= 0.072068
  1       0.000000000000
  2       0.000000000000
  3       0.000000000000
  4       0.000000000000
  5       0.000000000000
  6       0.000000000000
  7       0.000000000000
  8       0.000000000000
  9       0.000000000000
 10       0.000000000000
 11       0.000000000000
 12       0.000000000000
 13       0.000000000000
 14       0.000000000000
 15       0.000000000000
 16       0.000000000000
 17       0.000000000000
 18       0.000000000000
 19       0.000000000000
 20       0.000000000000
 21       0.000000000000
 22       0.000000000000
 23       0.000000000000
 24       0.000000000000
 25       0.000000000000
 26       0.000000000000
 27       0.000000000000
 28       0.000000000000
 29       0.000000000000
 30       0.000000000000
 31       0.000000000000
 32       0.000000000000
 33       0.000000000000
 34       0.000000000000
 35       0.000000000000
 36       0.000000000000
 37       0.000000000000
 38       0.000000000000
 39       0.000000000000
 40       0.000000000000
 41       0.000000000000
 42       0.000000000000
 43       0.000000000000
 44       0.000000000000
 45       0.000000000000
 46       0.000000000000
 47       0.000000000000
 48       0.000000000000
 49      -0.347287269439
 50       0.000000000000
 51       0.000000000000
 52       0.000000000000
 53       0.000000000000
 54       1.132129606835
 55       0.000000000000
 56       0.000000000000
 57       0.000000000000
 58       0.000000000000
 59       0.000000000000
 60       0.000000000000
 61       0.000000000000
 62       0.000000000000
 63       0.000000000000
 64       0.000000000000
 65       0.000000000000
 66       0.000000000000
 67       0.000000000000
 68       0.000000000000
 69       0.000000000000
 70       0.000000000000
 71       0.000000000000
 72       0.000000000000
 73       0.000000000000
 74       0.000000000000
 Sym=     1a
 Ene=  1.77372177830944E+00
Spin= Alpha
 Occup= 0.072068
  1       0.000000000000
  2       0.000000000000
  3       0.000000000000
  4       0.000000000000
  5       0.000000000000
  6       0.000000000000
  7       0.000000000000
  8       0.000000000000
  9       0.000000000000
 10       0.000000000000
 11       0.000000000000
 12       0.000000000000
 13       0.000000000000
 14       0.000000000000
 15       0.000000000000
 16       0.000000000000
 17       0.000000000000
 18       0.000000000000
 19       0.000000000000
 20       0.000000000000
 21       0.000000000000
 22       0.000000000000
 23       0.000000000000
 24       0.000000000000
 25       0.000000000000
 26       0.000000000000
 27       0.000000000000
 28       0.000000000000
 29       0.000000000000
 30       0.000000000000
 31       0.000000000000
 32       0.000000000000
 33       0.000000000000
 34       0.000000000000
 35       0.000000000000
 36       0.000000000000
 37       0.000000000000
 38       0.000000000000
 39       0.000000000000
 40       0.000000000000
 41       0.000000000000
 42       0.000000000000
 43       0.000000000000
 44       0.000000000000
 45       0.000000000000
 46       0.000000000000
 47       0.000000000000
 48       0.000000000000
 49       0.000000000000
 50      -0.347287269439
 51       0.000000000000
 52       0.000000000000
 53       0.000000000000
 54       0.000000000000
 55       1.132129606835
 56       0.000000000000
 57       0.000000000000
 58       0.000000000000
 59       0.000000000000
 60       0.000000000000
 61       0.000000000000
 62       0.000000000000
 63       0.000000000000
 64       0.000000000000
 65       0.000000000000
 66       0.000000000000
 67       0.000000000000
 68       0.000000000000
 69       0.000000000000
 70       0.000000000000
 71       0.000000000000
 72       0.000000000000
 73       0.000000000000
 74       0.000000000000
 Sym=     1a
 Ene=  5.15531994169832E+00
Spin= Alpha
 Occup= 0.004745
  1       0.000000000000
  2       0.000000000000
  3       0.000000000000
  4       0.000000000000
  5       0.000000000000
  6       0.000000000000
  7       0.000000000000
  8       0.000000000000
  9       0.000000000000
 10       0.000000000000
 11       0.000000000000
 12       0.000000000000
 13       0.000000000000
 14       0.000000000000
 15       0.000000000000
 16       0.000000000000
 17       0.000000000000
 18       0.000000000000
 19       0.000000000000
 20       0.000000000000
 21       0.000000000000
 22       0.000000000000
 23       0.000000000000
 24       0.000000000000
 25       0.000000000000
 26       0.000000000000
 27       0.000000000000
 28       0.000000000000
 29       0.000000000000
 30       0.000000000000
 31       0.000000000000
 32       0.000000000000
 33       0.000000000000
 34       0.000000000000
 35       0.000000000000
 36       0.000000000000
 37       0.000000000000
 38       0.000000000000
 39       0.000000000000
 40       0.000000000000
 41       0.000000000000
 42       0.000000000000
 43       0.000000000000
 44       0.000000000000
 45       0.000000000000
 46       0.000000000000
 47       0.000000000000
 48       0.000000000000
 49       0.000000000000
 50       0.000000000000
 51       0.000000000000
 52       0.000000000000
 53       0.000000000000
 54       0.000000000000
 55       0.000000000000
 56       1.000000000000
 57       0.000000000000
 58       0.000000000000
 59       0.000000000000
 60       0.000000000000
 61       0.000000000000
 62       0.000000000000
 63       0.000000000000
 64       0.000000000000
 65       0.000000000000
 66       0.000000000000
 67       0.000000000000
 68       0.000000000000
 69       0.000000000000
 70       0.000000000000
 71       0.000000000000
 72       0.000000000000
 73       0.000000000000
 74       0.000000000000
 Sym=     1a
 Ene=  5.08521708636572E+00
Spin= Alpha
 Occup= 0.004745
  1       0.000000000000
  2       0.000000000000
  3       0.000000000000
  4       0.000000000000
  5       0.000000000000
  6       0.000000000000
  7       0.000000000000
  8       0.000000000000
  9       0.000000000000
 10       0.000000000000
 11       0.000000000000
 12       0.000000000000
 13       0.000000000000
 14       0.000000000000
 15       0.000000000000
 16       0.000000000000
 17       0.000000000000
 18       0.000000000000
 19       0.000000000000
 20       0.000000000000
 21       0.000000000000
 22       0.000000000000
 23       0.000000000000
 24       0.000000000000
 25       0.000000000000
 26       0.000000000000
 27       0.000000000000
 28       0.000000000000
 29       0.000000000000
 30       0.000000000000
 31       0.000000000000
 32       0.000000000000
 33       0.000000000000
 34       0.000000000000
 35       0.000000000000
 36       0.000000000000
 37       0.000000000000
 38       0.000000000000
 39       0.000000000000
 40       0.000000000000
 41       0.000000000000
 42       0.000000000000
 43       0.000000000000
 44       0.000000000000
 45       0.000000000000
 46       0.000000000000
 47       0.000000000000
 48       0.000000000000
 49       0.000000000000
 50       0.000000000000
 51       0.000000000000
 52       0.000000000000
 53       0.000000000000
 54       0.000000000000
 55       0.000000000000
 56       0.000000000000
 57       1.000000000000
 58       0.000000000000
 59       0.000000000000
 60       0.000000000000
 61       0.000000000000
 62       0.000000000000
 63       0.000000000000
 64       0.000000000000
 65       0.000000000000
 66       0.000000000000
 67       0.000000000000
 68       0.000000000000
 69       0.000000000000
 70       0.000000000000
 71       0.000000000000
 72       0.000000000000
 73       0.000000000000
 74       0.000000000000
 Sym=     1a
 Ene=  5.20572671203417E+00
Spin= Alpha
 Occup= 0.004745
  1       0.000000000000
  2       0.000000000000
  3       0.000000000000
  4       0.000000000000
  5       0.000000000000
  6       0.000000000000
  7       0.000000000000
  8       0.000000000000
  9       0.000000000000
 10       0.000000000000
 11       0.000000000000
 12       0.000000000000
 13       0.000000000000
 14       0.000000000000
 15       0.000000000000
 16       0.000000000000
 17       0.000000000000
 18       0.000000000000
 19       0.000000000000
 20       0.000000000000
 21       0.000000000000
 22       0.000000000000
 23       0.000000000000
 24       0.000000000000
 25       0.000000000000
 26       0.000000000000
 27       0.000000000000
 28       0.000000000000
 29       0.000000000000
 30       0.000000000000
 31       0.000000000000
 32       0.000000000000
 33       0.000000000000
 34       0.000000000000
 35       0.000000000000
 36       0.000000000000
 37       0.000000000000
 38       0.000000000000
 39       0.000000000000
 40       0.000000000000
 41       0.000000000000
 42       0.000000000000
 43       0.000000000000
 44       0.000000000000
 45       0.000000000000
 46       0.000000000000
 47       0.000000000000
 48       0.000000000000
 49       0.000000000000
 50       0.000000000000
 51       0.000000000000
 52       0.000000000000
 53       0.000000000000
 54       0.000000000000
 55       0.000000000000
 56       0.000000000000
 57       0.000000000000
 58       1.000000000000
 59       0.000000000000
 60       0.000000000000
 61       0.000000000000
 62       0.000000000000
 63       0.000000000000
 64       0.000000000000
 65       0.000000000000
 66       0.000000000000
 67       0.000000000000
 68       0.000000000000
 69       0.000000000000
 70       0.000000000000
 71       0.000000000000
 72       0.000000000000
 73       0.000000000000
 74       0.000000000000
 Sym=     1a
 Ene=  5.12712074208820E+00
Spin= Alpha
 Occup= 0.004745
  1       0.000000000000
  2       0.000000000000
  3       0.000000000000
  4       0.000000000000
  5       0.000000000000
  6       0.000000000000
  7       0.000000000000
  8       0.000000000000
  9       0.000000000000
 10       0.000000000000
 11       0.000000000000
 12       0.000000000000
 13       0.000000000000
 14       0.000000000000
 15       0.000000000000
 16       0.000000000000
 17       0.000000000000
 18       0.000000000000
 19       0.000000000000
 20       0.000000000000
 21       0.000000000000
 22       0.000000000000
 23       0.000000000000
 24       0.000000000000
 25       0.000000000000
 26       0.000000000000
 27       0.000000000000
 28       0.000000000000
 29       0.000000000000
 30       0.000000000000
 31       0.000000000000
 32       0.000000000000
 33       0.000000000000
 34       0.000000000000
 35       0.000000000000
 36       0.000000000000
 37       0.000000000000
 38       0.000000000000
 39       0.000000000000
 40       0.000000000000
 41       0.000000000000
 42       0.000000000000
 43       0.000000000000
 44       0.000000000000
 45       0.000000000000
 46       0.000000000000
 47       0.000000000000
 48       0.000000000000
 49       0.000000000000
 50       0.000000000000
 51       0.000000000000
 52       0.000000000000
 53       0.000000000000
 54       0.000000000000
 55       0.000000000000
 56       0.000000000000
 57       0.000000000000
 58       0.000000000000
 59       1.000000000000
 60       0.000000000000
 61       0.000000000000
 62       0.000000000000
 63       0.000000000000
 64       0.000000000000
 65       0.000000000000
 66       0.000000000000
 67       0.000000000000
 68       0.000000000000
 69       0.000000000000
 70       0.000000000000
 71       0.000000000000
 72       0.000000000000
 73       0.000000000000
 74       0.000000000000
 Sym=     1a
 Ene=  5.15957705995176E+00
Spin= Alpha
 Occup= 0.004745
  1       0.000000000000
  2       0.000000000000
  3       0.000000000000
  4       0.000000000000
  5       0.000000000000
  6       0.000000000000
  7       0.000000000000
  8       0.000000000000
  9       0.000000000000
 10       0.000000000000
 11       0.000000000000
 12       0.000000000000
 13       0.000000000000
 14       0.000000000000
 15       0.000000000000
 16       0.000000000000
 17       0.000000000000
 18       0.000000000000
 19       0.000000000000
 20       0.000000000000
 21       0.000000000000
 22       0.000000000000
 23       0.000000000000
 24       0.000000000000
 25       0.000000000000
 26       0.000000000000
 27       0.000000000000
 28       0.000000000000
 29       0.000000000000
 30       0.000000000000
 31       0.000000000000
 32       0.000000000000
 33       0.000000000000
 34       0.000000000000
 35       0.000000000000
 36       0.000000000000
 37       0.000000000000
 38       0.000000000000
 39       0.000000000000
 40       0.000000000000
 41       0.000000000000
 42       0.000000000000
 43       0.000000000000
 44       0.000000000000
 45       0.000000000000
 46       0.000000000000
 47       0.000000000000
 48       0.000000000000
 49       0.000000000000
 50       0.000000000000
 51       0.000000000000
 52       0.000000000000
 53       0.000000000000
 54       0.000000000000
 55       0.000000000000
 56       0.000000000000
 57       0.000000000000
 58       0.000000000000
 59       0.000000000000
 60       1.000000000000
 61       0.000000000000
 62       0.000000000000
 63       0.000000000000
 64       0.000000000000
 65       0.000000000000
 66       0.000000000000
 67       0.000000000000
 68       0.000000000000
 69       0.000000000000
 70       0.000000000000
 71       0.000000000000
 72       0.000000000000
 73       0.000000000000
 74       0.000000000000
 Sym=     1a
 Ene=  5.06490290628203E+00
Spin= Alpha
 Occup= 0.004745
  1       0.000000000000
  2       0.000000000000
  3       0.000000000000
  4       0.000000000000
  5       0.000000000000
  6       0.000000000000
  7       0.000000000000
  8       0.000000000000
  9       0.000000000000
 10       0.000000000000
 11       0.000000000000
 12       0.000000000000
 13       0.000000000000
 14       0.000000000000
 15       0.000000000000
 16       0.000000000000
 17       0.000000000000
 18       0.000000000000
 19       0.000000000000
 20       0.000000000000
 21       0.000000000000
 22       0.000000000000
 23       0.000000000000
 24       0.000000000000
 25       0.000000000000
 26       0.000000000000
 27       0.000000000000
 28       0.000000000000
 29       0.000000000000
 30       0.000000000000
 31       0.000000000000
 32       0.000000000000
 33       0.000000000000
 34       0.000000000000
 35       0.000000000000
 36       0.000000000000
 37       0.000000000000
 38       0.000000000000
 39       0.000000000000
 40       0.000000000000
 41       0.000000000000
 42       0.000000000000
 43       0.000000000000
 44       0.000000000000
 45       0.000000000000
 46       0.000000000000
 47       0.000000000000
 48       0.000000000000
 49       0.000000000000
 50       0.000000000000
 51       0.000000000000
 52       0.000000000000
 53       0.000000000000
 54       0.000000000000
 55       0.000000000000
 56       0.000000000000
 57       0.000000000000
 58       0.000000000000
 59       0.000000000000
 60       0.000000000000
 61       1.000000000000
 62       0.000000000000
 63       0.000000000000
 64       0.000000000000
 65       0.000000000000
 66       0.000000000000
 67       0.000000000000
 68       0.000000000000
 69       0.000000000000
 70       0.000000000000
 71       0.000000000000
 72       0.000000000000
 73       0.000000000000
 74       0.000000000000
 Sym=     1a
 Ene=  5.09416683862364E+00
Spin= Alpha
 Occup= 0.004745
  1       0.000000000000
  2       0.000000000000
  3       0.000000000000
  4       0.000000000000
  5       0.000000000000
  6       0.000000000000
  7       0.000000000000
  8       0.000000000000
  9       0.000000000000
 10       0.000000000000
 11       0.000000000000
 12       0.000000000000
 13       0.000000000000
 14       0.000000000000
 15       0.000000000000
 16       0.000000000000
 17       0.000000000000
 18       0.000000000000
 19       0.000000000000
 20       0.000000000000
 21       0.000000000000
 22       0.000000000000
 23       0.000000000000
 24       0.000000000000
 25       0.000000000000
 26       0.000000000000
 27       0.000000000000
 28       0.000000000000
 29       0.000000000000
 30       0.000000000000
 31       0.000000000000
 32       0.000000000000
 33       0.000000000000
 34       0.000000000000
 35       0.000000000000
 36       0.000000000000
 37       0.000000000000
 38       0.000000000000
 39       0.000000000000
 40       0.000000000000
 41       0.000000000000
 42       0.000000000000
 43       0.000000000000
 44       0.000000000000
 45       0.000000000000
 46       0.000000000000
 47       0.000000000000
 48       0.000000000000
 49       0.000000000000
 50       0.000000000000
 51       0.000000000000
 52       0.000000000000
 53       0.000000000000
 54       0.000000000000
 55       0.000000000000
 56       0.000000000000
 57       0.000000000000
 58       0.000000000000
 59       0.000000000000
 60       0.000000000000
 61       0.000000000000
 62       1.000000000000
 63       0.000000000000
 64       0.000000000000
 65       0.000000000000
 66       0.000000000000
 67       0.000000000000
 68       0.000000000000
 69       0.000000000000
 70       0.000000000000
 71       0.000000000000
 72       0.000000000000
 73       0.000000000000
 74       0.000000000000
 Sym=     1a
 Ene=  2.14942908460672E+00
Spin= Alpha
 Occup= 0.018794
  1       0.000000000000
  2       0.000000000000
  3       0.000000000000
  4       0.000000000000
  5       0.000000000000
  6       0.000000000000
  7       0.000000000000
  8       0.000000000000
  9       0.000000000000
 10       0.000000000000
 11       0.000000000000
 12       0.000000000000
 13       0.000000000000
 14       0.000000000000
 15       0.000000000000
 16       0.000000000000
 17       0.000000000000
 18       0.000000000000
 19       0.000000000000
 20       0.000000000000
 21       0.000000000000
 22       0.000000000000
 23       0.000000000000
 24       0.000000000000
 25       0.000000000000
 26       0.000000000000
 27       0.000000000000
 28       0.000000000000
 29       0.000000000000
 30       0.000000000000
 31       0.000000000000
 32       0.000000000000
 33       0.000000000000
 34       0.000000000000
 35       0.000000000000
 36       0.000000000000
 37       0.000000000000
 38       0.000000000000
 39       0.000000000000
 40       0.000000000000
 41       0.000000000000
 42       0.000000000000
 43       0.000000000000
 44       0.000000000000
 45       0.000000000000
 46       0.000000000000
 47       0.000000000000
 48       0.000000000000
 49       0.000000000000
 50       0.000000000000
 51       0.000000000000
 52       0.000000000000
 53       0.000000000000
 54       0.000000000000
 55       0.000000000000
 56       0.000000000000
 57       0.000000000000
 58       0.000000000000
 59       0.000000000000
 60       0.000000000000
 61       0.000000000000
 62       0.000000000000
 63      -1.551795356687
 64       1.684403562720
 65      -0.660861003048
 66       0.000000000000
 67       0.000000000000
 68       0.000000000000
 69       0.000000000000
 70       0.000000000000
 71       0.000000000000
 72       0.000000000000
 73       0.000000000000
 74       0.000000000000
 Sym=     1a
 Ene=  1.06652332858185E-01
Spin= Alpha
 Occup= 0.347201
  1       0.000000000000
  2       0.000000000000
  3       0.000000000000
  4       0.000000000000
  5       0.000000000000
  6       0.000000000000
  7       0.000000000000
  8       0.000000000000
  9       0.000000000000
 10       0.000000000000
 11       0.000000000000
 12       0.000000000000
 13       0.000000000000
 14       0.000000000000
 15       0.000000000000
 16       0.000000000000
 17       0.000000000000
 18       0.000000000000
 19       0.000000000000
 20       0.000000000000
 21       0.000000000000
 22       0.000000000000
 23       0.000000000000
 24       0.000000000000
 25       0.000000000000
 26       0.000000000000
 27       0.000000000000
 28       0.000000000000
 29       0.000000000000
 30       0.000000000000
 31       0.000000000000
 32       0.000000000000
 33       0.000000000000
 34       0.000000000000
 35       0.000000000000
 36       0.000000000000
 37       0.000000000000
 38       0.000000000000
 39       0.000000000000
 40       0.000000000000
 41       0.000000000000
 42       0.000000000000
 43       0.000000000000
 44       0.000000000000
 45       0.000000000000
 46       0.000000000000
 47       0.000000000000
 48       0.000000000000
 49       0.000000000000
 50       0.000000000000
 51       0.000000000000
 52       0.000000000000
 53       0.000000000000
 54       0.000000000000
 55       0.000000000000
 56       0.000000000000
 57       0.000000000000
 58       0.000000000000
 59       0.000000000000
 60       0.000000000000
 61       0.000000000000
 62       0.000000000000
 63       0.086427161961
 64      -1.401778909648
 65       1.665283122209
 66       0.000000000000
 67       0.000000000000
 68       0.000000000000
 69       0.000000000000
 70       0.000000000000
 71       0.000000000000
 72       0.000000000000
 73       0.000000000000
 74       0.000000000000
 Sym=     1a
 Ene= -5.22547759967696E-01
Spin= Alpha
 Occup= 1.645130
  1       0.000000000000
  2       0.000000000000
  3       0.000000000000
  4       0.000000000000
  5       0.000000000000
  6       0.000000000000
  7       0.000000000000
  8       0.000000000000
  9       0.000000000000
 10       0.000000000000
 11       0.000000000000
 12       0.000000000000
 13       0.000000000000
 14       0.000000000000
 15       0.000000000000
 16       0.000000000000
 17       0.000000000000
 18       0.000000000000
 19       0.000000000000
 20       0.000000000000
 21       0.000000000000
 22       0.000000000000
 23       0.000000000000
 24       0.000000000000
 25       0.000000000000
 26       0.000000000000
 27       0.000000000000
 28       0.000000000000
 29       0.000000000000
 30       0.000000000000
 31       0.000000000000
 32       0.000000000000
 33       0.000000000000
 34       0.000000000000
 35       0.000000000000
 36       0.000000000000
 37       0.000000000000
 38       0.000000000000
 39       0.000000000000
 40       0.000000000000
 41       0.000000000000
 42       0.000000000000
 43       0.000000000000
 44       0.000000000000
 45       0.000000000000
 46       0.000000000000
 47       0.000000000000
 48       0.000000000000
 49       0.000000000000
 50       0.000000000000
 51       0.000000000000
 52       0.000000000000
 53       0.000000000000
 54       0.000000000000
 55       0.000000000000
 56       0.000000000000
 57       0.000000000000
 58       0.000000000000
 59       0.000000000000
 60       0.000000000000
 61       0.000000000000
 62       0.000000000000
 63       0.107119267659
 64       0.850409502693
 65       0.090402968648
 66       0.000000000000
 67       0.000000000000
 68       0.000000000000
 69       0.000000000000
 70       0.000000000000
 71       0.000000000000
 72       0.000000000000
 73       0.000000000000
 74       0.000000000000
 Sym=     1a
 Ene=  1.29917654948307E+00
Spin= Alpha
 Occup= 0.098399
  1       0.000000000000
  2       0.000000000000
  3       0.000000000000
  4       0.000000000000
  5       0.000000000000
  6       0.000000000000
  7       0.000000000000
  8       0.000000000000
  9       0.000000000000
 10       0.000000000000
 11       0.000000000000
 12       0.000000000000
 13       0.000000000000
 14       0.000000000000
 15       0.000000000000
 16       0.000000000000
 17       0.000000000000
 18       0.000000000000
 19       0.000000000000
 20       0.000000000000
 21       0.000000000000
 22       0.000000000000
 23       0.000000000000
 24       0.000000000000
 25       0.000000000000
 26       0.000000000000
 27       0.000000000000
 28       0.000000000000
 29       0.000000000000
 30       0.000000000000
 31       0.000000000000
 32       0.000000000000
 33       0.000000000000
 34       0.000000000000
 35       0.000000000000
 36       0.000000000000
 37       0.000000000000
 38       0.000000000000
 39       0.000000000000
 40       0.000000000000
 41       0.000000000000
 42       0.000000000000
 43       0.000000000000
 44       0.000000000000
 45       0.000000000000
 46       0.000000000000
 47       0.000000000000
 48       0.000000000000
 49       0.000000000000
 50       0.000000000000
 51       0.000000000000
 52       0.000000000000
 53       0.000000000000
 54       0.000000000000
 55       0.000000000000
 56       0.000000000000
 57       0.000000000000
 58       0.000000000000
 59       0.000000000000
 60       0.000000000000
 61       0.000000000000
 62       0.000000000000
 63       0.000000000000
 64       0.000000000000
 65       0.000000000000
 66       1.000000000000
 67       0.000000000000
 68       0.000000000000
 69       0.000000000000
 70       0.000000000000
 71       0.000000000000
 72       0.000000000000
 73       0.000000000000
 74       0.000000000000
 Sym=     1a
 Ene=  1.15187819261672E+00
Spin= Alpha
 Occup= 0.098399
  1       0.000000000000
  2       0.000000000000
  3       0.000000000000
  4       0.000000000000
  5       0.000000000000
  6       0.000000000000
  7       0.000000000000
  8       0.000000000000
  9       0.000000000000
 10       0.000000000000
 11       0.000000000000
 12       0.000000000000
 13       0.000000000000
 14       0.000000000000
 15       0.000000000000
 16       0.000000000000
 17       0.000000000000
 18       0.000000000000
 19       0.000000000000
 20       0.000000000000
 21       0.000000000000
 22       0.000000000000
 23       0.000000000000
 24       0.000000000000
 25       0.000000000000
 26       0.000000000000
 27       0.000000000000
 28       0.000000000000
 29       0.000000000000
 30       0.000000000000
 31       0.000000000000
 32       0.000000000000
 33       0.000000000000
 34       0.000000000000
 35       0.000000000000
 36       0.000000000000
 37       0.000000000000
 38       0.000000000000
 39       0.000000000000
 40       0.000000000000
 41       0.000000000000
 42       0.000000000000
 43       0.000000000000
 44       0.000000000000
 45       0.000000000000
 46       0.000000000000
 47       0.000000000000
 48       0.000000000000
 49       0.000000000000
 50       0.000000000000
 51       0.000000000000
 52       0.000000000000
 53       0.000000000000
 54       0.000000000000
 55       0.000000000000
 56       0.000000000000
 57       0.000000000000
 58       0.000000000000
 59       0.000000000000
 60       0.000000000000
 61       0.000000000000
 62       0.000000000000
 63       0.000000000000
 64       0.000000000000
 65       0.000000000000
 66       0.000000000000
 67       1.000000000000
 68       0.000000000000
 69       0.000000000000
 70       0.000000000000
 71       0.000000000000
 72       0.000000000000
 73       0.000000000000
 74       0.000000000000
 Sym=     1a
 Ene=  1.38855767634405E+00
Spin= Alpha
 Occup= 0.098399
  1       0.000000000000
  2       0.000000000000
  3       0.000000000000
  4       0.000000000000
  5       0.000000000000
  6       0.000000000000
  7       0.000000000000
  8       0.000000000000
  9       0.000000000000
 10       0.000000000000
 11       0.000000000000
 12       0.000000000000
 13       0.000000000000
 14       0.000000000000
 15       0.000000000000
 16       0.000000000000
 17       0.000000000000
 18       0.000000000000
 19       0.000000000000
 20       0.000000000000
 21       0.000000000000
 22       0.000000000000
 23       0.000000000000
 24       0.000000000000
 25       0.000000000000
 26       0.000000000000
 27       0.000000000000
 28       0.000000000000
 29       0.000000000000
 30       0.000000000000
 31       0.000000000000
 32       0.000000000000
 33       0.000000000000
 34       0.000000000000
 35       0.000000000000
 36       0.000000000000
 37       0.000000000000
 38       0.000000000000
 39       0.000000000000
 40       0.000000000000
 41       0.000000000000
 42       0.000000000000
 43       0.000000000000
 44       0.000000000000
 45       0.000000000000
 46       0.000000000000
 47       0.000000000000
 48       0.000000000000
 49       0.000000000000
 50       0.000000000000
 51       0.000000000000
 52       0.000000000000
 53       0.000000000000
 54       0.000000000000
 55       0.000000000000
 56       0.000000000000
 57       0.000000000000
 58       0.000000000000
 59       0.000000000000
 60       0.000000000000
 61       0.000000000000
 62       0.000000000000
 63       0.000000000000
 64       0.000000000000
 65       0.000000000000
 66       0.000000000000
 67       0.000000000000
 68       1.000000000000
 69       0.000000000000
 70       0.000000000000
 71       0.000000000000
 72       0.000000000000
 73       0.000000000000
 74       0.000000000000
 Sym=     1a
 Ene=  2.14942905743484E+00
Spin= Alpha
 Occup= 0.018794
  1       0.000000000000
  2       0.000000000000
  3       0.000000000000
  4       0.000000000000
  5       0.000000000000
  6       0.000000000000
  7       0.000000000000
  8       0.000000000000
  9       0.000000000000
 10       0.000000000000
 11       0.000000000000
 12       0.000000000000
 13       0.000000000000
 14       0.000000000000
 15       0.000000000000
 16       0.000000000000
 17       0.000000000000
 18       0.000000000000
 19       0.000000000000
 20       0.000000000000
 21       0.000000000000
 22       0.000000000000
 23       0.000000000000
 24       0.000000000000
 25       0.000000000000
 26       0.000000000000
 27       0.000000000000
 28       0.000000000000
 29       0.000000000000
 30       0.000000000000
 31       0.000000000000
 32       0.000000000000
 33       0.000000000000
 34       0.000000000000
 35       0.000000000000
 36       0.000000000000
 37       0.000000000000
 38       0.000000000000
 39       0.000000000000
 40       0.000000000000
 41       0.000000000000
 42       0.000000000000
 43       0.000000000000
 44       0.000000000000
 45       0.000000000000
 46       0.000000000000
 47       0.000000000000
 48       0.000000000000
 49       0.000000000000
 50       0.000000000000
 51       0.000000000000
 52       0.000000000000
 53       0.000000000000
 54       0.000000000000
 55       0.000000000000
 56       0.000000000000
 57       0.000000000000
 58       0.000000000000
 59       0.000000000000
 60       0.000000000000
 61       0.000000000000
 62       0.000000000000
 63       0.000000000000
 64       0.000000000000
 65       0.000000000000
 66       0.000000000000
 67       0.000000000000
 68       0.000000000000
 69      -1.551795354961
 70       1.684403571850
 71      -0.660860998107
 72       0.000000000000
 73       0.000000000000
 74       0.000000000000
 Sym=     1a
 Ene=  1.06652316964810E-01
Spin= Alpha
 Occup= 0.347201
  1       0.000000000000
  2       0.000000000000
  3       0.000000000000
  4       0.000000000000
  5       0.000000000000
  6       0.000000000000
  7       0.000000000000
  8       0.000000000000
  9       0.000000000000
 10       0.000000000000
 11       0.000000000000
 12       0.000000000000
 13       0.000000000000
 14       0.000000000000
 15       0.000000000000
 16       0.000000000000
 17       0.000000000000
 18       0.000000000000
 19       0.000000000000
 20       0.000000000000
 21       0.000000000000
 22       0.000000000000
 23       0.000000000000
 24       0.000000000000
 25       0.000000000000
 26       0.000000000000
 27       0.000000000000
 28       0.000000000000
 29       0.000000000000
 30       0.000000000000
 31       0.000000000000
 32       0.000000000000
 33       0.000000000000
 34       0.000000000000
 35       0.000000000000
 36       0.000000000000
 37       0.000000000000
 38       0.000000000000
 39       0.000000000000
 40       0.000000000000
 41       0.000000000000
 42       0.000000000000
 43       0.000000000000
 44       0.000000000000
 45       0.000000000000
 46       0.000000000000
 47       0.000000000000
 48       0.000000000000
 49       0.000000000000
 50       0.000000000000
 51       0.000000000000
 52       0.000000000000
 53       0.000000000000
 54       0.000000000000
 55       0.000000000000
 56       0.000000000000
 57       0.000000000000
 58       0.000000000000
 59       0.000000000000
 60       0.000000000000
 61       0.000000000000
 62       0.000000000000
 63       0.000000000000
 64       0.000000000000
 65       0.000000000000
 66       0.000000000000
 67       0.000000000000
 68       0.000000000000
 69       0.086427166241
 70      -1.401778906314
 71       1.665283124402
 72       0.000000000000
 73       0.000000000000
 74       0.000000000000
 Sym=     1a
 Ene= -5.22547794972637E-01
Spin= Alpha
 Occup= 1.645130
  1       0.000000000000
  2       0.000000000000
  3       0.000000000000
  4       0.000000000000
  5       0.000000000000
  6       0.000000000000
  7       0.000000000000
  8       0.000000000000
  9       0.000000000000
 10       0.000000000000
 11       0.000000000000
 12       0.000000000000
 13       0.000000000000
 14       0.000000000000
 15       0.000000000000
 16       0.000000000000
 17       0.000000000000
 18       0.000000000000
 19       0.000000000000
 20       0.000000000000
 21       0.000000000000
 22       0.000000000000
 23       0.000000000000
 24       0.000000000000
 25       0.000000000000
 26       0.000000000000
 27       0.000000000000
 28       0.000000000000
 29       0.000000000000
 30       0.000000000000
 31       0.000000000000
 32       0.000000000000
 33       0.000000000000
 34       0.000000000000
 35       0.000000000000
 36       0.000000000000
 37       0.000000000000
 38       0.000000000000
 39       0.000000000000
 40       0.000000000000
 41       0.000000000000
 42       0.000000000000
 43       0.000000000000
 44       0.000000000000
 45       0.000000000000
 46       0.000000000000
 47       0.000000000000
 48       0.000000000000
 49       0.000000000000
 50       0.000000000000
 51       0.000000000000
 52       0.000000000000
 53       0.000000000000
 54       0.000000000000
 55       0.000000000000
 56       0.000000000000
 57       0.000000000000
 58       0.000000000000
 59       0.000000000000
 60       0.000000000000
 61       0.000000000000
 62       0.000000000000
 63       0.000000000000
 64       0.000000000000
 65       0.000000000000
 66       0.000000000000
 67       0.000000000000
 68       0.000000000000
 69       0.107119289204
 70       0.850409490103
 71       0.090402964383
 72       0.000000000000
 73       0.000000000000
 74       0.000000000000
 Sym=     1a
 Ene=  1.29917652747447E+00
Spin= Alpha
 Occup= 0.098399
  1       0.000000000000
  2       0.000000000000
  3       0.000000000000
  4       0.000000000000
  5       0.000000000000
  6       0.000000000000
  7       0.000000000000
  8       0.000000000000
  9       0.000000000000
 10       0.000000000000
 11       0.000000000000
 12       0.000000000000
 13       0.000000000000
 14       0.000000000000
 15       0.000000000000
 16       0.000000000000
 17       0.000000000000
 18       0.000000000000
 19       0.000000000000
 20       0.000000000000
 21       0.000000000000
 22       0.000000000000
 23       0.000000000000
 24       0.000000000000
 25       0.000000000000
 26       0.000000000000
 27       0.000000000000
 28       0.000000000000
 29       0.000000000000
 30       0.000000000000
 31       0.000000000000
 32       0.000000000000
 33       0.000000000000
 34       0.000000000000
 35       0.000000000000
 36       0.000000000000
 37       0.000000000000
 38       0.000000000000
 39       0.000000000000
 40       0.000000000000
 41       0.000000000000
 42       0.000000000000
 43       0.000000000000
 44       0.000000000000
 45       0.000000000000
 46       0.000000000000
 47       0.000000000000
 48       0.000000000000
 49       0.000000000000
 50       0.000000000000
 51       0.000000000000
 52       0.000000000000
 53       0.000000000000
 54       0.000000000000
 55       0.000000000000
 56       0.000000000000
 57       0.000000000000
 58       0.000000000000
 59       0.000000000000
 60       0.000000000000
 61       0.000000000000
 62       0.000000000000
 63       0.000000000000
 64       0.000000000000
 65       0.000000000000
 66       0.000000000000
 67       0.000000000000
 68       0.000000000000
 69       0.000000000000
 70       0.000000000000
 71       0.000000000000
 72       1.000000000000
 73       0.000000000000
 74       0.000000000000
 Sym=     1a
 Ene=  1.15187812176556E+00
Spin= Alpha
 Occup= 0.098399
  1       0.000000000000
  2       0.000000000000
  3       0.000000000000
  4       0.000000000000
  5       0.000000000000
  6       0.000000000000
  7       0.000000000000
  8       0.000000000000
  9       0.000000000000
 10       0.000000000000
 11       0.000000000000
 12       0.000000000000
 13       0.000000000000
 14       0.000000000000
 15       0.000000000000
 16       0.000000000000
 17       0.000000000000
 18       0.000000000000
 19       0.000000000000
 20       0.000000000000
 21       0.000000000000
 22       0.000000000000
 23       0.000000000000
 24       0.000000000000
 25       0.000000000000
 26       0.000000000000
 27       0.000000000000
 28       0.000000000000
 29       0.000000000000
 30       0.000000000000
 31       0.000000000000
 32       0.000000000000
 33       0.000000000000
 34       0.000000000000
 35       0.000000000000
 36       0.000000000000
 37       0.000000000000
 38       0.000000000000
 39       0.000000000000
 40       0.000000000000
 41       0.000000000000
 42       0.000000000000
 43       0.000000000000
 44       0.000000000000
 45       0.000000000000
 46       0.000000000000
 47       0.000000000000
 48       0.000000000000
 49       0.000000000000
 50       0.000000000000
 51       0.000000000000
 52       0.000000000000
 53       0.000000000000
 54       0.000000000000
 55       0.000000000000
 56       0.000000000000
 57       0.000000000000
 58       0.000000000000
 59       0.000000000000
 60       0.000000000000
 61       0.000000000000
 62       0.000000000000
 63       0.000000000000
 64       0.000000000000
 65       0.000000000000
 66       0.000000000000
 67       0.000000000000
 68       0.000000000000
 69       0.000000000000
 70       0.000000000000
 71       0.000000000000
 72       0.000000000000
 73       1.000000000000
 74       0.000000000000
 Sym=     1a
 Ene=  1.38855765386794E+00
Spin= Alpha
 Occup= 0.098399
  1       0.000000000000
  2       0.000000000000
  3       0.000000000000
  4       0.000000000000
  5       0.000000000000
  6       0.000000000000
  7       0.000000000000
  8       0.000000000000
  9       0.000000000000
 10       0.000000000000
 11       0.000000000000
 12       0.000000000000
 13       0.000000000000
 14       0.000000000000
 15       0.000000000000
 16       0.000000000000
 17       0.000000000000
 18       0.000000000000
 19       0.000000000000
 20       0.000000000000
 21       0.000000000000
 22       0.000000000000
 23       0.000000000000
 24       0.000000000000
 25       0.000000000000
 26       0.000000000000
 27       0.000000000000
 28       0.000000000000
 29       0.000000000000
 30       0.000000000000
 31       0.000000000000
 32       0.000000000000
 33       0.000000000000
 34       0.000000000000
 35       0.000000000000
 36       0.000000000000
 37       0.000000000000
 38       0.000000000000
 39       0.000000000000
 40       0.000000000000
 41       0.000000000000
 42       0.000000000000
 43       0.000000000000
 44       0.000000000000
 45       0.000000000000
 46       0.000000000000
 47       0.000000000000
 48       0.000000000000
 49       0.000000000000
 50       0.000000000000
 51       0.000000000000
 52       0.000000000000
 53       0.000000000000
 54       0.000000000000
 55       0.000000000000
 56       0.000000000000
 57       0.000000000000
 58       0.000000000000
 59       0.000000000000
 60       0.000000000000
 61       0.000000000000
 62       0.000000000000
 63       0.000000000000
 64       0.000000000000
 65       0.000000000000
 66       0.000000000000
 67       0.000000000000
 68       0.000000000000
 69       0.000000000000
 70       0.000000000000
 71       0.000000000000
 72       0.000000000000
 73       0.000000000000
 74       1.000000000000
