[Molden Format]
[Title]
AHOs

[Atoms] AU
C    1   6          1.0987909774         0.0000000195         0.0013856064 
O    2   8         -1.1610484666        -0.0000000768        -0.0005317799 
H    3   1          2.2054476983         1.7750124409         0.0023131898 
H    4   1          2.2054475694        -1.7750123836         0.0023131896 
[GTO]
  1 0 
s   6 1.0  
    13575.3496820000         0.0006064549 
     2035.2333680000         0.0046979088 
      463.2256235900         0.0243324776 
      131.2001959800         0.0973999683 
       42.8530158910         0.3019558425 
       15.5841857660         0.6623360915 
s   2 1.0  
        6.2067138508         0.6559530853 
        2.5764896527         0.3758563329 
s   1 1.0  
        0.5769633942         1.0000000000 
s   1 1.0  
        0.2297283136         1.0000000000 
s   1 1.0  
        0.0951644400         1.0000000003 
p   4 1.0  
       34.6972322440         0.0113272200 
        7.9582622826         0.0761696592 
        2.3780826883         0.3019225220 
        0.8143320818         0.7278502735 
p   1 1.0  
        0.2888754725         0.9999999999 
p   1 1.0  
        0.1005682367         0.9999999995 
d   1 1.0  
        1.0970000000         1.0000000000 
d   1 1.0  
        0.3180000000         1.0000000000 
f   1 1.0  
        0.7610000000         1.0000000000 

  2 0 
s   6 1.0  
    27032.3826310000         0.0005722733 
     4052.3871392000         0.0044353233 
      922.3272271000         0.0230201076 
      261.2407098900         0.0928224906 
       85.3546413510         0.2937850002 
       31.0350352450         0.6740160450 
s   2 1.0  
       12.2608607280         0.6383993703 
        4.9987076005         0.3953458713 
s   1 1.0  
        1.1703108158         1.0000000000 
s   1 1.0  
        0.4647474099         1.0000000000 
s   1 1.0  
        0.1850453636         0.9999999999 
p   4 1.0  
       63.2749548010         0.0120183321 
       14.6270493790         0.0830054217 
        4.4501223456         0.3199174393 
        1.5275799647         0.7071554292 
p   1 1.0  
        0.5293511794         1.0000000000 
p   1 1.0  
        0.1747842127         1.0000000000 
d   1 1.0  
        2.3140000000         1.0000000000 
d   1 1.0  
        0.6450000000         1.0000000000 
f   1 1.0  
        1.4280000000         1.0000000000 

  3 0 
s   3 1.0  
       34.0613410000         0.0254393072 
        5.1235746000         0.1900859489 
        1.1646626000         0.8524411301 
s   1 1.0  
        0.3272304100         1.0000000002 
s   1 1.0  
        0.1030724100         1.0000000001 
p   1 1.0  
        0.8000000000         1.0000000000 

  4 0 
s   3 1.0  
       34.0613410000         0.0254393072 
        5.1235746000         0.1900859489 
        1.1646626000         0.8524411301 
s   1 1.0  
        0.3272304100         1.0000000002 
s   1 1.0  
        0.1030724100         1.0000000001 
p   1 1.0  
        0.8000000000         1.0000000000 

[MO]
 Sym=     1a
 Ene= -1.84057064902733E+01
Spin= Alpha
 Occup= 2
  1      0.000365680535
  2     -0.000994184772
  3      0.001726369251
  4      0.022586794256
  5      0.001831700109
  6     -0.002567776990
  7     -0.000000000280
  8     -0.000002183545
  9     -0.011619676107
  10     0.000000007129
  11    -0.000009874635
  12    -0.002550600115
  13     0.000000004759
  14    -0.000002166132
  15     0.001264857830
  16    -0.000541871551
  17    -0.000722986279
  18     0.000000000060
  19     0.000001946272
  20     0.000000000000
  21     0.002859034889
  22    -0.001424550261
  23    -0.001434484628
  24     0.000000000147
  25     0.000004206028
  26     0.000000000002
  27    -0.000667115140
  28     0.000000000294
  29     0.000000775231
  30     0.000486148970
  31    -0.000000000362
  32    -0.000001451197
  33     0.000408879911
  34    -0.000000000033
  35     0.000000411116
  36    -0.000000000002
  37     0.447429488573
  38     0.676815689591
  39    -0.045649618873
  40    -0.123366438235
  41    -0.065271628010
  42     0.036849967341
  43     0.000000000050
  44     0.000031306931
  45     0.018449572137
  46     0.000000000471
  47     0.000015681122
  48     0.014554418222
  49    -0.000000010928
  50     0.000012385686
  51     0.000984397369
  52    -0.000348693009
  53    -0.000635704360
  54     0.000000000945
  55     0.000001586721
  56     0.000000000015
  57    -0.002990124501
  58     0.002082078990
  59     0.000908045511
  60    -0.000000003369
  61    -0.000003809612
  62    -0.000000000020
  63    -0.000656604757
  64    -0.000000000003
  65     0.000001030010
  66     0.000339796161
  67     0.000000000069
  68    -0.000001668193
  69     0.000541131562
  70    -0.000000000066
  71     0.000000286290
  72    -0.000000000003
  73     0.000025009675
  74    -0.000321422715
  75     0.000669856580
  76     0.000174097566
  77     0.000148547909
  78     0.000000147059
  79     0.000025010007
  80    -0.000321415256
  81     0.000669860236
  82     0.000174097218
  83    -0.000148547883
  84     0.000000147059
 Sym=     1a
 Ene= -1.02581767897569E+01
Spin= Alpha
 Occup= 2
  1      0.475722971058
  2      0.629145729069
  3     -0.013898349063
  4     -0.026615065390
  5      0.006430853829
  6      0.002385629779
  7      0.000000017289
  8      0.000002084608
  9     -0.019179295050
  10     0.000000015494
  11    -0.000016226954
  12    -0.003703566261
  13     0.000000001633
  14    -0.000003159986
  15     0.000133573686
  16    -0.000863642046
  17     0.000730068360
  18     0.000000001054
  19    -0.000000575808
  20     0.000000000006
  21     0.003411104396
  22    -0.003659749982
  23     0.000248645586
  24     0.000000000098
  25     0.000003121450
  26     0.000000000026
  27     0.000467069252
  28     0.000000000175
  29     0.000001521305
  30    -0.001435826736
  31    -0.000000000053
  32    -0.000000837020
  33     0.000809187578
  34    -0.000000000181
  35    -0.000001204025
  36    -0.000000000015
  37     0.002206902177
  38     0.005663965632
  39    -0.009598355502
  40    -0.013465028330
  41    -0.019035742411
  42    -0.016210047364
  43    -0.000000003191
  44    -0.000013762451
  45    -0.020850011111
  46    -0.000000003310
  47    -0.000017693557
  48    -0.018523522521
  49    -0.000000001187
  50    -0.000015701006
  51    -0.000203255971
  52     0.000084949334
  53     0.000118306637
  54    -0.000000000090
  55    -0.000000315933
  56     0.000000000001
  57     0.001364312604
  58    -0.000500725246
  59    -0.000863587358
  60     0.000000000713
  61     0.000002190328
  62    -0.000000000009
  63     0.000258764816
  64    -0.000000000096
  65    -0.000000262480
  66    -0.000208842536
  67     0.000000000162
  68     0.000000529845
  69    -0.000138326895
  70    -0.000000000033
  71    -0.000000177691
  72    -0.000000000002
  73    -0.000995185290
  74    -0.017904467718
  75    -0.002348332861
  76    -0.000620182357
  77    -0.000483741204
  78    -0.000000520571
  79    -0.000995183826
  80    -0.017904456065
  81    -0.002348335829
  82    -0.000620182488
  83     0.000483741760
  84    -0.000000520568
 Sym=     1a
 Ene= -1.40848913592286E+00
Spin= Alpha
 Occup= 2
  1      0.011019346150
  2      0.018191572177
  3      0.042412833104
  4     -0.304465325640
  5     -0.030224965547
  6      0.036690322531
  7     -0.000000008441
  8      0.000031128782
  9      0.236599539233
  10     0.000000054351
  11     0.000200804487
  12     0.060766968202
  13     0.000000019840
  14     0.000051545706
  15    -0.004395767846
  16     0.001569997572
  17     0.002825770274
  18    -0.000000000720
  19    -0.000007071207
  20     0.000000000001
  21    -0.023133264478
  22     0.010520882764
  23     0.012612381714
  24    -0.000000008059
  25    -0.000035019648
  26    -0.000000000044
  27     0.001933597514
  28     0.000000000304
  29    -0.000002675453
  30    -0.001184374326
  31     0.000000000471
  32     0.000004587628
  33    -0.001409818963
  34    -0.000000000879
  35    -0.000000998131
  36     0.000000000013
  37     0.003190552250
  38    -0.079405373811
  39     0.338556957614
  40     0.411565780605
  41     0.450463074485
  42    -0.293322692715
  43     0.000000049579
  44    -0.000249053224
  45    -0.194750474835
  46     0.000000024172
  47    -0.000165375340
  48    -0.070668408224
  49    -0.000000047184
  50    -0.000060140245
  51    -0.005892505633
  52     0.002158971970
  53     0.003733533663
  54     0.000000007543
  55    -0.000009437507
  56    -0.000000000358
  57    -0.014771410231
  58     0.005794232515
  59     0.008977177716
  60    -0.000000010314
  61    -0.000023322889
  62     0.000000000184
  63    -0.002917332684
  64     0.000000000091
  65     0.000001890850
  66     0.002911855155
  67    -0.000000000589
  68    -0.000005012897
  69     0.001002157362
  70     0.000000000467
  71     0.000002476056
  72     0.000000000001
  73    -0.002540425543
  74    -0.000794191054
  75    -0.009353606183
  76    -0.001258878113
  77    -0.000193200679
  78    -0.000001068503
  79    -0.002540425814
  80    -0.000794140328
  81    -0.009353605227
  82    -0.001258882322
  83     0.000193200297
  84    -0.000001068525
 Sym=     1a
 Ene= -5.52437521095180E-01
Spin= Alpha
 Occup= 2
  1      0.004697332548
  2      0.069180432528
  3     -0.262695641011
  4      0.077388220204
  5      0.030786009177
  6      0.192108562754
  7     -0.000000079608
  8      0.000163405490
  9      0.059299898342
  10     0.000000742898
  11     0.000050825213
  12     0.005244103237
  13     0.000000408011
  14     0.000004620271
  15     0.007196646342
  16    -0.002606278117
  17    -0.004590368225
  18    -0.000000005476
  19     0.000011530202
  20    -0.000000000010
  21     0.077240055547
  22    -0.040978351532
  23    -0.036261704015
  24    -0.000000046434
  25     0.000111252300
  26     0.000000000043
  27    -0.007013502347
  28     0.000000017100
  29     0.000013474774
  30     0.002290128081
  31    -0.000000015024
  32    -0.000020050791
  33     0.007119472723
  34    -0.000000007918
  35     0.000001972485
  36    -0.000000000032
  37    -0.053685849493
  38    -0.171292989864
  39     0.351867564998
  40     0.556496347427
  41    -0.209342315156
  42     0.506021366911
  43     0.000000338528
  44     0.000425786781
  45     0.384325350933
  46     0.000000178514
  47     0.000322981857
  48     0.105192867591
  49    -0.000001036483
  50     0.000087444563
  51     0.009294909578
  52    -0.005265428584
  53    -0.004029480994
  54     0.000000110262
  55     0.000012993568
  56     0.000000000943
  57     0.060742232977
  58    -0.032924863675
  59    -0.027817369302
  60    -0.000000237523
  61     0.000086422574
  62    -0.000000000633
  63     0.013747871404
  64    -0.000000003335
  65    -0.000014661510
  66    -0.010699088607
  67     0.000000005892
  68     0.000028712035
  69    -0.007745616397
  70    -0.000000001419
  71    -0.000009041556
  72     0.000000000013
  73     0.001527344112
  74    -0.039771379925
  75     0.010109176982
  76    -0.000370597640
  77    -0.001230003933
  78    -0.000000303496
  79     0.001527361699
  80    -0.039770720625
  81     0.010109431144
  82    -0.000370641817
  83     0.001230003195
  84    -0.000000303489
 Sym=     1a
 Ene= -3.78247407360106E-01
Spin= Alpha
 Occup= 2
  1     -0.000000001597
  2      0.000000001031
  3      0.000000003313
  4     -0.000000071526
  5     -0.000000006164
  6      0.000000000937
  7     -0.079526924159
  8      0.000000000051
  9      0.000000073972
  10    -0.133988872537
  11    -0.000000000620
  12    -0.000000002984
  13    -0.059481012916
  14    -0.000000000129
  15    -0.000000009892
  16     0.000000004413
  17     0.000000005479
  18     0.001350552082
  19     0.000000000079
  20     0.000001122576
  21    -0.000000042253
  22     0.000000022809
  23     0.000000019444
  24    -0.020303855346
  25     0.000000000558
  26    -0.000017116075
  27     0.000000010887
  28    -0.002053460775
  29    -0.000000000072
  30    -0.000000006008
  31     0.001692581401
  32     0.000000000115
  33    -0.000000008598
  34     0.001062425329
  35    -0.000000000018
  36     0.000000664051
  37     0.000000002873
  38     0.000000020335
  39    -0.000000080082
  40     0.000000093069
  41    -0.000000001044
  42    -0.000000020093
  43     0.520384123973
  44    -0.000000001124
  45     0.000000044959
  46     0.436728355840
  47    -0.000000000409
  48     0.000000011035
  49     0.307477991639
  50     0.000000000524
  51     0.000000002408
  52    -0.000000001982
  53    -0.000000000426
  54     0.005516467536
  55    -0.000000003164
  56     0.000004700467
  57     0.000000014763
  58     0.000000000135
  59    -0.000000014898
  60     0.036530322018
  61     0.000000001839
  62     0.000031067673
  63     0.000000001598
  64    -0.007413864645
  65    -0.000000000050
  66    -0.000000000811
  67     0.010332378306
  68     0.000000000079
  69    -0.000000001332
  70    -0.000385635112
  71    -0.000000000012
  72     0.000010499517
  73     0.007445166625
  74     0.050929071628
  75     0.023737085957
  76     0.001032576077
  77    -0.002942593559
  78     0.000000893440
  79    -0.007445170670
  80    -0.050929070624
  81    -0.023737084135
  82    -0.001032575787
  83    -0.002942592022
  84    -0.000000893468
 Sym=     1a
 Ene= -3.04913237304909E-01
Spin= Alpha
 Occup= 2
  1      0.000000024855
  2      0.000000422860
  3     -0.000001534669
  4     -0.000000020696
  5      0.000000136536
  6      0.000057179886
  7     -0.000000000040
  8     -0.065802394963
  9      0.000082407154
  10     0.000000000881
  11    -0.096143759426
  12     0.000019845016
  13     0.000000000620
  14    -0.023101658210
  15    -0.000003906634
  16    -0.000000025277
  17     0.000003931911
  18    -0.000000000097
  19     0.002695797608
  20     0.000000000142
  21     0.000004821101
  22    -0.000000315609
  23    -0.000004505492
  24    -0.000000001382
  25    -0.002898041577
  26    -0.000000000596
  27     0.000005732836
  28     0.000000000208
  29     0.001903261176
  30    -0.000000399431
  31    -0.000000000321
  32    -0.003056848374
  33    -0.000007291976
  34     0.000000000043
  35     0.000503355553
  36    -0.000000000223
  37    -0.000000394261
  38    -0.000001281761
  39     0.000002750201
  40     0.000003376783
  41    -0.000000215669
  42    -0.000439222549
  43     0.000000001235
  44     0.521618648406
  45    -0.000384947045
  46     0.000000000083
  47     0.456731485763
  48    -0.000228032538
  49    -0.000000000825
  50     0.269983818153
  51    -0.000013124030
  52    -0.000000031800
  53     0.000013155830
  54     0.000000003888
  55     0.008952672797
  56    -0.000000002372
  57    -0.000082653572
  58    -0.000000260963
  59     0.000082914535
  60    -0.000000002585
  61     0.056535462317
  62     0.000000003679
  63    -0.000023382823
  64     0.000000000046
  65    -0.005355691599
  66     0.000004337603
  67    -0.000000000093
  68     0.012374125945
  69     0.000027033746
  70     0.000000000031
  71    -0.005188711656
  72     0.000000001039
  73    -0.000000031221
  74    -0.000000461210
  75    -0.000000039803
  76    -0.000000472151
  77     0.000000009073
  78     0.000525702898
  79    -0.000000031455
  80    -0.000000461586
  81    -0.000000039003
  82    -0.000000472746
  83    -0.000000009557
  84     0.000525702216
 Sym=     1a
 Ene= -2.21512713780179E-01
Spin= Alpha
 Occup= 2
  1     -0.045310729290
  2     -0.146567463600
  3      0.279621072881
  4      0.673266306992
  5      0.111062229790
  6      0.264692886654
  7     -0.453474216029
  8      0.000223155429
  9      0.259389157236
  10    -0.513989072790
  11     0.000218058475
  12     0.056967501099
  13    -0.118197757772
  14     0.000048075071
  15    -0.005046583658
  16     0.014581730671
  17    -0.009535147013
  18    -0.032552608964
  19     0.000004307135
  20    -0.000027405692
  21     0.010997228698
  22     0.008012848211
  23    -0.019010076909
  24    -0.052128532871
  25     0.000029201878
  26    -0.000044025135
  27    -0.008400246800
  28    -0.004797542933
  29    -0.000012485156
  30     0.017928218083
  31    -0.004601841925
  32     0.000001643199
  33    -0.006658104359
  34     0.011038421198
  35     0.000015107396
  36    -0.000015186891
  37     0.003729658860
  38     0.010862856730
  39    -0.021833499645
  40    -0.008837524882
  41    -0.076966935526
  42    -0.035575515984
  43     0.068017386718
  44    -0.000029939524
  45    -0.046881598083
  46     0.053182462857
  47    -0.000039584769
  48    -0.045281025057
  49     0.012435763397
  50    -0.000038449922
  51     0.000223443855
  52    -0.000203112003
  53    -0.000020331852
  54     0.003401998686
  55     0.000000245342
  56     0.000002889302
  57     0.001117369852
  58    -0.000751825513
  59    -0.000365544339
  60    -0.028621614558
  61     0.000001394419
  62    -0.000024308205
  63     0.000650162068
  64     0.002298213611
  65    -0.000001714945
  66     0.000031087330
  67    -0.003816842529
  68     0.000002272172
  69    -0.000903371278
  70     0.000733465413
  71     0.000000028669
  72    -0.000004453493
  73    -0.002207693179
  74    -0.020190631137
  75    -0.021055227460
  76     0.001255616826
  77    -0.009846105500
  78     0.000001110213
  79    -0.090892564933
  80    -0.507939479036
  81    -0.074122173889
  82     0.006654458960
  83    -0.016495581671
  84     0.000005514506
 Sym=     1a
 Ene= -2.21512711255414E-01
Spin= Alpha
 Occup= 2
  1     -0.045310748904
  2     -0.146567481331
  3      0.279621086155
  4      0.673266157546
  5      0.111062301564
  6      0.264692915662
  7      0.453474198097
  8      0.000223154645
  9      0.259389097145
  10     0.513988958178
  11     0.000218063986
  12     0.056967543512
  13     0.118197815685
  14     0.000048074828
  15    -0.005046586584
  16     0.014581730125
  17    -0.009535143541
  18     0.032552607172
  19     0.000004306040
  20     0.000027405701
  21     0.010997243019
  22     0.008012795191
  23    -0.019010038210
  24     0.052128473866
  25     0.000029193524
  26     0.000044024586
  27    -0.008400239009
  28     0.004797536100
  29    -0.000012487637
  30     0.017928203173
  31     0.004601842102
  32     0.000001647840
  33    -0.006658099902
  34    -0.011038412208
  35     0.000015106083
  36     0.000015187299
  37     0.003729657403
  38     0.010862850432
  39    -0.021833480821
  40    -0.008837532702
  41    -0.076966910414
  42    -0.035575498645
  43    -0.068017386745
  44    -0.000029940148
  45    -0.046881590200
  46    -0.053182467649
  47    -0.000039588589
  48    -0.045281015457
  49    -0.012435792698
  50    -0.000038454381
  51     0.000223444426
  52    -0.000203113611
  53    -0.000020330815
  54    -0.003401997421
  55     0.000000246013
  56    -0.000002889327
  57     0.001117367147
  58    -0.000751814047
  59    -0.000365553100
  60     0.028621605163
  61     0.000001388776
  62     0.000024308414
  63     0.000650161938
  64    -0.002298213512
  65    -0.000001714516
  66     0.000031087804
  67     0.003816842828
  68     0.000002271394
  69    -0.000903371578
  70    -0.000733465845
  71     0.000000028870
  72     0.000004453537
  73    -0.090892534590
  74    -0.507939287993
  75    -0.074122293085
  76     0.006654442999
  77     0.016495551380
  78     0.000005514912
  79    -0.002207695684
  80    -0.020190632279
  81    -0.021055210050
  82     0.001255611408
  83     0.009846106241
  84     0.000001110613
 Sym=     1a
 Ene= -1.21592451718192E-01
Spin= Alpha
 Occup= 0
  1     -0.000000499443
  2     -0.000001841294
  3      0.000004856983
  4      0.000002872479
  5      0.000000868408
  6     -0.000457266641
  7      0.000000000081
  8      0.534206869421
  9     -0.000449754485
  10     0.000000000599
  11     0.527335147488
  12    -0.000161243743
  13    -0.000000000211
  14     0.189874748889
  15     0.000052737712
  16    -0.000000107682
  17    -0.000052630030
  18    -0.000000000466
  19    -0.035760049358
  20    -0.000000002396
  21     0.000061534381
  22     0.000000554812
  23    -0.000062089193
  24    -0.000000002090
  25    -0.042169215113
  26    -0.000000005465
  27    -0.000040352988
  28    -0.000000000794
  29    -0.016614241545
  30    -0.000000635266
  31     0.000000001485
  32     0.021244902999
  33     0.000054774481
  34    -0.000000000420
  35     0.001045441095
  36     0.000000001574
  37     0.000000215144
  38     0.000000617343
  39    -0.000001101788
  40    -0.000002276468
  41     0.000000403777
  42     0.000068120530
  43    -0.000000000248
  44    -0.082060982211
  45     0.000081575480
  46    -0.000000001046
  47    -0.097939101742
  48     0.000074377089
  49    -0.000000000772
  50    -0.088541817798
  51    -0.000005428025
  52    -0.000000027421
  53     0.000005455446
  54     0.000000000158
  55     0.003727920795
  56     0.000000000043
  57     0.000045703167
  58     0.000000199777
  59    -0.000045902944
  60    -0.000000001328
  61    -0.031363655345
  62    -0.000000000363
  63     0.000014043154
  64     0.000000000140
  65     0.004233463675
  66    -0.000001431725
  67    -0.000000000249
  68    -0.007444529924
  69    -0.000017409143
  70     0.000000000061
  71     0.001764742389
  72    -0.000000000337
  73     0.000000001224
  74     0.000000411580
  75    -0.000000101537
  76    -0.000003328776
  77     0.000000165829
  78     0.004039901501
  79     0.000000001114
  80     0.000000409769
  81    -0.000000101689
  82    -0.000003328417
  83    -0.000000166043
  84     0.004039901283
 Sym=     1a
 Ene= -4.58158819940232E-02
Spin= Alpha
 Occup= 0
  1      0.015108514437
  2      0.057746586231
  3     -0.070610625689
  4     -0.414792598973
  5     -0.029443629277
  6     -0.076325359108
  7     -0.131656455348
  8     -0.000063939992
  9     -0.216427475294
  10    -0.332742744182
  11    -0.000181604471
  12    -0.053246990724
  13    -0.101854929211
  14    -0.000044733118
  15     0.000154500180
  16    -0.005787657213
  17     0.005633157033
  18    -0.007444282172
  19    -0.000005310739
  20    -0.000006249183
  21     0.005599278280
  22    -0.018851103577
  23     0.013251825297
  24    -0.023838080209
  25    -0.000007338012
  26    -0.000019954942
  27     0.008793331252
  28    -0.004227583232
  29     0.000013466383
  30    -0.018982621405
  31    -0.004810508138
  32    -0.000002151970
  33     0.007185129548
  34     0.010482406231
  35    -0.000015915078
  36    -0.000014796396
  37     0.001526818552
  38     0.006460476687
  39    -0.017640400024
  40    -0.010394532992
  41    -0.047731508463
  42    -0.009093282539
  43     0.025545264427
  44    -0.000007867135
  45    -0.012573694206
  46     0.023784336590
  47    -0.000010818239
  48    -0.015638441692
  49     0.023352425463
  50    -0.000013361550
  51    -0.000201004534
  52     0.000035748669
  53     0.000165255865
  54    -0.000143086368
  55    -0.000000358504
  56    -0.000000120224
  57     0.001691086609
  58    -0.000300759859
  59    -0.001390326750
  60     0.001203810856
  61     0.000003016155
  62     0.000001011463
  63     0.000641906120
  64     0.000136490863
  65     0.000000749758
  66    -0.001253898727
  67     0.000091571349
  68     0.000000063685
  69     0.000392691295
  70    -0.000274693058
  71    -0.000001069591
  72     0.000000368826
  73     0.400533419499
  74     1.023318172529
  75     0.267466568224
  76    -0.028540225658
  77    -0.049978316591
  78    -0.000023927306
  79    -0.003084942351
  80    -0.025805320136
  81    -0.035274139158
  82    -0.001895826684
  83     0.002172047113
  84    -0.000001578542
 Sym=     1a
 Ene= -4.58141256851125E-02
Spin= Alpha
 Occup= 0
  1      0.015108616433
  2      0.057746269276
  3     -0.070608302892
  4     -0.414795179704
  5     -0.029444054443
  6     -0.076325319942
  7      0.131655887668
  8     -0.000063939942
  9     -0.216426651231
  10     0.332743206642
  11    -0.000181603816
  12    -0.053248028620
  13     0.101860527323
  14    -0.000044733992
  15     0.000154691358
  16    -0.005788023371
  17     0.005633332013
  18     0.007444292895
  19    -0.000005310727
  20     0.000006249197
  21     0.005602059224
  22    -0.018854097055
  23     0.013252037831
  24     0.023836252048
  25    -0.000007335543
  26     0.000019953436
  27     0.008793856040
  28     0.004228934174
  29     0.000013466304
  30    -0.018983273784
  31     0.004809059181
  32    -0.000002151297
  33     0.007185077851
  34    -0.010482769752
  35    -0.000015915645
  36     0.000014795370
  37     0.001526804087
  38     0.006460499558
  39    -0.017640639513
  40    -0.010394412259
  41    -0.047733941731
  42    -0.009093196310
  43    -0.025545229837
  44    -0.000007867064
  45    -0.012573912171
  46    -0.023784309732
  47    -0.000010818428
  48    -0.015638696898
  49    -0.023354129889
  50    -0.000013361765
  51    -0.000201002845
  52     0.000035713853
  53     0.000165288992
  54     0.000143150164
  55    -0.000000358534
  56     0.000000120278
  57     0.001691072397
  58    -0.000300466942
  59    -0.001390605455
  60    -0.001204347591
  61     0.000003016413
  62    -0.000001011921
  63     0.000641910813
  64    -0.000136596129
  65     0.000000749657
  66    -0.001253851971
  67    -0.000091407977
  68     0.000000063780
  69     0.000392638243
  70     0.000274670915
  71    -0.000001069551
  72    -0.000000368641
  73    -0.003084399820
  74    -0.025804326348
  75    -0.035279192343
  76    -0.001896162497
  77    -0.002172348531
  78    -0.000001578824
  79     0.400542062367
  80     1.023304410828
  81     0.267481411936
  82    -0.028547216598
  83     0.049975937112
  84    -0.000023933027
 Sym=     1a
 Ene= 3.30709703867731E-02
Spin= Alpha
 Occup= 0
  1      0.045535396287
  2      0.228586837770
  3     -0.713816410529
  4     -0.126622435389
  5      0.078441522967
  6      0.680781054917
  7      0.000000021222
  8      0.000581166441
  9      0.301381108689
  10    -0.000000076316
  11     0.000259364629
  12     0.042969138599
  13     0.000000014129
  14     0.000037893283
  15    -0.034657803189
  16     0.018698707305
  17     0.015959095884
  18    -0.000000000456
  19    -0.000049833910
  20     0.000000000015
  21     0.099837549299
  22    -0.064681178308
  23    -0.035156370991
  24    -0.000000059357
  25     0.000132167606
  26     0.000000000201
  27     0.009462637532
  28    -0.000000004127
  29     0.000001848694
  30    -0.013763322977
  31    -0.000000002639
  32     0.000009009293
  33     0.001067862516
  34     0.000000008176
  35    -0.000011489577
  36     0.000000000180
  37    -0.028729328174
  38    -0.076998027270
  39     0.122338962044
  40     0.332254253038
  41    -0.261296881388
  42     0.202543094598
  43     0.000000011476
  44     0.000171309020
  45     0.169205162084
  46     0.000000002146
  47     0.000142963922
  48     0.026961282322
  49    -0.000000014784
  50     0.000022266158
  51    -0.006157154620
  52     0.002907173770
  53     0.003249980850
  54     0.000000000700
  55    -0.000009201182
  56     0.000000000001
  57     0.050892991322
  58    -0.024236735477
  59    -0.026656255845
  60    -0.000000005884
  61     0.000075847647
  62    -0.000000000007
  63     0.012631720402
  64    -0.000000001155
  65    -0.000015581901
  66    -0.008720953761
  67     0.000000002326
  68     0.000028301602
  69    -0.008226277534
  70    -0.000000000776
  71    -0.000007396288
  72     0.000000000015
  73     0.011184320698
  74     0.021050857002
  75    -0.010145084233
  76    -0.007952188254
  77    -0.004707477155
  78    -0.000006679857
  79     0.011184305764
  80     0.021050750383
  81    -0.010145052330
  82    -0.007952179418
  83     0.004707454558
  84    -0.000006679700
 Sym=     1a
 Ene= 5.51674076561774E-01
Spin= Alpha
 Occup= 0
  1     -0.009061368154
  2      0.081016637836
  3     -0.511762953573
  4      0.701821197388
  5      0.105500000137
  6     -0.060712883798
  7      0.055775233619
  8     -0.000051338789
  9      0.474685535501
  10     0.033866202429
  11     0.000402030790
  12     0.377178707937
  13    -0.965830135232
  14     0.000318207243
  15     0.001525725600
  16     0.003716821084
  17    -0.005242546684
  18     0.004652027938
  19     0.000006526638
  20     0.000003530285
  21     0.019632490597
  22    -0.051249491681
  23     0.031617001084
  24     0.072179436304
  25    -0.000011734427
  26     0.000060236752
  27    -0.002566270509
  28     0.044902730182
  29    -0.000026643784
  30     0.017396992138
  31    -0.037329037722
  32     0.000020339876
  33    -0.013953978955
  34    -0.022914296516
  35     0.000015406511
  36    -0.000014584868
  37     0.001515096188
  38    -0.020202563946
  39     0.126028392285
  40    -0.390737259174
  41     1.032543100488
  42    -0.008984753127
  43     0.030733961424
  44    -0.000007480006
  45     0.077217653315
  46    -0.040588381817
  47     0.000065513162
  48     0.288626408969
  49     0.139353230540
  50     0.000244668359
  51    -0.008277109186
  52     0.001367583625
  53     0.006909525561
  54    -0.002041176551
  55    -0.000014885042
  56    -0.000001779409
  57     0.069636779969
  58    -0.011505722332
  59    -0.058131057637
  60     0.017172778460
  61     0.000125230485
  62     0.000014970486
  63     0.003238803756
  64    -0.001445885948
  65    -0.000011618372
  66     0.001772384126
  67     0.001042657538
  68     0.000014109893
  69    -0.006117695344
  70     0.000897202023
  71     0.000001477789
  72     0.000000107866
  73     0.008524246480
  74    -0.287829986803
  75     0.820406153755
  76    -0.002858478754
  77     0.064380196309
  78    -0.000002653411
  79     0.439312392832
  80     0.385665268130
  81    -2.640721753596
  82    -0.099608082996
  83    -0.242058428180
  84    -0.000087271583
 Sym=     1a
 Ene= 5.78923234838757E-01
Spin= Alpha
 Occup= 0
  1     -0.008692798913
  2      0.080205849911
  3     -0.504092590120
  4      0.689327522373
  5      0.103752467788
  6     -0.060706134013
  7     -0.054202987453
  8     -0.000051333337
  9      0.475107739908
  10    -0.039087793811
  11     0.000402409587
  12     0.373596685150
  13     0.947344810109
  14     0.000315192408
  15     0.002127704376
  16     0.002162807440
  17    -0.004290511816
  18    -0.005208124356
  19     0.000006188133
  20    -0.000003992610
  21     0.028731252396
  22    -0.062196788516
  23     0.033465536120
  24    -0.068371966462
  25    -0.000004652250
  26    -0.000056946535
  27    -0.000467298514
  28    -0.049420255418
  29    -0.000026270155
  30     0.014367851424
  31     0.041605403254
  32     0.000022338598
  33    -0.013740904678
  34     0.024698827094
  35     0.000012906513
  36     0.000017020447
  37     0.001469399203
  38    -0.020121483321
  39     0.125245328522
  40    -0.390579958413
  41     1.024957181669
  42    -0.008701478190
  43    -0.030871803137
  44    -0.000007238103
  45     0.076617457830
  46     0.040415630076
  47     0.000065004103
  48     0.288013217382
  49    -0.133631272731
  50     0.000244140288
  51    -0.008294572815
  52     0.001259344990
  53     0.007035227825
  54     0.001816848015
  55    -0.000015024481
  56     0.000001590324
  57     0.069783704560
  58    -0.010595091598
  59    -0.059188612962
  60    -0.015285462906
  61     0.000126403612
  62    -0.000013379677
  63     0.003299212748
  64     0.001779928042
  65    -0.000011929816
  66     0.001855348192
  67    -0.001541573381
  68     0.000014460026
  69    -0.006281706577
  70    -0.000846450677
  71     0.000001545502
  72    -0.000000650831
  73     0.470574104797
  74     0.344308536493
  75    -2.592079171424
  76    -0.123912763998
  77     0.246039678625
  78    -0.000107845621
  79     0.010228474493
  80    -0.284963767303
  81     0.804085645037
  82    -0.003978935516
  83    -0.063396970470
  84    -0.000003584171
 Sym=     1a
 Ene= 8.96398973912670E-01
Spin= Alpha
 Occup= 0
  1      0.000007618684
  2      0.000101950922
  3     -0.002910492542
  4      0.013013701340
  5      0.001394836237
  6      0.000513662997
  7     -0.141938566190
  8      0.000000439460
  9     -0.007740054732
  10     1.185313159543
  11    -0.000006470253
  12    -0.002312385785
  13     0.647434634257
  14    -0.000001942752
  15     0.000474336035
  16    -0.000187484072
  17    -0.000286851963
  18    -0.009149423846
  19     0.000000732733
  20    -0.000007849644
  21     0.002247081309
  22    -0.001136166811
  23    -0.001110914498
  24    -0.082749274078
  25     0.000003225826
  26    -0.000071843882
  27    -0.000441257250
  28     0.027113348108
  29     0.000000636653
  30     0.000255467746
  31    -0.022503812581
  32    -0.000001069029
  33     0.000336540979
  34    -0.013872561098
  35     0.000000214869
  36    -0.000008681428
  37    -0.000235761399
  38     0.000280392274
  39    -0.001319802226
  40     0.002394005988
  41    -0.015793568694
  42     0.000180272948
  43     0.492009809008
  44     0.000000201519
  45    -0.004779453461
  46     0.238706409771
  47    -0.000004100209
  48    -0.002920863759
  49    -1.673827365109
  50    -0.000002586330
  51     0.000097535069
  52    -0.000096396222
  53    -0.000001138847
  54     0.175665641178
  55     0.000000341809
  56     0.000148951611
  57    -0.000300415169
  58     0.000125208553
  59     0.000175206616
  60    -0.387996204243
  61    -0.000000648919
  62    -0.000330017342
  63     0.000073166640
  64    -0.002909149054
  65     0.000000178340
  66    -0.000188438590
  67     0.005308574476
  68    -0.000000082745
  69     0.000090275241
  70    -0.001405541451
  71    -0.000000156523
  72     0.000006456516
  73    -0.010418455529
  74    -0.526560445176
  75    -0.188901342178
  76     0.038253090712
  77    -0.000390751417
  78     0.000032452228
  79     0.010623142620
  80     0.526009756976
  81     0.190163948621
  82    -0.038150330374
  83    -0.000443428883
  84    -0.000032362544
 Sym=     1a
 Ene= 9.56815580298435E-01
Spin= Alpha
 Occup= 0
  1      0.000023216217
  2     -0.000146850938
  3      0.000500372098
  4      0.003145330415
  5      0.000302315641
  6     -0.000352624912
  7      0.000047084235
  8     -0.074542737308
  9     -0.004905149590
  10     0.000283627305
  11     0.515377352119
  12    -0.000464631547
  13    -0.000758697597
  14     0.266728946139
  15     0.000298132274
  16    -0.000146793701
  17    -0.000151338573
  18    -0.000099130853
  19    -0.013417657738
  20    -0.000000085164
  21     0.002285723112
  22    -0.001499093296
  23    -0.000786629816
  24    -0.000718442078
  25    -0.080138560984
  26    -0.000000602755
  27    -0.000124734979
  28    -0.000159505818
  29    -0.004654031915
  30    -0.000008494045
  31     0.000239349530
  32    -0.001893660363
  33     0.000175843580
  34    -0.000025350019
  35     0.008137699402
  36     0.000000288773
  37     0.000139962167
  38    -0.000101630059
  39     0.000937353125
  40    -0.004764915386
  41    -0.001807334575
  42     0.001188305221
  43     0.000596883619
  44     0.418454815488
  45    -0.004994517701
  46    -0.001395080657
  47     0.368198697416
  48     0.001520418098
  49     0.000619909127
  50    -1.438905466486
  51     0.001645293025
  52    -0.000948306272
  53    -0.000696986753
  54     0.000583646898
  55    -0.222746739569
  56     0.000000372213
  57    -0.001398764040
  58     0.000950395541
  59     0.000448368499
  60    -0.000802667118
  61    -0.128954615471
  62    -0.000001023892
  63     0.000813276549
  64     0.000003148870
  65     0.078875144162
  66    -0.000249443003
  67    -0.000043580829
  68    -0.020599594843
  69    -0.000841681985
  70     0.000039356176
  71    -0.085222515606
  72     0.000000128010
  73     0.000161616627
  74     0.000960382070
  75     0.000242179238
  76    -0.000093908033
  77    -0.000124159042
  78    -0.009677202285
  79     0.000091928730
  80     0.000396468307
  81    -0.000519098470
  82    -0.000156555897
  83     0.000006432146
  84    -0.009677245657
 Sym=     1a
 Ene= 9.77984553367233E-01
Spin= Alpha
 Occup= 0
  1      0.008544216934
  2     -0.012260144991
  3      0.057465033494
  4     -0.176361314298
  5      0.068188976443
  6     -0.000483995267
  7      0.008788000824
  8     -0.086137829244
  9      0.006362592405
  10    -0.005842570914
  11    -1.101344129707
  12     0.008318368404
  13    -0.031692654083
  14     1.366664474039
  15    -0.005288499257
  16    -0.005960660105
  17     0.011249159362
  18    -0.001052541499
  19     0.451100176568
  20     0.000021335925
  21    -0.012173448658
  22    -0.026461358743
  23     0.038634807401
  24     0.030386622359
  25     0.301568203082
  26    -0.000027846989
  27     0.036232463162
  28     0.016449842754
  29     0.417630253172
  30    -0.019779907397
  31    -0.020648355629
  32    -0.438546319106
  33    -0.028831042976
  34    -0.001421424342
  35    -0.121763462226
  36    -0.000100196151
  37    -0.000152166346
  38    -0.002585043661
  39     0.010875106501
  40     0.031153321663
  41     0.018044212740
  42     0.008753570991
  43     0.003196149313
  44     0.088785700411
  45     0.016914760882
  46     0.012540582209
  47     0.366335678932
  48     0.012395057279
  49     0.021134606870
  50    -0.227094439020
  51    -0.000320315223
  52    -0.000881321156
  53     0.001201636379
  54    -0.001860226748
  55    -0.066914166040
  56    -0.000000135509
  57     0.002761716821
  58     0.006444949212
  59    -0.009206666033
  60     0.015650416190
  61     0.562959861721
  62     0.000001140060
  63     0.000375945593
  64    -0.001358310268
  65    -0.075684014724
  66     0.000493861454
  67     0.002190958524
  68     0.128514321178
  69    -0.000998245395
  70    -0.000368594068
  71    -0.026973560139
  72    -0.000004080254
  73     0.002496548421
  74     0.045573600792
  75    -0.009915990096
  76    -0.006482141302
  77    -0.006249600175
  78     0.057674925923
  79     0.006490793821
  80     0.065965086100
  81    -0.053716862594
  82    -0.013253017492
  83     0.010973747100
  84     0.057624024456
 Sym=     1a
 Ene= 1.04602449862903E+00
Spin= Alpha
 Occup= 0
  1     -0.092924591314
  2      0.102577815977
  3      0.045892611168
  4     -0.313272607513
  5      0.376775305985
  6      0.014605802241
  7     -0.585587630714
  8      0.021078190933
  9     -0.116126656578
  10     3.025666863987
  11    -0.024323497000
  12     0.033606005928
  13    -5.586042617021
  14     0.010916310711
  15    -0.005811992667
  16     0.019088268754
  17    -0.013276276087
  18     0.064482755928
  19    -0.005830425554
  20     0.000157470461
  21     0.002090213446
  22    -0.072129253701
  23     0.070039040255
  24     0.747250551336
  25    -0.006248502899
  26     0.000641456360
  27     0.015163677527
  28     0.035038408681
  29     0.000294844535
  30    -0.034880432871
  31     0.176293921390
  32     0.000048208997
  33     0.014536224627
  34    -0.223302879572
  35    -0.000443784450
  36     0.000316790760
  37    -0.001591268671
  38     0.001330551644
  39    -0.017247064363
  40     0.075784796949
  41    -0.131921467423
  42     0.005368599186
  43    -0.059570106189
  44     0.001096068424
  45     0.012201933950
  46    -0.403060061425
  47     0.000471058360
  48    -0.029959956478
  49     1.642035866077
  50    -0.005603450431
  51     0.003625322009
  52    -0.003449845430
  53    -0.000175476579
  54     0.009527064589
  55     0.000404799018
  56     0.000011328240
  57    -0.001748501486
  58     0.009011885530
  59    -0.007263384044
  60    -0.080152870624
  61    -0.003368933296
  62    -0.000095306482
  63     0.001403520824
  64     0.027457040301
  65     0.000414567180
  66    -0.003295347897
  67    -0.059660543774
  68    -0.000756363456
  69     0.001412327115
  70     0.022823058630
  71     0.000200163219
  72    -0.000089627991
  73    -0.183324372085
  74    -1.164416983140
  75     3.889484201568
  76     0.124480285028
  77     0.385109583619
  78     0.001012321996
  79     0.196621837414
  80     1.470230686668
  81    -4.204932709998
  82    -0.172882968477
  83     0.454620165857
  84     0.000747061522
 Sym=     1a
 Ene= 1.13315538904926E+00
Spin= Alpha
 Occup= 0
  1      0.039278278752
  2      0.262730270954
  3     -1.796563864993
  4      2.817330519567
  5      0.885826766212
  6      0.874488012946
  7      0.000000365091
  8      0.000741306076
  9     -1.965762394173
  10    -0.000001882717
  11    -0.001667889332
  12    -0.626281062720
  13     0.000000395714
  14    -0.000530820429
  15     0.004345042550
  16    -0.004224329955
  17    -0.000120712595
  18     0.000000042842
  19     0.000004389910
  20    -0.000000000250
  21     0.407560289979
  22    -0.275775324995
  23    -0.131784964984
  24    -0.000001559726
  25     0.000529295324
  26    -0.000000007399
  27     0.021527125377
  28    -0.000000096715
  29     0.000014784906
  30    -0.036807693642
  31    -0.000000086826
  32     0.000010745409
  33     0.007926024220
  34     0.000000216583
  35    -0.000030581442
  36    -0.000000001753
  37     0.015116681820
  38     0.144739466561
  39    -0.522776617939
  40    -0.221590351267
  41    -2.066180761951
  42    -0.035910812643
  43     0.000000000350
  44    -0.000030331215
  45    -0.315658129507
  46    -0.000000188127
  47    -0.000267616949
  48    -0.611028046352
  49    -0.000000419807
  50    -0.000518408310
  51    -0.010159957144
  52     0.003148099594
  53     0.007011857550
  54     0.000000026939
  55    -0.000016873093
  56    -0.000000000084
  57     0.085797780027
  58    -0.031767014279
  59    -0.054030765748
  60    -0.000000224731
  61     0.000137386803
  62     0.000000000707
  63     0.020288335863
  64    -0.000000007804
  65    -0.000024511426
  66    -0.014305410894
  67     0.000000021216
  68     0.000045055368
  69    -0.012914247990
  70    -0.000000010745
  71    -0.000012169839
  72     0.000000000005
  73     0.030547918418
  74     0.064025242984
  75    -0.132180630597
  76    -0.035681308160
  77    -0.020471835338
  78    -0.000030083065
  79     0.030547517155
  80     0.064021982241
  81    -0.132179553181
  82    -0.035681168449
  83     0.020471247649
  84    -0.000030085425
 Sym=     1a
 Ene= 1.21081003223564E+00
Spin= Alpha
 Occup= 0
  1     -0.004614991817
  2     -0.031841536402
  3      1.100665811350
  4     -5.086476798844
  5     -0.541585158947
  6     -0.175800443298
  7     -0.000348720458
  8     -0.000148399012
  9      3.076526664095
  10     0.002912680528
  11     0.002597717408
  12     0.911560711399
  13     0.001590799909
  14     0.000769911538
  15    -0.198214616123
  16     0.078990973468
  17     0.119223642655
  18    -0.000022517275
  19    -0.000309267197
  20    -0.000000016045
  21    -0.910654975040
  22     0.462349801791
  23     0.448305173249
  24    -0.000203626434
  25    -0.001325844287
  26    -0.000000247460
  27     0.185139695137
  28     0.000066626073
  29    -0.000264335919
  30    -0.108148421818
  31    -0.000055293276
  32     0.000445574535
  33    -0.140242544378
  34    -0.000034094981
  35    -0.000090930685
  36     0.000000002117
  37     0.097367153747
  38    -0.111692636256
  39     0.513317731788
  40    -0.921152977062
  41     6.236584719345
  42    -0.046384136387
  43     0.001208973874
  44    -0.000050929781
  45     1.947519735622
  46     0.000586349652
  47     0.001658468263
  48     1.054488676213
  49    -0.004112656169
  50     0.000913212728
  51    -0.033705255004
  52     0.036217611713
  53    -0.002512356709
  54     0.000432252689
  55    -0.000031635989
  56    -0.000000321979
  57     0.170608823227
  58    -0.076452894244
  59    -0.094155928983
  60    -0.000953737404
  61     0.000270126852
  62    -0.000000430370
  63    -0.020815345077
  64    -0.000007110438
  65    -0.000080738160
  66     0.069980495246
  67     0.000012978258
  68     0.000049530235
  69    -0.042053779307
  70    -0.000003438604
  71     0.000058791374
  72     0.000000019943
  73    -0.039538502162
  74     0.101975821599
  75    -0.250385493827
  76    -0.020181721070
  77    -0.011866091403
  78    -0.000017157335
  79    -0.039486885205
  80     0.104562163877
  81    -0.249454298333
  82    -0.020369570239
  83     0.011863974553
  84    -0.000017352436
 Sym=     1a
 Ene= 1.27036069062025E+00
Spin= Alpha
 Occup= 0
  1     -0.020443478985
  2      0.130970610454
  3     -1.137494716656
  4      2.849731177543
  5      0.354195650195
  6      0.451089482479
  7      0.000025747780
  8      0.000382910825
  9     -0.997990251387
  10    -0.000214885795
  11    -0.000848765337
  12    -0.401332070811
  13    -0.000117331202
  14    -0.000340622787
  15    -0.070058859549
  16     0.036474083622
  17     0.033584775927
  18     0.000001650654
  19    -0.000101335716
  20     0.000000001652
  21     0.052395322605
  22    -0.000529062386
  23    -0.051866260219
  24     0.000014979121
  25     0.000102701890
  26     0.000000006510
  27     0.075509419919
  28    -0.000004915821
  29    -0.000084377746
  30    -0.056725008936
  31     0.000004079382
  32     0.000161278871
  33    -0.044581508592
  34     0.000002515884
  35    -0.000048074245
  36     0.000000003797
  37     0.018882578343
  38     0.032664376582
  39    -0.323163274597
  40     0.726196634144
  41    -2.598184045657
  42     0.367957157936
  43    -0.000089165506
  44     0.000310956513
  45     0.032602740448
  46    -0.000043248844
  47     0.000028512961
  48    -1.822671617648
  49     0.000303267858
  50    -0.001544471813
  51     0.082265438598
  52    -0.041820769776
  53    -0.040444668822
  54    -0.000031770232
  55     0.000120089215
  56    -0.000000087861
  57     0.653867675337
  58    -0.344519710298
  59    -0.309347965039
  60     0.000070318951
  61     0.000945081130
  62     0.000000096626
  63     0.121431595398
  64     0.000000517461
  65    -0.000136614210
  66    -0.090941520867
  67    -0.000000945527
  68     0.000260541875
  69    -0.071976060290
  70     0.000000251280
  71    -0.000077254679
  72    -0.000000000838
  73     0.029020127739
  74    -0.119738535750
  75     0.095704934349
  76     0.008671698517
  77    -0.015516838152
  78     0.000007449131
  79     0.029016329433
  80    -0.119929407874
  81     0.095636352478
  82     0.008685547983
  83     0.015516981258
  84     0.000007457690
 Sym=     1a
 Ene= 1.31959263403938E+00
Spin= Alpha
 Occup= 0
  1      0.091911574370
  2      0.133572268313
  3     -0.986991728761
  4      0.032415551960
  5      2.857780046388
  6     -0.202048428947
  7     -0.123346817955
  8     -0.000373809209
  9      0.784972407846
  10     0.390326876365
  11    -0.000957848536
  12     1.971062275619
  13     0.091512264743
  14     0.003361295164
  15    -0.561067689688
  16     0.189830762372
  17     0.371236927316
  18    -0.007921310355
  19     0.002045214748
  20     0.001346895073
  21    -0.283471993734
  22     0.751324372446
  23    -0.467852378712
  24     0.086223288863
  25     0.000301956021
  26     0.000992319130
  27     0.222822246216
  28     0.011694313566
  29    -0.000246887716
  30    -0.076221129021
  31     0.095642745043
  32     0.000157357929
  33    -0.222726284642
  34    -0.111332313093
  35     0.000173876700
  36     0.000376011086
  37    -0.010046718721
  38    -0.079878377568
  39     0.348428362340
  40    -0.062092745348
  41     1.395477499997
  42     0.169039396587
  43    -0.016834864236
  44     0.000301397402
  45     0.302467708396
  46    -0.042349330779
  47     0.000978145631
  48     0.217464919025
  49    -0.063944662264
  50     0.000043891887
  51    -0.025584919636
  52     0.017546679397
  53     0.008038240239
  54     0.006047329252
  55    -0.000202068815
  56     0.000032040237
  57     0.247994709971
  58    -0.194712548603
  59    -0.053282161368
  60    -0.050877233692
  61     0.001717937189
  62    -0.000269560159
  63     0.076514985509
  64     0.005821680473
  65    -0.000343882147
  66    -0.060792402581
  67    -0.012838885466
  68     0.000632272037
  69    -0.041863222757
  70     0.005028281498
  71    -0.000170905723
  72    -0.000043110889
  73    -0.100696996376
  74    -0.981958177425
  75    -1.566955938952
  76     0.018576686339
  77    -0.032336448788
  78    -0.000165832384
  79    -0.026719056599
  80    -0.525987379875
  81    -1.542761120741
  82    -0.002151329740
  83     0.102595765243
  84     0.000216735710
 Sym=     1a
 Ene= 1.48072928770520E+00
Spin= Alpha
 Occup= 0
  1     -0.042795414985
  2      0.023525088670
  3     -0.131134038815
  4      0.992963905226
  5      1.211870364994
  6     -0.012674348154
  7      0.941116654831
  8      0.000914610729
  9     -0.109205878300
  10    -2.068909661649
  11     0.000646285361
  12     0.087374254890
  13    -0.913851704393
  14    -0.001268906759
  15     0.062788281296
  16     0.252419112577
  17    -0.315207393873
  18     0.076967573581
  19    -0.000972865842
  20     0.000835144351
  21     0.116545666418
  22     0.383993944879
  23    -0.500539611297
  24    -0.218376106781
  25    -0.000000486104
  26    -0.000062605502
  27    -0.087616198524
  28     0.120487694400
  29    -0.000706888324
  30     0.014234829964
  31    -0.385529168005
  32     0.000762280303
  33     0.103314635534
  34     0.223877962926
  35     0.000186109904
  36    -0.000569845698
  37    -0.001065016498
  38     0.026883211961
  39    -0.123290955642
  40     0.132228012695
  41    -0.963925427077
  42    -0.012075488167
  43     0.116692962261
  44    -0.000134427627
  45    -0.182106758780
  46     0.251127191946
  47    -0.000820434438
  48    -0.308030373781
  49     0.505097326974
  50    -0.000259075589
  51     0.014644777358
  52     0.003953730504
  53    -0.018598507862
  54    -0.028564148298
  55     0.000178197521
  56    -0.000016647905
  57    -0.092316901042
  58    -0.061895215259
  59     0.154212116301
  60     0.240315227033
  61    -0.001466779053
  62     0.000140061772
  63    -0.016128078331
  64    -0.028108533716
  65     0.000242537044
  66    -0.007864964276
  67     0.053470915387
  68    -0.000389367655
  69     0.029503051973
  70    -0.015759360105
  71     0.000063970064
  72     0.000053265284
  73     0.052191886759
  74     0.588014318789
  75    -0.019310450553
  76     0.085491236232
  77    -0.019650378982
  78    -0.000051079705
  79    -0.147901407540
  80    -1.613115045871
  81    -0.728889275353
  82     0.080910096735
  83    -0.153113647177
  84     0.000015019496
 Sym=     1a
 Ene= 1.74009212947401E+00
Spin= Alpha
 Occup= 0
  1      0.003932887507
  2     -0.007313293912
  3      0.053197729857
  4     -0.163175139840
  5      0.093147079856
  6      0.001163384977
  7     -0.001308193379
  8     -0.706097837282
  9     -0.004635677032
  10     0.030332787490
  11     0.894273320437
  12     0.012387250522
  13    -0.089795666032
  14    -0.837675420292
  15    -0.004698971420
  16    -0.005313092702
  17     0.010012064122
  18     0.000386804240
  19     0.463171764582
  20     0.000025215973
  21    -0.011654778602
  22    -0.020740544445
  23     0.032395323047
  24     0.027504928980
  25     0.712863180171
  26    -0.000003426983
  27     0.025230978428
  28     0.011378350248
  29    -0.366587692545
  30    -0.016802317502
  31    -0.013091760906
  32     0.120820307833
  33    -0.017048592240
  34    -0.002173897869
  35     0.371008692314
  36    -0.000063114118
  37    -0.000327306921
  38    -0.001912527981
  39     0.006967416360
  40     0.030517105549
  41     0.001555040547
  42     0.007092554413
  43     0.001471821979
  44    -0.037331381631
  45     0.013211694112
  46     0.003609439715
  47     0.094600102221
  48     0.006560523239
  49     0.034290428973
  50     0.612534931220
  51    -0.000002760610
  52    -0.000849146604
  53     0.000851907214
  54    -0.001188242980
  55    -0.038656864256
  56     0.000000188871
  57     0.001545358249
  58     0.005131847824
  59    -0.006677206073
  60     0.009996898441
  61     0.325228025377
  62    -0.000001589008
  63     0.000151327121
  64    -0.000674891368
  65    -0.020726822863
  66     0.000254494101
  67     0.000951442518
  68     0.048833181900
  69    -0.000457520739
  70    -0.000045980732
  71    -0.021025230972
  72    -0.000003596080
  73     0.000223094797
  74     0.031461153603
  75     0.023242556386
  76    -0.004307948626
  77    -0.003052005832
  78    -0.145154987010
  79     0.006542199095
  80     0.072686231732
  81    -0.104601189303
  82    -0.012288801916
  83     0.015288587891
  84    -0.145187982179
 Sym=     1a
 Ene= 1.74703886742796E+00
Spin= Alpha
 Occup= 0
  1     -0.145648400775
  2      0.025290423602
  3      0.823151385718
  4     -2.776064912100
  5     -2.795205685698
  6      0.755494821460
  7     -0.000001104338
  8      0.000642403791
  9      0.546254915542
  10     0.000005696073
  11     0.000466857027
  12     1.090558689477
  13    -0.000001374407
  14     0.000924979455
  15    -0.630171825392
  16     0.353823480409
  17     0.276348344983
  18    -0.000001020417
  19    -0.000888143261
  20     0.000000002328
  21    -0.685153160406
  22     0.390996476788
  23     0.294156683618
  24     0.000004995419
  25    -0.000960419188
  26     0.000000058022
  27     0.317278630163
  28     0.000000284370
  29    -0.000343175004
  30    -0.244795012444
  31     0.000000429861
  32     0.000667927869
  33    -0.180878938467
  34    -0.000000811384
  35    -0.000207510287
  36     0.000000026649
  37    -0.001980846220
  38    -0.144538142622
  39     0.637163094302
  40    -0.611293786786
  41     4.215834672671
  42     0.150372930344
  43    -0.000000043204
  44     0.000127050133
  45     0.778413452558
  46     0.000000487537
  47     0.000660468623
  48     1.063030329909
  49     0.000001238236
  50     0.000901382304
  51    -0.055444169272
  52     0.034404533572
  53     0.021039635700
  54    -0.000000058113
  55    -0.000074838245
  56     0.000000000495
  57     0.444507423020
  58    -0.251280763211
  59    -0.193226659809
  60     0.000000476918
  61     0.000624122207
  62    -0.000000004172
  63     0.116316170969
  64     0.000000078960
  65    -0.000145552995
  66    -0.079341821629
  67    -0.000000167318
  68     0.000262599506
  69    -0.076712697472
  70     0.000000061382
  71    -0.000067319671
  72     0.000000001075
  73     0.100731927472
  74     0.224788981100
  75     0.548362928397
  76     0.020730970895
  77    -0.004707146869
  78     0.000017527719
  79     0.100733064093
  80     0.224798868453
  81     0.548359238658
  82     0.020730748122
  83     0.004708840933
  84     0.000017553907
 Sym=     1a
 Ene= 1.93721932002539E+00
Spin= Alpha
 Occup= 0
  1     -0.000002334322
  2     -0.000034928073
  3     -0.000623095177
  4      0.001737910800
  5      0.000151118697
  6      0.000215572004
  7     -0.000298011458
  8     -0.000002008932
  9     -0.002100132460
  10    -0.003888200404
  11     0.000076160442
  12    -0.000012161940
  13    -0.001097219961
  14    -0.000055027882
  15     0.000263507043
  16    -0.000103407321
  17    -0.000160099722
  18     0.000656590432
  19    -0.000022644940
  20    -0.029290791195
  21     0.001140275642
  22    -0.000705136186
  23    -0.000435139456
  24    -0.000090993859
  25    -0.000068404492
  26    -0.097074680310
  27    -0.000495974640
  28    -0.000216775781
  29    -0.000035910642
  30     0.000239277750
  31    -0.001454390066
  32     0.000068843190
  33     0.000426142055
  34     0.001745225295
  35    -0.000020664008
  36     0.118496198272
  37     0.000383461843
  38    -0.000422043715
  39     0.000544739183
  40    -0.002656929928
  41    -0.000219222304
  42     0.000125358584
  43     0.000844610063
  44     0.000161121947
  45    -0.001317418469
  46    -0.000374301210
  47    -0.000306857500
  48     0.000124910129
  49     0.001976418932
  50     0.000126860312
  51    -0.001303453770
  52     0.000175340856
  53     0.001128112914
  54    -0.000204719955
  55    -0.000009347300
  56     0.033785595853
  57     0.000651546123
  58    -0.000105763761
  59    -0.000545782362
  60     0.002076946531
  61    -0.000059506297
  62     1.001891894806
  63     0.000153804648
  64     0.013711922178
  65    -0.000005767518
  66    -0.000489707772
  67     0.002745972187
  68    -0.000008035116
  69     0.000283357183
  70    -0.021142446242
  71     0.000015773053
  72     0.301479705409
  73     0.000474411423
  74     0.002180921726
  75     0.000114540499
  76    -0.000284266237
  77    -0.000441751074
  78    -0.005919510847
  79    -0.000442334738
  80    -0.001658968647
  81    -0.000381518037
  82     0.000180018604
  83    -0.000438688864
  84     0.005929123215
 Sym=     1a
 Ene= 1.96848804077306E+00
Spin= Alpha
 Occup= 0
  1     -0.000167132485
  2      0.000224623967
  3      0.000458155252
  4     -0.002715596906
  5     -0.002093117163
  6     -0.000130542599
  7      0.000692386133
  8     -0.000038316068
  9      0.001297094598
  10    -0.000015478201
  11     0.000095137763
  12    -0.000214584420
  13    -0.000955566108
  14    -0.000035891817
  15    -0.000010116481
  16    -0.000396934029
  17     0.000407050510
  18     0.000500922700
  19    -0.000050867928
  20    -0.865039716050
  21    -0.000340559341
  22    -0.000759752758
  23     0.001100312099
  24     0.001014900256
  25    -0.000055979600
  26     1.329594301456
  27     0.001766561913
  28     0.000672131001
  29    -0.000003176374
  30    -0.000293912093
  31    -0.000509501296
  32    -0.000000174098
  33    -0.002076179422
  34    -0.000392257069
  35     0.000004435651
  36     0.042338372348
  37     0.000020986896
  38    -0.000085838039
  39     0.000439488926
  40     0.000934301269
  41     0.001562700975
  42     0.000313504096
  43     0.000150818191
  44    -0.000005216258
  45     0.000787281531
  46     0.000629678215
  47    -0.000027334883
  48     0.000455003777
  49     0.000925701514
  50    -0.000025001883
  51    -0.000021509169
  52    -0.000039402242
  53     0.000060911411
  54    -0.000091757898
  55     0.000004950096
  56     0.025745574408
  57     0.000185167592
  58     0.000348370761
  59    -0.000533538353
  60     0.000771975379
  61    -0.000041621170
  62    -0.216602059945
  63     0.000062110704
  64    -0.000021854224
  65     0.000003818790
  66     0.000062829864
  67     0.000020418122
  68    -0.000006925920
  69    -0.000146160118
  70     0.000008902397
  71     0.000001802475
  72     0.000215625206
  73    -0.000161901192
  74    -0.000081413438
  75     0.001423058914
  76     0.000022234052
  77     0.000247364516
  78    -0.207257443289
  79     0.000282318463
  80     0.001941949209
  81    -0.000062177658
  82    -0.000609799332
  83     0.000313079486
  84     0.207261752664
 Sym=     1a
 Ene= 1.97741233569991E+00
Spin= Alpha
 Occup= 0
  1      0.000798110382
  2     -0.001499498598
  3     -0.004001003396
  4      0.075329193296
  5      0.006991605172
  6     -0.003560453136
  7     -0.000470219437
  8     -0.118052936087
  9     -0.044398221391
  10    -0.003420036768
  11    -0.558379569654
  12    -0.009230106640
  13     0.008071510066
  14    -0.056540494440
  15     0.002373007591
  16    -0.001157752811
  17    -0.001215254780
  18     0.001120770264
  19     0.152510187987
  20     0.000000972942
  21     0.013426147199
  22    -0.007748962433
  23    -0.005677184766
  24     0.007248956783
  25     0.389939675778
  26     0.000005985515
  27    -0.001709749521
  28     0.001905875693
  29     0.160307109782
  30     0.001946145187
  31    -0.002893358409
  32    -0.295534160885
  33     0.000347724505
  34     0.000336357844
  35     0.080459604035
  36    -0.000003244317
  37     0.000291517594
  38     0.001773112706
  39    -0.005698005268
  40    -0.005610117521
  41    -0.073600286802
  42     0.008205561458
  43    -0.006248786494
  44     0.046625295741
  45    -0.030265598330
  46     0.014620912787
  47     0.332384487765
  48    -0.030565214838
  49    -0.006424437982
  50     0.157874755867
  51     0.003695012952
  52    -0.002029317519
  53    -0.001665695433
  54    -0.004560531663
  55     0.048590605139
  56    -0.000004980053
  57    -0.020983346272
  58     0.009004077771
  59     0.011979268501
  60     0.008193866254
  61     1.358440197978
  62     0.000008595327
  63     0.004152632216
  64    -0.000313009226
  65    -0.077403865584
  66     0.000036852595
  67     0.000749211809
  68     0.248234774611
  69    -0.005608193347
  70    -0.000329265865
  71    -0.144386591511
  72     0.000000446610
  73    -0.000264573530
  74    -0.002687343708
  75    -0.002102015109
  76    -0.000182461197
  77     0.000762329489
  78    -0.002760985257
  79     0.000370129166
  80     0.002529451451
  81     0.006217879059
  82     0.000232248583
  83     0.000236780915
  84    -0.002760732359
 Sym=     1a
 Ene= 2.02949508160883E+00
Spin= Alpha
 Occup= 0
  1     -0.008147765347
  2      0.010660063742
  3     -0.018597749266
  4      0.035822726184
  5     -0.031415216974
  6     -0.000072398543
  7      0.000405183151
  8     -0.000013522426
  9      0.007595578117
  10    -0.002040992141
  11     0.000068577668
  12    -0.011797279716
  13     0.000958809154
  14    -0.000025726064
  15    -0.001371831103
  16    -0.003812795698
  17     0.005184626801
  18    -0.000326387768
  19    -0.000036530815
  20     0.753974349770
  21     0.002340766219
  22     0.004100859051
  23    -0.006441625270
  24     0.002081206429
  25    -0.000043686750
  26     0.318034818150
  27    -0.001147155314
  28     0.003119897825
  29    -0.000011062563
  30     0.003483475232
  31    -0.003336195673
  32     0.000045362416
  33    -0.001944404874
  34    -0.000849586499
  35    -0.000030520431
  36    -0.415608941383
  37    -0.000003379232
  38     0.000415211334
  39    -0.002923560357
  40     0.003375191704
  41    -0.006431281682
  42    -0.000779890452
  43     0.000430600881
  44    -0.000007685439
  45     0.001710491001
  46     0.001895222873
  47    -0.000032405797
  48    -0.001939098558
  49     0.000908464722
  50    -0.000028344032
  51    -0.000047961716
  52     0.000095395039
  53    -0.000047433323
  54    -0.000307996428
  55     0.000005935208
  56     0.026694934788
  57     0.001429327375
  58    -0.000981906336
  59    -0.000447421039
  60     0.002591228258
  61    -0.000048097931
  62    -0.224589196325
  63     0.000681993532
  64    -0.000315503962
  65     0.000003740930
  66    -0.000188539602
  67     0.000609839103
  68    -0.000007774869
  69    -0.000726450737
  70    -0.000186546119
  71     0.000002755884
  72    -0.055242436403
  73    -0.000513590013
  74    -0.010235212117
  75     0.014927464570
  76     0.001255638590
  77     0.000952925746
  78     0.010570444975
  79    -0.000280142236
  80    -0.009664161130
  81     0.016368489852
  82     0.000188525725
  83    -0.001520623204
  84    -0.010558362032
 Sym=     1a
 Ene= 2.05625034494476E+00
Spin= Alpha
 Occup= 0
  1      0.000000024840
  2      0.000000955474
  3     -0.000000985294
  4     -0.000013876415
  5     -0.000001115737
  6     -0.000058311720
  7     -0.000000662623
  8      0.068225471182
  9      0.000333419349
  10    -0.000016363508
  11    -0.401390806705
  12     0.000028938499
  13     0.000002514134
  14    -0.033639047481
  15     0.000042629748
  16    -0.000001487587
  17    -0.000041142161
  18     0.000041118942
  19    -0.029104407781
  20    -0.050606251914
  21     0.000368782864
  22    -0.000007455567
  23    -0.000361327297
  24     0.000326556896
  25    -0.251285865280
  26    -0.395173896296
  27     0.000032089528
  28    -0.000002839884
  29     0.177205198998
  30     0.000182861999
  31     0.000326360519
  32    -0.016360920503
  33    -0.000225914619
  34    -0.000322550415
  35    -0.221384802053
  36    -0.223567768970
  37     0.000000016081
  38    -0.000000064755
  39     0.000000506958
  40    -0.000001763701
  41     0.000004199091
  42     0.000005440922
  43    -0.000000092961
  44    -0.006379152392
  45     0.000018736030
  46     0.000000038756
  47    -0.021456784307
  48    -0.000023659391
  49     0.000000015746
  50     0.029616851997
  51    -0.000000275854
  52    -0.000000019942
  53     0.000000295796
  54     0.000003582984
  55     0.000127608868
  56    -0.004280738866
  57     0.000002320806
  58     0.000000167777
  59    -0.000002488583
  60    -0.000030144278
  61    -0.001073595922
  62     0.036014611356
  63     0.000003692642
  64     0.000000034223
  65    -0.004676239455
  66    -0.000007266782
  67     0.000019246388
  68    -0.001867129223
  69     0.000002312583
  70    -0.000019292302
  71     0.008140962803
  72    -0.012975401758
  73     0.000001113605
  74     0.000024300795
  75    -0.000008330258
  76    -0.001133010880
  77    -0.000003833310
  78     1.332919634798
  79     0.000000615514
  80    -0.000003361204
  81     0.000003925821
  82     0.000016075900
  83    -0.000000364010
  84    -0.019712070483
 Sym=     1a
 Ene= 2.05625035828832E+00
Spin= Alpha
 Occup= 0
  1      0.000000013578
  2      0.000001109705
  3     -0.000001399951
  4     -0.000015227485
  5     -0.000001196714
  6     -0.000058340666
  7      0.000000918225
  8      0.068225458937
  9      0.000332187576
  10     0.000017830928
  11    -0.401390862622
  12     0.000029066470
  13    -0.000003742399
  14    -0.033639053886
  15     0.000042571359
  16    -0.000001534552
  17    -0.000041036807
  18    -0.000040914537
  19    -0.029104415554
  20     0.050606270648
  21     0.000368051790
  22    -0.000007121493
  23    -0.000360930297
  24    -0.000325224191
  25    -0.251285832551
  26     0.395173915284
  27     0.000032101441
  28     0.000002518031
  29     0.177205208534
  30     0.000182681556
  31    -0.000325793853
  32    -0.016360909951
  33    -0.000225750159
  34     0.000322415560
  35    -0.221384825399
  36     0.223567759708
  37     0.000000019851
  38    -0.000000068312
  39     0.000000558602
  40    -0.000001789719
  41     0.000004792313
  42     0.000005429041
  43     0.000000086315
  44    -0.006379154500
  45     0.000018833270
  46    -0.000000006826
  47    -0.021456767465
  48    -0.000023552346
  49     0.000000361870
  50     0.029616880628
  51    -0.000000283657
  52    -0.000000009038
  53     0.000000292695
  54    -0.000003592995
  55     0.000127606374
  56     0.004280740729
  57     0.000002386454
  58     0.000000076043
  59    -0.000002462497
  60     0.000030228499
  61    -0.001073574938
  62    -0.036014627030
  63     0.000003708345
  64    -0.000000003210
  65    -0.004676237916
  66    -0.000007306024
  67    -0.000019302006
  68    -0.001867135109
  69     0.000002330757
  70     0.000019306313
  71     0.008140966625
  72     0.012975394052
  73     0.000000450491
  74    -0.000003751903
  75     0.000005215490
  76     0.000016158022
  77     0.000000434636
  78    -0.019712066284
  79    -0.000000181321
  80     0.000029454410
  81    -0.000011482917
  82    -0.001131730406
  83     0.000006026977
  84     1.332919677395
 Sym=     1a
 Ene= 2.10077384925579E+00
Spin= Alpha
 Occup= 0
  1     -0.001190739096
  2     -0.001163491944
  3     -0.025962809001
  4      0.107504454636
  5      0.010857626162
  6      0.006607734041
  7     -0.053042379197
  8      0.000026765883
  9     -0.167470762251
  10    -1.040580718105
  11     0.000075554355
  12     0.009517775397
  13    -0.221693512509
  14     0.000025845917
  15     0.018050906574
  16    -0.007932535862
  17    -0.010118370712
  18     0.130305091833
  19    -0.000004365657
  20     0.000126971563
  21     0.093453016456
  22    -0.055245279531
  23    -0.038207736925
  24     0.258678210356
  25    -0.000005613496
  26     0.000288692206
  27    -0.022320398048
  28     0.164516274104
  29     0.000007948014
  30     0.007241350770
  31    -0.294887176108
  32     0.000000872780
  33     0.022704605621
  34     0.074165432727
  35    -0.000011536160
  36    -0.000395955670
  37     0.016150847486
  38    -0.047766551108
  39     0.188199690263
  40    -0.396722130933
  41     0.068835889874
  42    -0.022965988140
  43     0.107374352427
  44     0.000053042849
  45    -0.074184406720
  46     0.195624144871
  47    -0.000224131366
  48     0.008692147667
  49     0.416982615180
  50    -0.000087115068
  51    -0.012568051605
  52     0.005617126098
  53     0.006950925507
  54     0.106007488818
  55     0.000077057210
  56     0.000005339415
  57     0.015493375381
  58    -0.042691196457
  59     0.027197821076
  60     1.335171651428
  61    -0.000481946489
  62     0.000146476923
  63    -0.013339437416
  64    -0.173364677297
  65     0.000012234849
  66     0.000554914412
  67     0.250669952474
  68    -0.000008527946
  69     0.017341818895
  70    -0.018076830474
  71    -0.000007886827
  72     0.000338907339
  73     0.020502531779
  74     0.436564521308
  75     0.019777520068
  76    -0.002389992236
  77    -0.039538711880
  78    -0.000004023738
  79    -0.012737010220
  80    -0.389289000770
  81    -0.047319764802
  82    -0.008060535712
  83    -0.037694220109
  84    -0.000001304055
 Sym=     1a
 Ene= 2.10622759821218E+00
Spin= Alpha
 Occup= 0
  1     -0.012960741203
  2      0.032796952809
  3     -0.282136961366
  4      0.414764430012
  5      0.060409881943
  6     -0.000851818287
  7     -0.062233937961
  8     -0.000000681381
  9     -0.044378441617
  10     0.150403764245
  11    -0.000038154850
  12     0.130217125642
  13     0.683519709421
  14     0.000109600669
  15    -0.022657062956
  16     0.052910863772
  17    -0.030253800816
  18     0.013519066826
  19     0.000007327678
  20     0.000011190703
  21    -0.338329790714
  22     0.391935852949
  23    -0.053606062235
  24    -0.170856888111
  25    -0.000277994586
  26    -0.000146903580
  27    -0.072464628392
  28     0.166562497567
  29    -0.000003610307
  30     0.099661755211
  31    -0.165461974393
  32    -0.000077228488
  33    -0.002440254181
  34    -0.058005065844
  35     0.000082072223
  36    -0.000104902386
  37     0.001708511783
  38    -0.002901260485
  39     0.028703860450
  40    -0.006246435320
  41     0.281028776585
  42    -0.010176249419
  43     0.004686294881
  44    -0.000008688549
  45     0.023702685174
  46     0.004476239950
  47     0.000020114081
  48     0.024371264256
  49    -0.212048299324
  50     0.000020962241
  51     0.000355113948
  52     0.004104064853
  53    -0.004459178801
  54     0.008167689266
  55     0.000004687293
  56     0.000006885212
  57    -0.002987636302
  58    -0.034528221710
  59     0.037515858012
  60    -0.068716210870
  61    -0.000039435024
  62    -0.000057926503
  63    -0.001637119577
  64    -0.012527369461
  65     0.000011924619
  66    -0.004081380587
  67     0.018989040706
  68    -0.000012632131
  69     0.006277806983
  70    -0.002181810890
  71    -0.000003366424
  72     0.000020917174
  73    -1.090298235793
  74     1.540188790737
  75    -1.786441581715
  76     0.885286901214
  77    -0.200314502076
  78     0.000749626164
  79    -0.064085597258
  80    -0.111626194071
  81     0.606762311695
  82     0.041248608484
  83    -0.036425786591
  84     0.000034260373
 Sym=     1a
 Ene= 2.12317543583251E+00
Spin= Alpha
 Occup= 0
  1     -0.012607978519
  2      0.017270308279
  3     -0.066881855482
  4      0.201083382961
  5     -0.072667577411
  6      0.001851508426
  7     -0.013482979106
  8     -0.729736978455
  9     -0.011696117576
  10     0.028540040494
  11     1.120516012670
  12    -0.012060767096
  13    -0.017098449034
  14     0.374382287100
  15     0.006655416252
  16     0.005001969465
  17    -0.011657385717
  18     0.002060014953
  19    -0.676394438839
  20    -0.000024927105
  21     0.013879660171
  22     0.031802456725
  23    -0.045682116896
  24    -0.032202858336
  25    -0.518091887330
  26     0.000046264594
  27    -0.045194805229
  28    -0.020582574332
  29    -0.624907819172
  30     0.020343461653
  31     0.026287747777
  32     0.583883811372
  33     0.040291732379
  34     0.001326673438
  35     0.254518006631
  36     0.000132936608
  37     0.000099782595
  38     0.003191889766
  39    -0.013990314373
  40    -0.035191880788
  41    -0.025593220412
  42    -0.010749713346
  43    -0.004213580657
  44    -0.109563111519
  45    -0.020003408274
  46    -0.018821072783
  47    -0.471954200734
  48    -0.014698882280
  49    -0.008980242983
  50    -0.571458252598
  51     0.000484131434
  52     0.001107169163
  53    -0.001591300597
  54     0.002330965615
  55     0.081575768786
  56     0.000000125572
  57    -0.003420855204
  58    -0.008659453436
  59     0.012080308640
  60    -0.019610825286
  61    -0.686309411150
  62    -0.000001056462
  63    -0.000500655794
  64     0.001894329201
  65     0.096492558282
  66    -0.000932187017
  67    -0.003153667651
  68    -0.161485357436
  69     0.001603887251
  70     0.000612158332
  71     0.032027005651
  72     0.000005003085
  73    -0.002786394541
  74    -0.058079910169
  75     0.047468614392
  76     0.008326036253
  77     0.009060889736
  78    -0.061616085188
  79    -0.005320506468
  80    -0.067168962631
  81     0.022356446314
  82     0.014311120261
  83    -0.007831162603
  84    -0.061549963406
 Sym=     1a
 Ene= 2.14469213228113E+00
Spin= Alpha
 Occup= 0
  1     -0.067150847787
  2      0.087117155941
  3      0.710118878671
  4     -7.139037629145
  5     -0.679092637816
  6      0.199510881125
  7      0.002766628105
  8     -0.000526834549
  9      3.796829614839
  10     0.016944393877
  11    -0.000589717410
  12     0.800500763492
  13    -0.102395160298
  14     0.000093790869
  15    -0.221245399837
  16     0.088625224191
  17     0.132620175646
  18    -0.007027248296
  19     0.000510209822
  20    -0.000005018199
  21    -1.026593210404
  22     0.495622168209
  23     0.530971042195
  24    -0.079752969879
  25     0.000924137800
  26    -0.000062205593
  27     0.207028439304
  28    -0.015502628091
  29     0.000624953890
  30    -0.137709980399
  31     0.022003453250
  32    -0.001164102321
  33    -0.140047817736
  34    -0.001204495104
  35     0.000325638692
  36     0.000018562500
  37    -0.114750597835
  38     0.235373038264
  39    -0.736977064229
  40     1.438502016538
  41     6.449752969569
  42     0.134500828979
  43     0.078651608106
  44     0.000372175394
  45     1.236845731948
  46    -0.170864978906
  47     0.002609382127
  48     3.538954101035
  49     0.090002913982
  50     0.004868163509
  51    -0.116237917373
  52     0.062258972095
  53     0.053978945278
  54     0.058380826368
  55    -0.000022484325
  56     0.000060753901
  57     1.421985249225
  58    -0.387058553888
  59    -1.034926695337
  60    -0.070065539967
  61     0.011566929460
  62    -0.000109040274
  63     0.026686210021
  64    -0.013815983942
  65    -0.000088739020
  66    -0.092395369933
  67     0.015108571175
  68     0.000856646308
  69     0.056592062132
  70     0.003427516387
  71    -0.000737590420
  72     0.000003872758
  73    -0.000184480558
  74     0.137030830464
  75    -0.139037154092
  76    -0.006986769938
  77    -0.027561977963
  78    -0.000012653227
  79    -0.008469967854
  80     0.057054689060
  81    -0.240901086427
  82    -0.013795495031
  83     0.012284243702
  84    -0.000018057106
 Sym=     1a
 Ene= 2.17431344165567E+00
Spin= Alpha
 Occup= 0
  1      0.044069825840
  2     -0.148472335540
  3      0.597207082203
  4     -1.289524997811
  5      4.380226653561
  6      0.295744860318
  7     -0.086690740170
  8     -0.007577487920
  9     -1.241186435664
  10     0.255486621629
  11     0.020796637467
  12    -1.487278986438
  13     0.250522976645
  14    -0.006411999499
  15    -0.858491974780
  16     0.687251674783
  17     0.171240299997
  18    -0.018493509395
  19    -0.013950109052
  20     0.000916214397
  21     1.463471872201
  22    -1.208362504091
  23    -0.255109368110
  24     0.223378089148
  25    -0.014293312823
  26     0.000445049060
  27    -0.073763624001
  28     0.107714504006
  29    -0.000747044853
  30     0.283222352074
  31    -0.047642436991
  32     0.004728054318
  33    -0.184258065554
  34    -0.096871734881
  35    -0.003725788473
  36    -0.000438751111
  37    -0.040390906750
  38     0.071480575243
  39    -0.580278615109
  40     1.037642108544
  41    -4.385061119160
  42     0.069914898414
  43     0.001555205184
  44    -0.001678177731
  45    -0.199356395766
  46     0.049752938129
  47    -0.009075005557
  48    -0.628551747992
  49    -0.047569107882
  50    -0.009254820101
  51    -0.019463549714
  52    -0.015365439812
  53     0.034828989526
  54    -0.005826567076
  55     0.001552782592
  56     0.000023758901
  57     0.241755856213
  58     0.038722967140
  59    -0.280478823353
  60     0.049019962865
  61    -0.012999912170
  62    -0.000199887810
  63     0.116077153760
  64    -0.004429651499
  65     0.001170359341
  66    -0.055339526220
  67     0.004893287326
  68    -0.002212652381
  69    -0.100394317646
  70     0.001049713796
  71     0.000642450554
  72    -0.000060112754
  73    -0.192814673573
  74     0.808096990711
  75    -1.232060346426
  76    -0.175705625732
  77     0.023962444220
  78     0.001123132531
  79    -0.118706363580
  80     1.300495911448
  81    -0.985426551560
  82    -0.219914431571
  83     0.020901129159
  84     0.001026238344
 Sym=     1a
 Ene= 2.28402366751204E+00
Spin= Alpha
 Occup= 0
  1      0.035316454473
  2     -0.134367842807
  3      1.542113883070
  4     -4.404825424329
  5      1.166814135983
  6     -0.568836718383
  7     -0.012847307799
  8     -0.003009866717
  9      4.607763461339
  10    -0.200992753914
  11     0.014432856644
  12    -0.069103893801
  13     0.054321290091
  14    -0.002924757955
  15     0.158079818422
  16    -0.296074514337
  17     0.137994695915
  18     0.052533536156
  19    -0.008831659193
  20    -0.000016701580
  21    -2.880605674116
  22     2.292499161008
  23     0.588106513108
  24    -0.265511171433
  25    -0.012317735767
  26    -0.000280832099
  27     0.726791754849
  28     0.006470087287
  29    -0.001180721614
  30    -0.299527154544
  31    -0.068577030685
  32     0.004165376247
  33    -0.675566307053
  34     0.059896497688
  35    -0.002581271972
  36    -0.000323581993
  37    -0.031372165035
  38    -0.184602121645
  39     0.523415857617
  40     3.359249750358
  41     1.597717893691
  42     0.372313257096
  43    -0.000926556844
  44    -0.000572607245
  45     1.490642941813
  46    -0.024198814623
  47    -0.003660740128
  48     0.810319051055
  49    -0.060859194511
  50    -0.004199438192
  51     0.008200351493
  52     0.005984888972
  53    -0.014185240465
  54     0.000546952297
  55     0.000967703125
  56     0.000005033601
  57    -0.037083247367
  58    -0.085536938379
  59     0.122620185746
  60    -0.004601596205
  61    -0.008113486016
  62    -0.000042348565
  63    -0.104678336319
  64    -0.007670783345
  65     0.001002404905
  66     0.065210842818
  67     0.015190803508
  68    -0.001834497817
  69     0.075229882651
  70    -0.004899367708
  71     0.000489630512
  72     0.000004773902
  73    -0.074780046911
  74    -0.706781307562
  75    -0.335127091090
  76     0.296335125406
  77    -0.066488019782
  78     0.001053283336
  79    -0.140385373373
  80    -1.152622589129
  81    -0.189081945392
  82     0.300981061043
  83    -0.036675979581
  84     0.000966084695
 Sym=     1a
 Ene= 2.32683374499315E+00
Spin= Alpha
 Occup= 0
  1      0.002801845802
  2      0.114784225025
  3     -0.090400438888
  4     -1.814320177119
  5     -0.149258739608
  6     -0.035004940627
  7      0.171654559101
  8     -0.000029003260
  9     -1.089026374327
  10     1.642027912376
  11    -0.000911914586
  12    -0.003386959231
  13    -0.416996401409
  14    -0.000002197489
  15    -0.027321354780
  16    -0.109281269299
  17     0.136602624079
  18     0.210422511169
  19    -0.000159013646
  20     0.000176196549
  21    -0.273573944272
  22    -0.174724407874
  23     0.448298352146
  24     1.060526010189
  25    -0.000699940866
  26     0.000890503915
  27     0.097417315616
  28    -0.095980467785
  29     0.000290856853
  30    -0.285801504214
  31     0.327932848702
  32    -0.000150130768
  33     0.155102460272
  34    -0.199161538414
  35    -0.000240094649
  36     0.000510375610
  37     0.001610666366
  38    -0.002423427317
  39     0.029396260747
  40    -0.064079592854
  41     0.344401765831
  42    -0.000113016894
  43     0.001213684576
  44    -0.000000066330
  45     0.072338560365
  46     0.026800880578
  47     0.000061602502
  48     0.106766579423
  49     0.103357191052
  50     0.000090075253
  51    -0.008630296190
  52     0.005338070711
  53     0.003292225479
  54     0.000669055531
  55    -0.000011652385
  56     0.000000526691
  57     0.072608204540
  58    -0.044910130722
  59    -0.027698073818
  60    -0.005628882230
  61     0.000098033574
  62    -0.000004431140
  63     0.017119947077
  64     0.013859293135
  65     0.000016321584
  66    -0.031495176429
  67    -0.029224615044
  68     0.000004869201
  69     0.008526357168
  70     0.010630422102
  71    -0.000026766904
  72    -0.000039540345
  73    -0.076903490386
  74    -0.264530939399
  75     0.570738293245
  76     0.027861113505
  77     0.029195188185
  78     0.000023118358
  79    -0.067132962207
  80     3.345129327555
  81    -1.110842547231
  82     0.106798941619
  83     1.808914200396
  84     0.000091834150
 Sym=     1a
 Ene= 2.33953319753977E+00
Spin= Alpha
 Occup= 0
  1     -0.017716700356
  2      0.008149427486
  3     -0.248995186804
  4      0.622237377047
  5      0.075386384448
  6     -0.017032096332
  7     -0.002334810811
  8     -0.000014685233
  9      0.358755276382
  10    -0.339898469362
  11     0.000302072307
  12     0.172910537108
  13    -0.520029158427
  14     0.000145901750
  15    -0.003859199282
  16     0.066996496786
  17    -0.063137297504
  18    -0.076604970537
  19     0.000057473609
  20    -0.000064275809
  21    -0.097619837607
  22     0.252384963429
  23    -0.154765125822
  24    -0.222846125360
  25     0.000054405004
  26    -0.000185837896
  27    -0.086407455633
  28    -0.054397331755
  29    -0.000123114219
  30     0.181688273675
  31    -0.028614358955
  32     0.000013024428
  33    -0.065760506941
  34     0.101596037914
  35     0.000152150630
  36    -0.000125951103
  37     0.000842621121
  38    -0.009145973240
  39     0.056039897180
  40    -0.126817308508
  41     0.446741566083
  42    -0.010415583481
  43    -0.000209103698
  44    -0.000008873341
  45     0.018826660075
  46    -0.043786775037
  47     0.000015797282
  48     0.087943454138
  49     0.095891668318
  50     0.000074555650
  51     0.000831637148
  52     0.000672262168
  53    -0.001503899316
  54    -0.004191410605
  55     0.000002269665
  56    -0.000003539373
  57    -0.006996710060
  58    -0.005655860226
  59     0.012652570286
  60     0.035263076937
  61    -0.000019095095
  62     0.000029777367
  63    -0.005991143229
  64     0.002469932069
  65    -0.000004671734
  66     0.010477427001
  67    -0.001111635299
  68    -0.000002682976
  69    -0.002439464887
  70    -0.002202126305
  71     0.000008950765
  72     0.000001126052
  73    -0.010717768571
  74    -0.071562526100
  75     0.452298275376
  76     0.018673164094
  77     0.032433812451
  78     0.000015481656
  79    -1.458521475604
  80     1.282290102715
  81    -1.660132252294
  82     0.418262534014
  83    -0.536482748040
  84     0.000351535315
 Sym=     1a
 Ene= 2.43928357733568E+00
Spin= Alpha
 Occup= 0
  1     -0.009846598622
  2      0.013005931598
  3     -0.047475499600
  4      0.145114313303
  5     -0.035697517865
  6      0.002593208347
  7     -0.012246727426
  8     -0.686085626043
  9     -0.017434034700
  10     0.033231037391
  11     0.688981955196
  12    -0.006030231552
  13    -0.035444441893
  14    -0.700878033675
  15     0.004123461418
  16     0.002228747599
  17    -0.006352209017
  18     0.001500238920
  19    -0.085167094352
  20    -0.000013189255
  21     0.011404907263
  22     0.023615451006
  23    -0.035020358269
  24    -0.018380881600
  25     0.294739688032
  26     0.000038764108
  27    -0.034510355994
  28    -0.014147433240
  29     0.910778643863
  30     0.015611030584
  31     0.018582069109
  32    -0.902983312151
  33     0.030689470574
  34     0.000398704351
  35    -0.318954463928
  36     0.000096159136
  37    -0.000011470213
  38     0.002686279005
  39    -0.012030871227
  40    -0.027257903787
  41    -0.027587454192
  42    -0.008684186540
  43    -0.003173602487
  44     0.023253763249
  45    -0.017555010714
  46    -0.014550203776
  47     0.205373604546
  48    -0.013881448534
  49     0.000928574801
  50     0.363756778166
  51     0.000636417753
  52     0.000815547028
  53    -0.001451964781
  54     0.001618357905
  55    -0.045938572817
  56     0.000000092805
  57    -0.004391334589
  58    -0.006834692222
  59     0.011226026811
  60    -0.013615530694
  61     0.386491233754
  62    -0.000000780787
  63    -0.000862608249
  64     0.001420080865
  65    -0.057236366553
  66    -0.000832022822
  67    -0.002414063008
  68     0.087727536000
  69     0.001989333231
  70     0.000508824600
  71    -0.010936892161
  72     0.000003316021
  73    -0.002777585830
  74    -0.046553236082
  75     0.044764643058
  76     0.006589058543
  77     0.007315334253
  78     0.092198199498
  79    -0.002999520362
  80    -0.040393381015
  81    -0.007082485746
  82     0.009530894327
  83    -0.002897400171
  84     0.092245377989
 Sym=     1a
 Ene= 2.45241115367396E+00
Spin= Alpha
 Occup= 0
  1      0.019550066023
  2     -0.021309891654
  3      0.074103893786
  4     -0.285494258387
  5      0.135086769223
  6     -0.026195728820
  7      0.002658193452
  8      0.000641770526
  9      0.288445524227
  10     1.756565322641
  11    -0.000378739606
  12    -0.158848435853
  13    -0.129551930144
  14    -0.000171952053
  15    -0.062398759423
  16    -0.070542340868
  17     0.132941100291
  18    -0.685547580368
  19     0.000326741431
  20     0.000508059716
  21    -0.100616303739
  22     0.148943650190
  23    -0.048327346451
  24     2.495126577261
  25    -0.000007426989
  26     0.002246467821
  27     0.065713040305
  28    -0.585046126121
  29    -0.000438463070
  30    -0.103209775457
  31     0.817736085987
  32     0.000547458629
  33     0.015046480379
  34    -0.032814341199
  35     0.000040801309
  36     0.001824529222
  37    -0.004526014591
  38    -0.008530504359
  39    -0.001213803129
  40     0.307089562621
  41    -0.135725927191
  42     0.031499255852
  43    -0.026736561904
  44     0.000036402005
  45     0.110868359003
  46     0.189938928747
  47     0.000112829476
  48     0.031810704296
  49     0.491033380572
  50     0.000156759209
  51    -0.003980426260
  52     0.005445411640
  53    -0.001464985380
  54     0.001650288327
  55    -0.000004848679
  56    -0.000019704832
  57     0.032764685594
  58    -0.047171734827
  59     0.014407049233
  60    -0.013884166296
  61     0.000038036684
  62     0.000165780226
  63     0.006144001973
  64     0.102869994931
  65    -0.000000970804
  66    -0.009879653830
  67    -0.181836275535
  68     0.000018275059
  69     0.001636610190
  70     0.043821694629
  71    -0.000016972589
  72    -0.000159411696
  73    -0.160890752040
  74    -2.107292837161
  75     0.451438914416
  76    -0.107409132815
  77     0.416135189468
  78    -0.000368063722
  79     0.217616537879
  80     1.986156530863
  81    -0.402560920451
  82     0.118554480094
  83     0.455259468722
  84     0.000259532919
 Sym=     1a
 Ene= 2.51476563107930E+00
Spin= Alpha
 Occup= 0
  1     -0.004320213388
  2     -0.065788678978
  3      0.451759001370
  4     -1.082199925634
  5     -0.126297549426
  6     -0.194826697520
  7      0.019205605479
  8     -0.000791886109
  9     -0.000467292486
  10     0.151158274723
  11    -0.002880032725
  12     0.215202726259
  13    -0.306066744675
  14    -0.000255863097
  15     0.152997640602
  16    -0.055401179912
  17    -0.097596460690
  18    -0.045077002668
  19     0.001012405063
  20    -0.000038660107
  21     0.231629458321
  22    -0.099254348299
  23    -0.132375110022
  24    -0.286707914058
  25     0.002307043245
  26    -0.000235238830
  27    -0.108832754357
  28    -0.075122526952
  29     0.001042261401
  30     0.009245277791
  31     0.114778955210
  32    -0.001789995196
  33     0.136769184361
  34    -0.013991509066
  35     0.000391654790
  36     0.000128989768
  37     0.040137963302
  38    -0.092602697504
  39     0.508164373082
  40    -1.460350644862
  41     1.565315530474
  42     0.112478129590
  43     0.239018301883
  44     0.000622494997
  45    -0.562787016615
  46    -0.568243033199
  47     0.000652574165
  48     0.877311857783
  49     0.239926578526
  50     0.001981149652
  51    -0.032767489739
  52    -0.068043181860
  53     0.100810671599
  54     0.183443890745
  55     0.000134210798
  56     0.000195110390
  57     0.133873885471
  58    -0.761368150333
  59     0.627494264862
  60    -0.345954028181
  61     0.006676146395
  62    -0.000377146452
  63    -0.429555880913
  64     0.012149407755
  65     0.000233795481
  66     0.210969733884
  67    -0.030200831448
  68     0.000183110424
  69     0.365339956029
  70     0.013900690472
  71    -0.000496779977
  72    -0.000011415882
  73     0.015605587992
  74     0.200793406528
  75     0.088137744238
  76    -0.002685809749
  77    -0.015220121802
  78    -0.000007659770
  79    -0.008746574092
  80     0.012890836842
  81    -0.229422085315
  82    -0.020267836430
  83    -0.023316843155
  84    -0.000018380203
 Sym=     1a
 Ene= 2.55019805684894E+00
Spin= Alpha
 Occup= 0
  1      0.004967215181
  2     -0.006370306908
  3      0.012993750939
  4     -0.033060251841
  5      0.025139790101
  6      0.000266732390
  7      0.004088497920
  8      0.283173981004
  9     -0.002158241458
  10    -0.014304532068
  11    -0.991908731641
  12     0.003027408142
  13     0.014816994917
  14    -0.197752469052
  15    -0.001550392102
  16    -0.002501800383
  17     0.004052192485
  18    -0.000364125360
  19    -0.706054548314
  20     0.000020089900
  21    -0.000617762264
  22    -0.005655351925
  23     0.006273114189
  24     0.001623563570
  25     1.836471405377
  26    -0.000014676465
  27     0.009001004111
  28     0.002470983909
  29     0.140929070446
  30    -0.002319267526
  31    -0.004814466765
  32    -0.773283066735
  33    -0.009756846709
  34     0.001499293971
  35     0.584206877821
  36    -0.000035646679
  37    -0.000053363897
  38    -0.000331704823
  39     0.001508965503
  40     0.004959295890
  41    -0.003572333077
  42     0.001849602395
  43     0.000832512053
  44     0.106730945602
  45     0.001137063981
  46     0.003800308477
  47     0.633542236587
  48    -0.000099485006
  49    -0.002198866106
  50     0.945438507197
  51    -0.000042861234
  52    -0.000196933249
  53     0.000239794483
  54    -0.000386678669
  55    -0.092803252873
  56     0.000000359372
  57    -0.000125810013
  58     0.001615291897
  59    -0.001489481884
  60     0.003253195931
  61     0.780769145110
  62    -0.000003023463
  63     0.000328821272
  64    -0.000369917356
  65     0.000405760062
  66     0.000169349978
  67     0.000681111148
  68     0.011891742960
  69    -0.000610510008
  70    -0.000184814936
  71    -0.012436127209
  72    -0.000001823471
  73     0.000790629243
  74     0.015382071127
  75    -0.021581537344
  76    -0.002138292833
  77    -0.002743729669
  78    -0.167729603249
  79    -0.000508520970
  80     0.006287234613
  81     0.000861576493
  82    -0.002002215144
  83    -0.000114921378
  84    -0.167744447096
 Sym=     1a
 Ene= 2.55802961399388E+00
Spin= Alpha
 Occup= 0
  1      0.012221616347
  2      0.087555159448
  3      0.062876618755
  4     -1.782701038460
  5     -0.159759034659
  6     -0.016766577741
  7     -0.141280466900
  8     -0.000013474305
  9     -1.084945061437
  10    -1.490339430561
  11    -0.000909951779
  12    -0.101103180196
  13     0.056091761227
  14    -0.000084840942
  15    -0.020923102530
  16    -0.123374573220
  17     0.144297675750
  18    -0.212054973299
  19    -0.000160280251
  20    -0.000177697484
  21    -0.181837183569
  22    -0.262584060508
  23     0.444421244077
  24    -0.986298866470
  25    -0.000606963734
  26    -0.000827976204
  27     0.124552299668
  28     0.055261653250
  29     0.000305334206
  30    -0.329876129737
  31    -0.289237964487
  32    -0.000132513278
  33     0.162771684450
  34     0.215096676557
  35    -0.000277135546
  36    -0.000488508336
  37     0.000875034225
  38     0.003627613063
  39    -0.009908639056
  40     0.029480010189
  41     0.011689956289
  42     0.005605119862
  43    -0.000600255615
  44     0.000004791455
  45     0.046803319097
  46    -0.048136686509
  47     0.000039981528
  48     0.030128634585
  49    -0.038285546912
  50     0.000025246114
  51    -0.007246304154
  52     0.004107098183
  53     0.003139205971
  54    -0.002480151344
  55    -0.000010143340
  56    -0.000002068819
  57     0.060964435351
  58    -0.034553741652
  59    -0.026410693699
  60     0.020865950847
  61     0.000085337710
  62     0.000017405340
  63     0.017048949132
  64    -0.010380812045
  65     0.000016749751
  66    -0.031629016241
  67     0.023831661623
  68     0.000004422395
  69     0.008755450719
  70    -0.009904340786
  71    -0.000026894544
  72     0.000033479578
  73     0.766199325025
  74     1.954438612702
  75     0.024936816279
  76    -0.104322565507
  77    -1.773588237682
  78    -0.000084514250
  79    -0.059023660731
  80    -0.171474281309
  81     0.213402855146
  82     0.013631487712
  83    -0.005484593367
  84     0.000011306848
 Sym=     1a
 Ene= 2.57626827799025E+00
Spin= Alpha
 Occup= 0
  1      0.003315584825
  2     -0.142702071637
  3      0.002127273598
  4      3.000588698035
  5      0.259935572239
  6      0.118117139420
  7      0.122971400694
  8      0.000099266935
  9      0.876481383884
  10     2.673253973128
  11     0.000727905960
  12    -0.092220558290
  13    -0.122842765222
  14    -0.000079782813
  15    -0.011151089121
  16     0.191912273845
  17    -0.180761184724
  18     0.229827856648
  19     0.000164650234
  20     0.000191914160
  21    -0.309853380550
  22     0.906758418691
  23    -0.596905038141
  24     0.843153257832
  25     0.000276376562
  26     0.000702645129
  27    -0.178251166761
  28     0.211810752560
  29    -0.000217346063
  30     0.355897444059
  31     0.000576776897
  32    -0.000004566637
  33    -0.116748408491
  34    -0.284750721551
  35     0.000296166980
  36     0.000275105000
  37    -0.000014000608
  38     0.022950881380
  39    -0.132853098960
  40     0.498008310909
  41    -1.101133588151
  42    -0.002731266737
  43     0.019882081822
  44    -0.000002425065
  45    -0.121267751350
  46    -0.062134516323
  47    -0.000102684994
  48    -0.400566412449
  49    -0.212165241206
  50    -0.000337934630
  51     0.016071464155
  52     0.001201959936
  53    -0.017273424091
  54     0.015960372940
  55     0.000032570543
  56     0.000013385458
  57    -0.135212063516
  58    -0.010112301018
  59     0.145324364534
  60    -0.134277433531
  61    -0.000274021728
  62    -0.000112614217
  63    -0.021405503527
  64    -0.007651968903
  65     0.000022207652
  66     0.016971516252
  67     0.003247117341
  68    -0.000044376591
  69     0.011746980336
  70     0.007019076235
  71     0.000014581899
  72    -0.000003827153
  73     0.658929796573
  74    -5.032544050077
  75     1.227070587999
  76     1.518233778621
  77     1.259314736971
  78     0.001282796109
  79    -0.033203729277
  80     0.369882801751
  81    -0.463078125570
  82     0.029090422067
  83     0.034479126669
  84     0.000024426113
 Sym=     1a
 Ene= 2.60140600780336E+00
Spin= Alpha
 Occup= 0
  1      0.000251366624
  2      0.125430995535
  3      0.074813935595
  4     -2.942323552475
  5     -0.261556588053
  6     -0.112770916238
  7      0.096497485547
  8     -0.000094772433
  9     -0.795620473578
  10     2.564880746220
  11    -0.000660268129
  12     0.055530253201
  13     0.075816937598
  14     0.000048792333
  15     0.017785269796
  16    -0.195987550184
  17     0.178202280388
  18     0.218701733249
  19    -0.000155727436
  20     0.000182598430
  21     0.399510412993
  22    -0.975597285650
  23     0.576086872657
  24     0.733466676303
  25    -0.000168895386
  26     0.000609941265
  27     0.188613649378
  28     0.252815148517
  29     0.000201486746
  30    -0.361419800001
  31    -0.054912603305
  32     0.000030211049
  33     0.108368035105
  34    -0.284274511391
  35    -0.000300533885
  36     0.000220801611
  37    -0.000494245953
  38    -0.021343093011
  39     0.119877475393
  40    -0.478129790449
  41     0.978676305269
  42     0.005378401800
  43     0.020605691290
  44     0.000004679811
  45     0.108529201185
  46    -0.059567748451
  47     0.000091869423
  48     0.377449600165
  49    -0.264583124730
  50     0.000318340776
  51    -0.015363679262
  52    -0.002434141280
  53     0.017797820542
  54     0.017570284814
  55    -0.000032387346
  56     0.000014747457
  57     0.129257344338
  58     0.020478860058
  59    -0.149736204396
  60    -0.147821906170
  61     0.000272480458
  62    -0.000124072960
  63     0.020565760995
  64    -0.011231451717
  65    -0.000025206541
  66    -0.014271043644
  67     0.009222227901
  68     0.000046124345
  69    -0.013320820112
  70     0.005846345813
  71    -0.000012306221
  72     0.000003248121
  73     0.051924847060
  74    -0.319275422428
  75     0.267038088813
  76    -0.040202583147
  77     0.022710340003
  78    -0.000033654215
  79    -0.326567319913
  80     4.319049733813
  81    -0.673149853177
  82    -1.708429842888
  83     1.101623377872
  84    -0.001443522400
 Sym=     1a
 Ene= 2.73669638055793E+00
Spin= Alpha
 Occup= 0
  1     -0.000784141447
  2      0.001010890449
  3     -0.004994164971
  4      0.016821965926
  5      0.002115650640
  6      0.000453459872
  7     -0.002284580650
  8     -0.035882049423
  9     -0.004044862629
  10     0.007119905919
  11     0.217279141267
  12     0.000646662235
  13    -0.008236069251
  14    -0.175746191664
  15     0.001094221355
  16    -0.000187961380
  17    -0.000906259975
  18     0.000281638154
  19    -0.524539183307
  20    -0.000030897382
  21     0.001575642694
  22     0.003301971332
  23    -0.004877614026
  24    -0.001550666065
  25     0.410553782529
  26     0.000027677788
  27    -0.005969861201
  28    -0.001464981016
  29     0.098764907571
  30     0.002861220595
  31     0.002329007560
  32     0.794741710615
  33     0.005148188682
  34    -0.000363529278
  35    -0.927248738887
  36     0.000032566770
  37    -0.000013112474
  38     0.000387312435
  39    -0.001697946254
  40    -0.003374276609
  41    -0.005766890926
  42    -0.000958766886
  43    -0.000453083275
  44    -0.074779673764
  45    -0.002505450927
  46    -0.002101554962
  47    -0.204326570471
  48    -0.002579259742
  49     0.001194016151
  50     0.203189391631
  51     0.000033428853
  52     0.000086905303
  53    -0.000120334156
  54     0.000202800619
  55     0.037607455347
  56    -0.000000286606
  57    -0.000124619273
  58    -0.000819069671
  59     0.000943688944
  60    -0.001706197375
  61    -0.316397936402
  62     0.000002411266
  63     0.000214670255
  64     0.000181756215
  65     0.077673317411
  66    -0.000150354192
  67    -0.000324848240
  68    -0.157944807993
  69    -0.000137656177
  70     0.000080996688
  71     0.053735117331
  72     0.000002317469
  73    -0.000682780292
  74    -0.006907032383
  75     0.005827541730
  76     0.000866850772
  77     0.001090708970
  78     0.062915376019
  79    -0.000275152565
  80    -0.003291644642
  81    -0.006395427983
  82     0.000879195117
  83     0.000136960546
  84     0.062934335171
 Sym=     1a
 Ene= 2.76710067718581E+00
Spin= Alpha
 Occup= 0
  1      0.292236982025
  2     -0.372885997540
  3     -1.101587429025
  4      5.789970521531
  5     -1.911415781112
  6     -0.049404738645
  7     -0.219179345851
  8      0.006162013309
  9      0.652557762103
  10     0.652921180243
  11    -0.024362474912
  12    -0.859242062461
  13    -0.055683540657
  14     0.007856354520
  15     0.188655070160
  16    -0.085859765359
  17    -0.102795304801
  18     0.032542280616
  19     0.020881657523
  20    -0.000962682544
  21     0.511466988793
  22     1.241758717603
  23    -1.753225706396
  24    -0.311701815571
  25     0.019549739095
  26    -0.000550661735
  27    -0.341040439386
  28    -0.195180855004
  29     0.000524275854
  30     0.917575117495
  31     0.431468958610
  32    -0.005491300107
  33    -0.460021354169
  34    -0.169606362793
  35     0.004787910238
  36     0.001084326276
  37     0.011516516990
  38     0.084300537736
  39    -0.332694167084
  40    -0.187615318076
  41    -1.639354756445
  42    -0.126568862228
  43    -0.061656728015
  44     0.001994255057
  45    -0.482735804393
  46    -0.262009403961
  47     0.010513518532
  48    -0.584290112252
  49    -0.192517605883
  50     0.008634646883
  51     0.005041265524
  52     0.015520614858
  53    -0.020561880382
  54     0.035392209534
  55    -0.002067537152
  56    -0.000000116518
  57    -0.161972832836
  58    -0.038786865113
  59     0.200759697949
  60    -0.297760925885
  61     0.017250331308
  62     0.000000980266
  63    -0.022889951355
  64     0.027707155440
  65    -0.002114646361
  66     0.056548637583
  67    -0.050969815577
  68     0.003780760724
  69    -0.025838545244
  70     0.013796765761
  71    -0.000943664917
  72     0.000002743048
  73    -0.338479496326
  74    -2.436079309768
  75     1.304248396954
  76     0.335265703156
  77     0.550401121229
  78    -0.000928545209
  79    -0.267973435657
  80    -2.155653679476
  81     1.124364504524
  82     0.367905075470
  83    -0.455109237489
  84    -0.000847677319
 Sym=     1a
 Ene= 2.94015799666776E+00
Spin= Alpha
 Occup= 0
  1     -0.000130396517
  2      0.000493811197
  3      0.002048368687
  4     -0.021753455626
  5     -0.002226983335
  6      0.000534445478
  7      0.000024546761
  8      0.011001015203
  9      0.017545066095
  10     0.000111761360
  11    -0.577805735808
  12     0.001601839684
  13     0.000198481735
  14     0.397287156298
  15    -0.001915826426
  16     0.000735110505
  17     0.001180715921
  18    -0.000011992344
  19     0.174105244379
  20    -0.000001659679
  21    -0.008351093695
  22     0.004000915208
  23     0.004350178487
  24    -0.000061647691
  25     0.519712768086
  26    -0.000011915490
  27     0.002993174964
  28     0.000055897311
  29     0.272100787412
  30    -0.001294317871
  31    -0.000049810698
  32    -0.518047050677
  33    -0.002721447742
  34    -0.000025183415
  35     0.152985536246
  36     0.000001269230
  37     0.006894881892
  38    -0.007652843694
  39     0.000552117365
  40     0.013779589600
  41     0.014464830585
  42    -0.000797070464
  43    -0.000111363541
  44    -1.159449866520
  45     0.009731391396
  46     0.000131812166
  47     2.221699208362
  48     0.006013952550
  49    -0.000185692762
  50    -0.914189431494
  51    -0.000104607098
  52    -0.001412611635
  53     0.001517218733
  54     0.000425461032
  55     0.027303894877
  56    -0.000009351112
  57     0.002652796584
  58    -0.000568507539
  59    -0.002084289045
  60    -0.000303035405
  61     0.473794587202
  62     0.000170911083
  63    -0.001040018292
  64    -0.000301008891
  65     0.019161072114
  66     0.000802038817
  67    -0.000074790109
  68     0.083179575484
  69     0.000593292142
  70     0.000478635913
  71    -0.108886851345
  72    -0.000035396954
  73    -0.000121047939
  74    -0.000460884213
  75    -0.000094765906
  76     0.000133864897
  77    -0.000196671795
  78    -0.035019674750
  79    -0.000118935991
  80    -0.000381328162
  81     0.000133521313
  82     0.000057778457
  83     0.000171712452
  84    -0.035023615400
 Sym=     1a
 Ene= 2.94383390274264E+00
Spin= Alpha
 Occup= 0
  1      0.003127826921
  2     -0.004138938928
  3      0.005860689830
  4     -0.008554080714
  5      0.025246275451
  6      0.001276085883
  7      0.000482954533
  8      0.000090422557
  9     -0.012086107256
  10    -0.002875299715
  11    -0.000210249481
  12     0.004138502291
  13    -0.000783528192
  14     0.000082885611
  15    -0.000648877128
  16    -0.001003844186
  17     0.001652721314
  18     0.000464404408
  19     0.000110412038
  20    -0.279686275291
  21     0.003703756235
  22    -0.000802731950
  23    -0.002901024285
  24    -0.008604700965
  25     0.000088043707
  26    -0.243650784245
  27    -0.003319014695
  28    -0.005735475363
  29     0.000006433940
  30    -0.001670056741
  31     0.007432908928
  32    -0.000022316833
  33     0.006122982226
  34     0.000262038750
  35     0.000013684797
  36    -1.102472278095
  37    -0.000079917899
  38     0.000309103705
  39    -0.001232518691
  40    -0.003403705915
  41    -0.009121463589
  42    -0.000488477229
  43    -0.000649718611
  44     0.000012619909
  45    -0.003482420196
  46    -0.003451429814
  47     0.000054671663
  48    -0.002243693979
  49    -0.002311073006
  50     0.000034697652
  51     0.000047524860
  52     0.000072978880
  53    -0.000120503740
  54     0.000476243245
  55    -0.000009982288
  56     0.027580066271
  57    -0.000555790762
  58    -0.000808241284
  59     0.001364032046
  60    -0.004006718361
  61     0.000083485608
  62    -0.232035963660
  63    -0.000116050041
  64     0.000438178149
  65    -0.000009031931
  66    -0.000303848663
  67    -0.000557419387
  68     0.000017141983
  69     0.000459546131
  70    -0.000030458289
  71    -0.000005024376
  72    -0.085427052680
  73     0.001597351078
  74     0.009799688037
  75    -0.010381386186
  76    -0.001746180916
  77    -0.001856263778
  78     0.238328205555
  79    -0.000251333160
  80    -0.001669701814
  81    -0.009755405083
  82     0.000906880170
  83     0.000910363326
  84    -0.238339325431
 Sym=     1a
 Ene= 2.95567117714790E+00
Spin= Alpha
 Occup= 0
  1      0.000000002996
  2     -0.000000149962
  3      0.000001945763
  4     -0.000005855571
  5      0.000005337042
  6      0.000000857362
  7     -0.124868500597
  8     -0.000000001080
  9     -0.000005478780
  10     1.161253681448
  11     0.000000045383
  12     0.000000370926
  13    -0.192419571393
  14    -0.000000008401
  15    -0.000000238683
  16     0.000000184831
  17     0.000000053852
  18     1.152384551206
  19    -0.000000009795
  20     0.000974214704
  21     0.000001890785
  22    -0.000003334128
  23     0.000001443343
  24     1.152836598210
  25    -0.000000068902
  26     0.000978333296
  27     0.000000097730
  28     0.078770616327
  29    -0.000000017759
  30    -0.000000684082
  31    -0.079481747074
  32     0.000000035247
  33     0.000000552963
  34    -0.026200124568
  35    -0.000000011421
  36    -0.000052463372
  37    -0.000000000458
  38     0.000000111274
  39    -0.000000361216
  40    -0.000001358571
  41    -0.000002360479
  42    -0.000000074168
  43     0.077236931560
  44    -0.000000005641
  45    -0.000000850399
  46     0.295402305069
  47    -0.000000032545
  48    -0.000000541009
  49     0.362646952357
  50    -0.000000035278
  51     0.000000018449
  52    -0.000000059232
  53     0.000000040783
  54    -0.068980321220
  55     0.000000005522
  56    -0.000058516967
  57    -0.000000032844
  58     0.000000368037
  59    -0.000000335193
  60     0.580343613046
  61    -0.000000046350
  62     0.000492313568
  63     0.000000034849
  64    -0.089040006336
  65     0.000000003453
  66    -0.000000033795
  67     0.157102287828
  68    -0.000000006252
  69    -0.000000012959
  70    -0.037642583698
  71     0.000000001620
  72     0.000190805062
  73    -0.212518726284
  74    -1.318698346996
  75     0.314712100405
  76     0.162751818961
  77     0.356111627354
  78     0.000134502252
  79     0.212519340032
  80     1.318707111094
  81    -0.314716986679
  82    -0.162753176052
  83     0.356112908012
  84    -0.000134496230
 Sym=     1a
 Ene= 3.17107192277387E+00
Spin= Alpha
 Occup= 0
  1      0.094240664077
  2     -0.131155525214
  3      0.285349285029
  4     -0.771115673355
  5      2.953264466948
  6      0.249309954905
  7      0.306569402298
  8      0.006402995614
  9     -1.761726428282
  10    -1.362773380672
  11    -0.008716575531
  12    -0.012247012840
  13    -0.370490291626
  14     0.004158636381
  15    -0.304900226440
  16    -0.667900912806
  17     0.972801139246
  18     0.175161126681
  19     0.002715977631
  20     0.000007807108
  21     0.918387860754
  22    -0.270431604182
  23    -0.647956256572
  24    -1.621534748574
  25    -0.002796207513
  26    -0.000456059944
  27    -0.135915524820
  28    -0.554553045749
  29    -0.000392622333
  30    -0.245750997418
  31     0.345283226877
  32     0.001270634124
  33     0.428100809036
  34     0.398727757578
  35    -0.000743875989
  36     0.005275447132
  37    -0.012783396768
  38     0.064996237106
  39    -0.324282273165
  40    -0.115531122692
  41    -2.028034600144
  42    -0.034142835434
  43    -0.036220748350
  44     0.000226413100
  45    -0.348063814653
  46    -0.357228427497
  47    -0.000519685491
  48    -0.464102455992
  49    -0.195575909162
  50    -0.003009510024
  51    -0.003612459113
  52     0.006838771653
  53    -0.003226312540
  54     0.046179365383
  55     0.000085615998
  56    -0.000111080765
  57     0.069446431641
  58    -0.110989144660
  59     0.041542713019
  60    -0.388515132648
  61    -0.000696289998
  62     0.000934542087
  63     0.053054440305
  64     0.020529511166
  65    -0.000185277353
  66    -0.060262830483
  67    -0.021941223258
  68     0.000365813274
  69    -0.010917170536
  70    -0.005602006249
  71    -0.000117237620
  72     0.000429894103
  73     0.349509624016
  74     2.167375771365
  75    -1.006041263167
  76    -0.301002223034
  77    -0.446845607051
  78    -0.000974578698
  79    -0.054567830625
  80    -0.743657032808
  81    -1.002187680418
  82    -0.059891740107
  83     0.068181637626
  84     0.001395481873
 Sym=     1a
 Ene= 3.17580239294378E+00
Spin= Alpha
 Occup= 0
  1     -0.265177085930
  2      0.288360331806
  3     -0.425824295258
  4      1.478342361773
  5      1.122127252280
  6      0.072377118904
  7     -0.353979725445
  8      0.033562985487
  9     -0.643580188225
  10    -0.196676197371
  11    -0.084928026394
  12    -0.028730762401
  13     0.507727938897
  14     0.029690658178
  15     0.052769044108
  16     0.223858581503
  17    -0.276627625611
  18    -0.045676935472
  19     0.045311673383
  20     0.000202765481
  21     0.200949509282
  22     0.316857791250
  23    -0.517807300532
  24    -0.485192168755
  25     0.045280457672
  26     0.003300293205
  27    -0.687943596018
  28    -0.345106171368
  29     0.003456733575
  30     0.143008383394
  31    -0.145481772836
  32    -0.015895469206
  33     0.779964803835
  34     0.608490288016
  35     0.011257774453
  36     0.002572402994
  37    -0.008551785875
  38     0.053115775274
  39    -0.281529979624
  40    -0.185552030713
  41    -1.180831111574
  42    -0.136162602584
  43    -0.040288577563
  44     0.006119328039
  45    -0.334097520223
  46    -0.064673953311
  47     0.028649194501
  48    -0.363880787818
  49    -0.219431218486
  50     0.021117867339
  51     0.021582468661
  52     0.008873078135
  53    -0.030455546796
  54    -0.001640665257
  55    -0.005037860331
  56    -0.000013995738
  57    -0.106127222298
  58    -0.125968035583
  59     0.232095257881
  60     0.013803218119
  61     0.042481926074
  62     0.000117748621
  63    -0.022869298793
  64    -0.000689647964
  65    -0.004539204054
  66    -0.026957401446
  67     0.017645819641
  68     0.008399360754
  69     0.057639785466
  70    -0.016720559804
  71    -0.002309379457
  72     0.000256420776
  73     0.124418872601
  74    -0.079225530341
  75    -0.707762560589
  76     0.010450257346
  77    -0.154315973256
  78    -0.004158746042
  79    -0.209670947769
  80    -0.726941923293
  81     0.044810767139
  82     0.213251236050
  83    -0.171000824962
  84    -0.001624336862
 Sym=     1a
 Ene= 3.18168019688409E+00
Spin= Alpha
 Occup= 0
  1      0.029446892473
  2      0.020143878403
  3      0.217413897300
  4     -1.462768095803
  5     -0.427478056766
  6     -0.031895751605
  7     -0.209552736461
  8     -0.006331636436
  9      0.216252292920
  10     0.300363868619
  11     0.015631325871
  12    -0.888477451432
  13     0.167681876760
  14    -0.007351536883
  15    -0.256879111267
  16     0.109429446393
  17     0.147449664874
  18    -0.018598103815
  19    -0.008798980689
  20    -0.000042325490
  21     0.313610151973
  22    -0.461259978732
  23     0.147649826759
  24     0.320905322160
  25    -0.006185317691
  26    -0.000063998939
  27     0.938237287433
  28     0.204511492949
  29    -0.000023042084
  30    -1.422443051245
  31    -0.314081013987
  32     0.002741797544
  33     0.163665639010
  34     0.039700053739
  35    -0.002710883345
  36    -0.000877737676
  37     0.001679133782
  38    -0.016810028901
  39     0.035287770909
  40     0.755335963168
  41    -0.668146383443
  42     0.176504921959
  43     0.012241019280
  44    -0.000938000097
  45     0.315381173604
  46     0.129953946582
  47    -0.004493894018
  48     0.065032960753
  49     0.035739159006
  50    -0.002598085516
  51    -0.025915218262
  52     0.032316722592
  53    -0.006401504330
  54    -0.023593213527
  55     0.000816662598
  56    -0.000011431747
  57     0.209105159853
  58    -0.264036742184
  59     0.054931582331
  60     0.198493866039
  61    -0.006880509304
  62     0.000096177305
  63     0.077040326539
  64    -0.021492576881
  65     0.000848658251
  66    -0.113776338926
  67     0.037063636956
  68    -0.001438040856
  69     0.010415894636
  70    -0.008228319205
  71     0.000299446333
  72     0.000004465296
  73     0.464911116267
  74     0.148922706494
  75     0.406935146401
  76    -0.177668568319
  77    -0.206305499162
  78     0.000354725154
  79     0.491206188962
  80     0.745009574131
  81     0.519370551299
  82    -0.248663863601
  83     0.185651491484
  84    -0.000001571335
 Sym=     1a
 Ene= 3.22382381646338E+00
Spin= Alpha
 Occup= 0
  1      0.324508577679
  2     -0.649371443223
  3      2.369648952336
  4     -3.985560059470
  5      6.745580240739
  6      0.256240256079
  7     -0.187414017641
  8     -0.005885958679
  9     -3.089310941927
  10     0.661310717154
  11     0.016866702046
  12     2.052631636610
  13     0.265086039138
  14    -0.002708951410
  15     0.663474874401
  16    -0.520294841828
  17    -0.143180032573
  18    -0.075970298037
  19    -0.011822887577
  20     0.003092802363
  21     0.228327139355
  22    -0.246777018580
  23     0.018449879225
  24     0.704276766122
  25    -0.015212067555
  26     0.001989075495
  27     0.110260460704
  28     0.251078105315
  29    -0.000909225882
  30    -0.308013504436
  31    -0.164697018268
  32     0.004435404384
  33     0.160083573218
  34    -0.172159608419
  35    -0.003215549856
  36    -0.000406961592
  37     0.011796548136
  38     0.059585722363
  39    -0.040885017128
  40    -0.605288478504
  41    -1.289865056190
  42    -0.023133361589
  43     0.011814169642
  44    -0.001625431686
  45    -0.773389774424
  46     0.154358073069
  47    -0.009150006999
  48    -0.669599107015
  49     0.045424396818
  50    -0.009092091792
  51     0.068192186410
  52    -0.044550277464
  53    -0.023641908946
  54    -0.020558442946
  55     0.001650781503
  56     0.000052981653
  57    -0.494206763821
  58     0.254401470707
  59     0.239805293114
  60     0.172961844643
  61    -0.013850836074
  62    -0.000445743966
  63    -0.129809128085
  64    -0.010280640628
  65     0.001575196681
  66     0.055111049959
  67     0.011963000893
  68    -0.002816055108
  69     0.119046170740
  70     0.001829925885
  71     0.000702706994
  72    -0.000108514401
  73    -0.033025034871
  74     0.985270989628
  75    -3.145293337282
  76    -0.139098190930
  77    -0.298110559445
  78     0.000733723314
  79     0.143466974171
  80     2.324667416494
  81    -3.026200287595
  82    -0.246004350081
  83     0.451226016545
  84     0.001046062177
 Sym=     1a
 Ene= 3.22449787187091E+00
Spin= Alpha
 Occup= 0
  1     -0.045491919353
  2      0.092988084537
  3     -0.685545438685
  4      1.874065968117
  5     -0.720758066169
  6      0.009110178754
  7     -0.076523992605
  8     -0.013312363929
  9      0.168891745660
  10    -0.549508665020
  11     0.036633819769
  12    -0.137196388777
  13    -0.018848585724
  14    -0.011697927248
  15    -0.083537557997
  16    -0.279321552154
  17     0.362859110151
  18    -0.152114600089
  19    -0.019984103146
  20    -0.003638044973
  21     0.230762172465
  22     0.312760544997
  23    -0.543522717462
  24     1.129557013421
  25    -0.021607578811
  26    -0.002073550626
  27    -0.113576039652
  28     0.506902427722
  29    -0.002871906626
  30     0.478667365919
  31    -1.330729437671
  32     0.008288340427
  33    -0.326289118753
  34     0.650648465863
  35    -0.004435273362
  36    -0.003795107513
  37     0.001211026357
  38     0.021746110769
  39    -0.100184313955
  40    -0.134179634438
  41    -0.258505033660
  42    -0.038529138506
  43     0.117719748756
  44    -0.002877007867
  45    -0.072099508375
  46     0.665002320554
  47    -0.013769102954
  48    -0.135564492222
  49     0.554429589607
  50    -0.011358341597
  51    -0.005717643861
  52    -0.000432157258
  53     0.006149801119
  54    -0.106224561597
  55     0.002418747438
  56    -0.000130681981
  57     0.036503068460
  58     0.019919147681
  59    -0.056422216141
  60     0.893685973653
  61    -0.020356082155
  62     0.001099450563
  63     0.023872416025
  64    -0.078480461785
  65     0.002059926290
  66     0.019129325925
  67     0.147617706895
  68    -0.003824625693
  69    -0.051157532936
  70    -0.042325118421
  71     0.001060944565
  72     0.000141862945
  73    -0.039030074618
  74    -0.881378864139
  75     0.383270292401
  76     0.110936492104
  77     0.009451115230
  78     0.002348445922
  79    -0.229144652725
  80    -0.329882111263
  81     0.333070829545
  82     0.015033692897
  83    -0.233153773563
  84     0.000525262524
 Sym=     1a
 Ene= 3.79174919202476E+00
Spin= Alpha
 Occup= 0
  1     -0.070847399014
  2      0.278449885369
  3     -0.301555074909
  4     -6.161198923040
  5     -0.510986981965
  6      0.682006461391
  7      0.003793324861
  8     -0.000552647662
  9      5.135670985804
  10     0.046178627214
  11     0.000854059922
  12     0.582245065055
  13    -0.041521771417
  14    -0.000088638248
  15    -0.590071034189
  16     0.268284351454
  17     0.321786682735
  18    -0.009649904537
  19     0.000129627369
  20    -0.000008348254
  21    -2.168383603646
  22     1.260951105465
  23     0.907432498181
  24    -0.046786691365
  25    -0.000390507147
  26    -0.000039664820
  27     0.508000738536
  28    -0.015502416387
  29     0.000401760409
  30    -0.323724962535
  31     0.024703286925
  32    -0.000697298025
  33    -0.357829547857
  34    -0.003904612810
  35     0.000158279874
  36     0.000026915853
  37    -0.108421821657
  38    -0.029034937673
  39    -0.346049318320
  40     3.785854465988
  41     4.782405215643
  42    -1.230281648699
  43     0.033383910204
  44     0.001337542614
  45     4.663063349087
  46    -0.088706749484
  47     0.004780048186
  48     1.346515226279
  49     0.026864596551
  50     0.001397310160
  51    -0.238564939545
  52     0.124505036345
  53     0.114059903200
  54     0.018251036852
  55     0.000060310464
  56     0.000026026891
  57     1.646832535229
  58    -0.818171974411
  59    -0.828660560818
  60    -0.078465794829
  61     0.013882908179
  62    -0.000049877390
  63     0.143620825755
  64     0.006000910257
  65    -0.001288141617
  66    -0.209790854781
  67    -0.010264577695
  68     0.001559823592
  69     0.017103297157
  70     0.002213511738
  71     0.000168399741
  72    -0.000021284780
  73    -0.028464879482
  74    -0.238077238636
  75    -0.020359318418
  76     0.032268672979
  77    -0.044065741830
  78     0.000055726895
  79    -0.030965225264
  80    -0.245704655594
  81    -0.067800291120
  82     0.030768405171
  83     0.040918401652
  84     0.000054271998
 Sym=     1a
 Ene= 3.82758291150779E+00
Spin= Alpha
 Occup= 0
  1     -0.275540167143
  2      0.355603344462
  3     -0.764073168520
  4      1.774900439648
  5      0.041201949428
  6      0.072988232254
  7     -0.090667076337
  8      0.012035748847
  9     -0.274434230902
  10     1.421727336668
  11    -0.027570130853
  12    -0.459178899759
  13     0.110937041115
  14     0.008979427311
  15    -0.140856136812
  16    -0.277860568454
  17     0.418716705266
  18    -0.043730486778
  19     0.013207387665
  20    -0.003319429724
  21     0.297028615373
  22     0.406820197231
  23    -0.703848812604
  24     1.580963603058
  25     0.014816772812
  26     0.000468412182
  27    -0.518956971055
  28     0.849005604668
  29    -0.000139058660
  30     0.131585190841
  31    -0.228795434374
  32    -0.004668768988
  33     0.564668647965
  34    -0.910265112816
  35     0.004855335758
  36     0.001663099684
  37    -0.011006013187
  38     0.048134379576
  39    -0.301356990192
  40     0.028095395958
  41    -1.132107459190
  42    -0.107101731730
  43     0.054875107838
  44     0.001834439275
  45    -0.147756034449
  46     0.320994350861
  47     0.008663430795
  48    -0.277375069257
  49     0.210364748232
  50     0.006375979993
  51     0.002096386295
  52     0.017277657676
  53    -0.019374043971
  54    -0.035963529881
  55    -0.001496506385
  56    -0.000107619853
  57     0.036532170524
  58    -0.173067433768
  59     0.136535263244
  60     0.302567527291
  61     0.012669376892
  62     0.000905424818
  63     0.023787208253
  64    -0.026709827188
  65    -0.001314779312
  66    -0.039669259260
  67     0.019730358288
  68     0.002500226470
  69     0.007755370471
  70     0.016104635268
  71    -0.000736264920
  72     0.000166397554
  73    -0.304069141874
  74    -1.966712895940
  75     0.383841117550
  76     0.276631704245
  77     0.245600084001
  78    -0.000986227331
  79     0.323703386198
  80     0.963938642965
  81     0.042763502193
  82    -0.137891788996
  83     0.281011516255
  84    -0.001356693961
 Sym=     1a
 Ene= 3.94633962898023E+00
Spin= Alpha
 Occup= 0
  1     -0.014161825737
  2      0.010671480616
  3      0.114981116558
  4     -1.123025288540
  5     -0.104224583404
  6      0.029169914542
  7     -0.061199773984
  8      0.000516995277
  9      0.404626664413
  10    -0.359546268353
  11     0.003102648526
  12     0.161478389958
  13     1.182663663398
  14     0.000550099675
  15    -0.006347408228
  16     0.001685329536
  17     0.004662078692
  18     0.145618821930
  19    -0.000671010965
  20     0.000126025829
  21    -0.022442119634
  22    -0.004381623376
  23     0.026823743010
  24     1.003807728503
  25    -0.001788811298
  26     0.000827712914
  27     0.004104649225
  28     0.254168594948
  29    -0.000739371605
  30     0.002517395599
  31    -0.380501257784
  32     0.001317992586
  33    -0.008024360413
  34     0.039498304154
  35    -0.000326021484
  36    -0.000428859628
  37     0.010892192529
  38    -0.051463898496
  39     0.233683547425
  40    -0.471642961768
  41     1.297014569451
  42    -0.018136773776
  43    -0.906780566752
  44    -0.000094961050
  45     0.082830138246
  46     2.066629640012
  47    -0.001117146701
  48     0.662121225750
  49    -0.969821681277
  50    -0.000865036577
  51     0.002231967731
  52    -0.020489721605
  53     0.018257753874
  54    -0.659907947716
  55    -0.000697430292
  56    -0.000676501417
  57     0.254704779827
  58    -0.291208251723
  59     0.036503471896
  60     1.001823828238
  61    -0.006044635981
  62     0.001125694888
  63    -0.046504413886
  64    -0.029439088553
  65     0.000456553789
  66     0.118269003032
  67     0.084410479948
  68    -0.000879944809
  69    -0.055876784610
  70    -0.044913798027
  71     0.000267413624
  72    -0.000013687616
  73    -0.050314357632
  74    -0.360417640036
  75    -0.657649586821
  76    -0.042100863002
  77     0.075093643996
  78    -0.000030351353
  79     0.044366065747
  80     0.488234213031
  81     0.541775768594
  82     0.016394992551
  83     0.076103106566
  84     0.000004134360
 Sym=     1a
 Ene= 5.17337023996514E+00
Spin= Alpha
 Occup= 0
  1     -0.000002565218
  2     -0.000006044958
  3     -0.000371820398
  4      0.000774886548
  5      0.000055747293
  6      0.000149049951
  7     -0.000053567770
  8     -0.000001071352
  9     -0.000890786242
  10    -0.000992497877
  11     0.000044137456
  12     0.000006161447
  13    -0.000541869430
  14    -0.000031434451
  15     0.000104499541
  16    -0.000037522505
  17    -0.000066977036
  18     0.000083138080
  19    -0.000013117069
  20     0.032682300358
  21     0.000484336075
  22    -0.000288141139
  23    -0.000196194936
  24    -0.000259357716
  25    -0.000039593751
  26     0.021365567638
  27    -0.000239141075
  28    -0.000132988387
  29    -0.000020677698
  30     0.000110427753
  31     0.000071464453
  32     0.000039632453
  33     0.000210413667
  34     0.000106958191
  35    -0.000011890410
  36    -0.194678015548
  37     0.000474752883
  38    -0.000512733793
  39     0.000302259428
  40    -0.001100163577
  41    -0.000063650781
  42     0.000056236180
  43     0.000402187220
  44     0.000092185862
  45    -0.000528089020
  46    -0.000511370297
  47    -0.000175533277
  48     0.000077528555
  49     0.000710082014
  50     0.000072387367
  51    -0.000769156004
  52     0.000175126436
  53     0.000594029568
  54     0.000281323540
  55    -0.000004822126
  56    -0.249985939320
  57     0.000415752019
  58    -0.000124704501
  59    -0.000291047518
  60     0.000374365177
  61    -0.000034676931
  62     0.340968535109
  63     0.000132076503
  64     0.003677137563
  65    -0.000003137071
  66    -0.000308936577
  67     0.002085757186
  68    -0.000004670144
  69     0.000131737354
  70    -0.007019154918
  71     0.000008878967
  72    -0.971383749162
  73     0.000133349562
  74     0.000715545116
  75     0.000128714737
  76    -0.000113982109
  77    -0.000124173608
  78     0.036352424374
  79    -0.000123583953
  80    -0.000511687760
  81    -0.000253827877
  82     0.000076179236
  83    -0.000121454927
  84    -0.036346894812
 Sym=     1a
 Ene= 5.26864895913927E+00
Spin= Alpha
 Occup= 0
  1      0.000038212844
  2      0.000168916575
  3      0.000617433027
  4     -0.003495475755
  5     -0.000043447536
  6      0.000028705377
  7      0.026134565975
  8     -0.000001261693
  9      0.003711430273
  10     0.185877908812
  11     0.000271919415
  12    -0.000575855950
  13    -0.008830235232
  14    -0.000181265941
  15    -0.000776691259
  16     0.000276330918
  17     0.000500360341
  18    -0.057614229278
  19    -0.000084717903
  20    -0.000453166632
  21    -0.002676326254
  22     0.000035163267
  23     0.002641162987
  24    -0.031556652732
  25    -0.000248895258
  26    -0.001644176539
  27     0.001091127846
  28    -0.022072376699
  29    -0.000130647160
  30    -0.000002006780
  31     0.117718740738
  32     0.000246178144
  33    -0.001461894841
  34    -0.088105539904
  35    -0.000070896586
  36     0.001409505480
  37     0.000335462647
  38    -0.000050390678
  39    -0.002932082660
  40     0.010140297209
  41    -0.003488062123
  42    -0.000818872486
  43    -0.003248487782
  44     0.000518317388
  45     0.004723988661
  46    -0.072837777885
  47    -0.001010867832
  48    -0.002619759702
  49    -0.060993301064
  50     0.000418486662
  51     0.000946529023
  52    -0.006441032501
  53     0.005494503478
  54     0.005462599789
  55    -0.000010387008
  56     0.000954639526
  57    -0.000814279258
  58     0.004871778098
  59    -0.004057498840
  60    -0.125712454307
  61    -0.000235567375
  62     0.020470388897
  63    -0.000118179977
  64    -0.616769502477
  65     0.000001287520
  66     0.002489946945
  67    -0.279778034867
  68    -0.000049451054
  69    -0.002331391868
  70     1.107261155259
  71     0.000047723665
  72    -0.000741497121
  73    -0.021390017365
  74    -0.062700957606
  75     0.019495810864
  76     0.005461120589
  77     0.024385255631
  78     0.000058743299
  79     0.021083157507
  80     0.064878823433
  81    -0.019141356243
  82    -0.006205261208
  83     0.024785953394
  84    -0.000027686064
 Sym=     1a
 Ene= 5.31539656363743E+00
Spin= Alpha
 Occup= 0
  1     -0.000020024892
  2      0.000167532532
  3      0.000082314228
  4     -0.004725507227
  5     -0.000415404698
  6      0.000287976468
  7      0.000011516915
  8      0.001708457235
  9      0.004693977349
  10     0.000076484172
  11    -0.140088638071
  12     0.000478680864
  13    -0.000268668162
  14    -0.082634075811
  15    -0.000422078258
  16     0.000239692835
  17     0.000182385423
  18    -0.000032946972
  19    -0.002727289495
  20    -0.000000023845
  21    -0.002432925296
  22     0.001472418785
  23     0.000960506511
  24    -0.000203626390
  25     0.075055570409
  26    -0.000000150172
  27     0.000363706398
  28    -0.000062390389
  29    -0.072520465089
  30    -0.000736124045
  31     0.000093793043
  32     0.061950289798
  33     0.000248160707
  34    -0.000010087553
  35     0.035346124021
  36     0.000000078563
  37    -0.000084617148
  38    -0.000018371302
  39    -0.000465175452
  40     0.004264123456
  41     0.002884868577
  42    -0.001292545191
  43     0.000200720911
  44    -0.024840106008
  45     0.004768874358
  46    -0.000449368860
  47    -0.144785166841
  48    -0.000327372823
  49     0.000217686957
  50     0.370488227420
  51     0.000399983863
  52    -0.000103136061
  53    -0.000296847802
  54     0.000082858566
  55    -0.486653245590
  56     0.000000086862
  57     0.000572250412
  58    -0.000261545527
  59    -0.000310704885
  60    -0.000183952623
  61     0.287809322218
  62    -0.000000271109
  63    -0.000463138093
  64     0.000016438689
  65     0.730534293432
  66    -0.000731379311
  67    -0.000026807475
  68    -0.034592743701
  69     0.001352744266
  70     0.000004752660
  71    -0.945521860304
  72    -0.000000073028
  73     0.000099259020
  74    -0.000274021560
  75     0.000239355897
  76     0.000090348736
  77    -0.000136902324
  78    -0.014268356307
  79     0.000081699491
  80    -0.000448322080
  81    -0.000038993997
  82     0.000087491987
  83     0.000111911670
  84    -0.014268358908
 Sym=     1a
 Ene= 5.40388458048734E+00
Spin= Alpha
 Occup= 0
  1     -0.005717988314
  2      0.013948250210
  3     -0.110689277428
  4     -0.033676989674
  5      0.005096057180
  6      0.072736046064
  7     -0.014527779287
  8      0.000168136785
  9     -0.070090952182
  10     0.010886137995
  11     0.000109017969
  12     0.013427560930
  13    -1.062472118729
  14     0.000137162113
  15    -0.005466869871
  16    -0.000702233143
  17     0.006169103014
  18    -0.091089865388
  19    -0.000165103769
  20    -0.000062517280
  21     0.078548120942
  22    -0.070942165947
  23    -0.007605954995
  24    -0.259262367437
  25    -0.000052391313
  26    -0.000062372836
  27    -0.029372598274
  28    -0.282354659083
  29    -0.000159442203
  30     0.052631443708
  31     0.428869395705
  32     0.000205216910
  33    -0.013223967859
  34    -0.050050868821
  35     0.000008697253
  36     0.000367466034
  37    -0.005035460545
  38    -0.001618696181
  39     0.035436346758
  40    -0.183083110294
  41     0.161512794007
  42    -0.017440422980
  43     0.683446734503
  44    -0.000374453973
  45    -0.007576969375
  46    -1.291595094372
  47     0.000348703559
  48     0.108012382810
  49     0.861942356764
  50    -0.000305040546
  51    -0.105543500622
  52    -0.008618282030
  53     0.114161782652
  54    -0.928310011621
  55    -0.000372813219
  56     0.000032024494
  57     0.134851954915
  58    -0.040719461489
  59    -0.094132493426
  60     0.359159698788
  61    -0.000139557932
  62    -0.000902354212
  63     0.084105525344
  64     0.102776113355
  65     0.000266260645
  66     0.085878645207
  67    -0.160729568152
  68    -0.000372842749
  69    -0.198718048378
  70     0.022840942597
  71     0.000015616608
  72    -0.000343052884
  73    -0.013713273097
  74     0.264460488128
  75     0.566955710791
  76    -0.100693233517
  77     0.038612927514
  78    -0.000117266118
  79    -0.007274862351
  80    -0.185244768365
  81    -0.616587523014
  82     0.077324378963
  83     0.028486226620
  84     0.000073412455
 Sym=     1a
 Ene= 5.52133288397031E+00
Spin= Alpha
 Occup= 0
  1     -0.037270227565
  2      0.169177648031
  3     -0.381220936564
  4     -1.884661647286
  5     -0.111087158871
  6      0.462454356839
  7      0.000059280018
  8      0.000762321784
  9      1.067117506625
  10     0.010087213380
  11     0.000985748210
  12     0.189252143922
  13    -0.031464917906
  14     0.000499285664
  15    -0.356635396991
  16     0.171003449217
  17     0.185631947774
  18    -0.003593330891
  19    -0.000673384457
  20    -0.000003874975
  21    -0.417916529164
  22     0.228174142458
  23     0.189742386706
  24    -0.012839683984
  25    -0.000778172044
  26    -0.000010649515
  27     0.296066836723
  28    -0.009318933573
  29    -0.000143419137
  30    -0.351538892616
  31     0.014532338512
  32     0.000542682205
  33    -0.045676451063
  34    -0.002029677144
  35    -0.000350265242
  36     0.000019344383
  37    -0.011039532989
  38    -0.013793019985
  39    -0.098801539218
  40     0.803561551253
  41     1.601227487868
  42    -0.076569251094
  43     0.021232368513
  44    -0.002005819125
  45     1.031920361016
  46    -0.044412907104
  47     0.002399439147
  48     0.666131088516
  49     0.024076298720
  50     0.000583988576
  51     0.311156134719
  52    -0.138183345426
  53    -0.172972789293
  54    -0.022692670298
  55     0.000117667376
  56    -0.000000286024
  57     0.387304392678
  58    -0.483050620615
  59     0.095746227937
  60    -0.005428318136
  61    -0.002122209822
  62    -0.000004182434
  63     0.939501245459
  64     0.001211539579
  65    -0.000655750390
  66    -1.040070501944
  67    -0.004190727933
  68     0.000968334131
  69    -0.220402687931
  70     0.002565277019
  71    -0.000088552662
  72     0.000007737031
  73     0.076067365649
  74     0.088716045636
  75    -0.050104187824
  76    -0.024518461917
  77    -0.087822752105
  78    -0.000040931822
  79     0.076191317262
  80     0.080147595929
  81    -0.086116082652
  82    -0.020244879554
  83     0.089440513452
  84    -0.000035521998
 Sym=     1a
 Ene= 5.67473681004448E+00
Spin= Alpha
 Occup= 0
  1     -0.000220449857
  2      0.000635953092
  3     -0.001286655737
  4     -0.011897256564
  5     -0.000918281347
  6      0.001983345084
  7      0.000061142227
  8     -0.101492750695
  9      0.007318228482
  10     0.000489648195
  11    -0.227446385919
  12     0.001310679118
  13    -0.000920344293
  14     0.046499704049
  15    -0.001477206238
  16     0.000420345773
  17     0.001056860465
  18    -0.000140675528
  19     0.246508629852
  20    -0.000000115147
  21    -0.002350178236
  22     0.000768193789
  23     0.001581984447
  24    -0.000888691502
  25     0.264875348836
  26    -0.000000750173
  27     0.001543380188
  28    -0.000230187541
  29     0.242602874234
  30     0.000020833571
  31     0.000352657604
  32    -0.449577618575
  33    -0.002091495380
  34    -0.000043828610
  35     0.124091707581
  36     0.000000383116
  37    -0.000067939695
  38    -0.000311681151
  39     0.000700316369
  40     0.001613891679
  41     0.011920742692
  42    -0.001285716396
  43     0.000723300794
  44    -0.033929681515
  45     0.005229148107
  46    -0.001736761171
  47     0.409391032344
  48     0.005437251531
  49     0.000715653139
  50     0.006320410543
  51    -0.000600772032
  52     0.000273073309
  53     0.000327698723
  54     0.000588106577
  55     0.303973354156
  56     0.000000594192
  57     0.003712588379
  58    -0.001952368682
  59    -0.001760219697
  60    -0.001108194950
  61     0.061129969190
  62    -0.000000911595
  63    -0.000236368012
  64     0.000040363993
  65    -0.513214287344
  66     0.001702155296
  67    -0.000096724022
  68     1.164727418848
  69    -0.001385034330
  70     0.000042570042
  71    -0.476178198733
  72     0.000000056151
  73    -0.000121375614
  74     0.000574398797
  75    -0.000041666923
  76    -0.000092135082
  77    -0.000046927939
  78    -0.007084253810
  79    -0.000196408066
  80     0.000018467882
  81    -0.000997983652
  82    -0.000150485942
  83    -0.000072452750
  84    -0.007084308689
 Sym=     1a
 Ene= 5.68271230619384E+00
Spin= Alpha
 Occup= 0
  1      0.035183426122
  2     -0.108908451735
  3      0.478935687725
  4      0.992373839279
  5      0.041733261531
  6     -0.400920903203
  7     -0.011709678283
  8     -0.001004882197
  9     -0.408929764546
  10    -0.055931410057
  11    -0.001906121936
  12    -0.114719748475
  13    -0.041029571553
  14     0.000158797643
  15     0.153280676967
  16    -0.051147451556
  17    -0.102133225411
  18     0.003004315896
  19     0.001452012323
  20     0.000005594037
  21    -0.018719432832
  22     0.131668377137
  23    -0.112948944305
  24     0.095375456565
  25     0.001737756825
  26     0.000122471505
  27    -0.018433735672
  28    -0.019007040071
  29     0.001639167078
  30    -0.152008098413
  31     0.029725233107
  32    -0.002585209466
  33     0.176739550038
  34    -0.004224612917
  35     0.000386036058
  36     0.000004943841
  37     0.033943729141
  38     0.004917632814
  39    -0.061652285101
  40     0.108166932155
  41    -1.216876066580
  42     0.150240619437
  43     0.004782532597
  44     0.000452977776
  45    -0.518274962751
  46     0.043991383286
  47     0.001958009429
  48    -0.650817124657
  49     0.032494807821
  50    -0.001313555772
  51     0.221284265974
  52     0.089693414874
  53    -0.310977680848
  54    -0.279979830386
  55     0.001816870411
  56     0.000031040134
  57    -0.637885052441
  58     0.254206955118
  59     0.383678097323
  60     0.225247053396
  61     0.001781305577
  62    -0.000087587333
  63    -0.527909970628
  64     0.015988073334
  65    -0.001487890176
  66    -0.377912700876
  67    -0.022467427207
  68     0.002334881076
  69     1.086178249071
  70     0.001017175924
  71    -0.000338666930
  72    -0.000080321195
  73     0.038607441726
  74    -0.160187171896
  75     0.136624568874
  76     0.026893270171
  77     0.005986158771
  78     0.000013529434
  79     0.053521530480
  80    -0.131572299422
  81     0.074831170015
  82     0.071051864168
  83     0.029250141526
  84     0.000062902473
 Sym=     1a
 Ene= 5.93308873168484E+00
Spin= Alpha
 Occup= 0
  1      0.001310327533
  2     -0.001692979499
  3     -0.008744843245
  4      0.114253537393
  5      0.010652686498
  6     -0.005008517087
  7     -0.137714328941
  8      0.000004767830
  9     -0.051244405414
  10    -0.355734178335
  11     0.000003962284
  12    -0.014372987916
  13     0.128573353051
  14    -0.000004869561
  15     0.002942249851
  16    -0.001134689962
  17    -0.001807559889
  18     0.280428366259
  19    -0.000005474995
  20     0.000202698876
  21     0.009680305990
  22    -0.003572709475
  23    -0.006107596515
  24     0.393935703287
  25    -0.000015117470
  26     0.000189509563
  27    -0.002008352855
  28     0.303776681003
  29    -0.000008836320
  30     0.001755235777
  31    -0.506016092431
  32     0.000015802714
  33     0.000939252326
  34     0.098456907209
  35    -0.000003947546
  36    -0.000509044363
  37     0.000877027233
  38    -0.000818192332
  39    -0.000381960234
  40     0.004977325944
  41    -0.115990421431
  42    -0.001455651881
  43    -0.073222099827
  44    -0.000006783397
  45    -0.014509405788
  46     0.481608414669
  47    -0.000031116763
  48    -0.062556457564
  49     0.138390749476
  50    -0.000073499152
  51     0.002856525941
  52    -0.000969503824
  53    -0.001887022117
  54    -0.197437925815
  55     0.000002012923
  56     0.000011670643
  57    -0.026115613962
  58     0.010719095447
  59     0.015396518515
  60     0.478751416192
  61    -0.000160654749
  62     0.002438358268
  63    -0.002349136801
  64    -0.862474024626
  65     0.000000122489
  66     0.002250361740
  67     1.241917094618
  68    -0.000011013508
  69     0.000901336006
  70    -0.084786765884
  71     0.000010849172
  72     0.001197723838
  73    -0.012045256392
  74    -0.051438047131
  75    -0.071720637793
  76     0.036085843280
  77    -0.032282486151
  78     0.000037516395
  79     0.011591662898
  80     0.043464830594
  81     0.080760863639
  82    -0.034656198827
  83    -0.033241470670
  84    -0.000036127771
 Sym=     1a
 Ene= 6.36980005515585E+00
Spin= Alpha
 Occup= 0
  1     -0.000014345495
  2      0.000062112751
  3      0.000390078660
  4     -0.002781491527
  5     -0.000310905278
  6     -0.000005636882
  7      0.000001780612
  8     -0.000000009169
  9      0.002501847497
  10     0.000330153544
  11     0.000001198152
  12     0.000235814304
  13    -0.000838474420
  14     0.000000322233
  15    -0.000264694834
  16     0.000116573535
  17     0.000148121299
  18    -0.000102808012
  19    -0.000000221206
  20    -0.003200981157
  21    -0.001160629173
  22     0.000739513291
  23     0.000421115882
  24    -0.000127623949
  25    -0.000000888624
  26    -0.132676461602
  27     0.000359540607
  28    -0.000207157323
  29    -0.000000310329
  30    -0.000215865455
  31     0.000288443965
  32     0.000000492684
  33    -0.000266508888
  34    -0.000010513252
  35    -0.000000076334
  36     0.092520814910
  37     0.001016475440
  38    -0.001105420318
  39    -0.000003423088
  40     0.002257622560
  41     0.001693538169
  42    -0.000096309387
  43     0.000543509741
  44    -0.000001100610
  45     0.001437042331
  46    -0.001123482451
  47     0.000002761931
  48     0.000676230373
  49     0.000617781807
  50     0.000000766875
  51     0.000345081040
  52     0.000214251266
  53    -0.000559332306
  54     0.000263214910
  55    -0.000000181783
  56    -1.147183851524
  57     0.000175196940
  58    -0.000321997851
  59     0.000146800911
  60    -0.000538440459
  61     0.000001209278
  62     0.620999551815
  63    -0.000036473666
  64    -0.000947590499
  65    -0.000000296116
  66     0.000087488745
  67    -0.000613642873
  68     0.000000173733
  69    -0.000038554188
  70     0.001884968935
  71     0.000000223548
  72     0.253474790082
  73    -0.000049759421
  74    -0.000183433297
  75     0.000546938323
  76    -0.000012534676
  77     0.000044603459
  78     0.022358242666
  79     0.000016431471
  80    -0.000275020347
  81    -0.000440426847
  82     0.000122006804
  83     0.000058572705
  84    -0.022358205188
 Sym=     1a
 Ene= 6.38378630829749E+00
Spin= Alpha
 Occup= 0
  1     -0.006591963965
  2      0.001616913586
  3     -0.384154497935
  4      0.939017779054
  5      0.047974000040
  6      0.118885440420
  7      0.001280887690
  8      0.000196006672
  9     -0.335158457960
  10     0.014032442121
  11    -0.000403537980
  12    -0.001435707624
  13    -0.017472678232
  14     0.000688752262
  15     0.072372564107
  16    -0.027758948641
  17    -0.044613615466
  18    -0.003435984267
  19     0.000085704577
  20    -0.000007271450
  21     0.245991963805
  22     0.095715825317
  23    -0.341707789122
  24    -0.016516961153
  25     0.000844474234
  26     0.000002459195
  27    -0.191843299419
  28    -0.005518266424
  29     0.000349751164
  30     0.142193473690
  31     0.009111589908
  32    -0.000747920550
  33     0.115191321427
  34    -0.001708058603
  35     0.000278680123
  36     0.000008687352
  37     0.005977165069
  38    -0.008837392861
  39     0.071864022405
  40    -0.599827025384
  41    -0.080984577832
  42     0.002581078769
  43     0.013483962429
  44    -0.001348964987
  45    -0.308446880416
  46    -0.033719908930
  47     0.002601022422
  48     0.086329198980
  49     0.012213284734
  50    -0.002177921155
  51    -0.446013730319
  52     1.158831964044
  53    -0.712818233725
  54     0.005557651065
  55     0.000946718198
  56     0.000297235522
  57     0.304882727193
  58    -0.772293512282
  59     0.467410785089
  60    -0.023748170625
  61    -0.000155126999
  62    -0.000005966883
  63     0.117818636825
  64    -0.002011586039
  65     0.001103176998
  66    -0.041417320975
  67    -0.004380716686
  68    -0.000749997016
  69    -0.116652967599
  70     0.007079542561
  71    -0.000730070239
  72    -0.000018337517
  73    -0.031573343112
  74    -0.263091809190
  75     0.015346449997
  76     0.070926643054
  77     0.065712336007
  78    -0.000006422278
  79    -0.032339246116
  80    -0.268722216756
  81    -0.004071427040
  82     0.070551170642
  83    -0.066759032388
  84     0.000006756422
 Sym=     1a
 Ene= 6.41655584007736E+00
Spin= Alpha
 Occup= 0
  1      0.000007315194
  2     -0.000117795732
  3     -0.002096314289
  4      0.007250311558
  5      0.000613426797
  6      0.000623418097
  7      0.000003961609
  8     -0.075467500061
  9     -0.005569442146
  10    -0.000018237830
  11    -0.585394467945
  12    -0.000316249641
  13     0.000001776832
  14    -0.038461516245
  15     0.000521893129
  16    -0.000326297197
  17    -0.000195595932
  18     0.000002808400
  19     0.171325208855
  20     0.000000088861
  21     0.002473992816
  22    -0.001667736085
  23    -0.000806256731
  24    -0.000040309358
  25     0.445694178102
  26     0.000000604078
  27    -0.001033184762
  28     0.000014865473
  29     0.141986516008
  30     0.000992767072
  31    -0.000024003967
  32    -0.232565308938
  33     0.000393395745
  34     0.000004059842
  35     0.042070407929
  36    -0.000000147102
  37     0.000590425599
  38    -0.000579969512
  39     0.000812679720
  40    -0.006220681566
  41    -0.002917479657
  42     0.000499128491
  43     0.000008423851
  44    -0.218698604427
  45    -0.004178638135
  46    -0.000025568828
  47     0.472196959815
  48    -0.000944617966
  49     0.000009025178
  50     0.390174548205
  51    -0.002068179837
  52     0.001770303470
  53     0.000297876367
  54     0.000144155309
  55    -1.044556326493
  56     0.000001044500
  57    -0.000045546713
  58    -0.000752476699
  59     0.000798023412
  60    -0.000051952974
  61     1.055280991547
  62    -0.000008222447
  63    -0.000554860381
  64    -0.000022886349
  65    -0.588822005784
  66    -0.000518002892
  67     0.000016786469
  68     0.515465988903
  69     0.001262426211
  70     0.000013918790
  71     0.274521630046
  72     0.000001486768
  73    -0.000082585497
  74     0.000234457427
  75    -0.000230219349
  76    -0.000018196394
  77     0.000134632648
  78    -0.002287969667
  79    -0.000091396325
  80     0.000177322537
  81    -0.000211529066
  82    -0.000040122104
  83    -0.000155465593
  84    -0.002287775679
 Sym=     1a
 Ene= 6.53349560271111E+00
Spin= Alpha
 Occup= 0
  1      0.003710506631
  2     -0.034092912104
  3     -0.620875254604
  4      2.167242772499
  5      0.204957285085
  6      0.177916551423
  7     -0.002502308786
  8      0.000139663628
  9     -2.071912886760
  10    -0.014025695566
  11    -0.000300765324
  12    -0.105941424146
  13     0.125056810253
  14     0.000244237351
  15     0.237525826413
  16    -0.094819079839
  17    -0.142706746574
  18     0.012391402956
  19     0.000235416312
  20     0.000021808119
  21     1.038837364803
  22    -0.621223252315
  23    -0.417614112488
  24     0.069819500877
  25     0.000604726208
  26     0.000099067999
  27    -0.440203923170
  28     0.028310965806
  29     0.000668564950
  30     0.234571284238
  31    -0.042418569764
  32    -0.001130605287
  33     0.356024253464
  34     0.004435423334
  35     0.000233631282
  36    -0.000010972363
  37     0.028281851178
  38    -0.017921810009
  39     0.261806739700
  40    -2.123710390712
  41    -0.883153604415
  42     0.089526029127
  43    -0.088614616702
  44     0.000942862734
  45    -1.189713490097
  46     0.185210382899
  47    -0.001386433331
  48    -0.242251420045
  49    -0.103598331092
  50    -0.002283935133
  51    -1.061950054496
  52     0.188873271847
  53     0.873076782649
  54     0.008974737756
  55     0.001419886202
  56    -0.000397190395
  57     0.415623393905
  58    -0.031532290208
  59    -0.384091103697
  60     0.029894617118
  61    -0.001524192134
  62    -0.001129153531
  63     0.157666940876
  64    -0.006059316073
  65     0.000871599661
  66    -0.373368469071
  67     0.012333777925
  68    -0.000160312499
  69     0.161836070509
  70    -0.004204352343
  71    -0.001009061155
  72     0.000443349347
  73     0.004530558358
  74     0.143664408607
  75    -0.152305502502
  76    -0.034886414740
  77     0.011401454108
  78    -0.000035054459
  79     0.009911283169
  80     0.222063851720
  81    -0.021121472945
  82    -0.040718431513
  83    -0.005633942190
  84    -0.000024894513
 Sym=     1a
 Ene= 8.15679070870921E+00
Spin= Alpha
 Occup= 0
  1      0.029740891798
  2     -0.184575154853
  3     -0.455854801912
  4      6.985231304139
  5      0.637260405421
  6     -0.287533005550
  7      0.004655599097
  8     -0.000548428062
  9     -6.905678616728
  10     0.059102104533
  11    -0.007591567227
  12    -0.341439882956
  13    -0.042869369152
  14    -0.000602104717
  15     0.681934013414
  16    -0.325299798495
  17    -0.356634214919
  18    -0.011257330890
  19     0.001382344991
  20    -0.000009784727
  21     3.212060717250
  22    -1.973280574069
  23    -1.238780143181
  24    -0.054977558231
  25     0.005440745822
  26    -0.000044820825
  27    -0.686565477378
  28    -0.017333561741
  29     0.001453603568
  30     0.352790042392
  31     0.027912816424
  32    -0.002433954685
  33     0.568334204661
  34    -0.004657403016
  35     0.000483740851
  36     0.000032055306
  37     0.394140854342
  38    -0.944321307767
  39     3.919606847218
  40    -9.878462624319
  41    -2.846136787687
  42     0.294881196299
  43     0.035677724164
  44     0.000392229960
  45    -4.355930639521
  46    -0.099247923736
  47    -0.003156878140
  48    -1.336631929598
  49     0.025899529039
  50    -0.000115384350
  51     0.140163729352
  52    -0.072961280158
  53    -0.067202449194
  54     0.025730546868
  55     0.000265329515
  56     0.000039750851
  57    -1.044102934737
  58     0.733204825159
  59     0.310898109578
  60    -0.100475243118
  61     0.002830217907
  62    -0.000095673903
  63    -0.219554051824
  64     0.005671232049
  65     0.000253108140
  66     0.111595455339
  67    -0.011051880190
  68    -0.000227775066
  69     0.182967215430
  70     0.003443123964
  71    -0.000111805138
  72    -0.000010984102
  73     0.108470363502
  74     0.614894603810
  75    -0.179342626351
  76    -0.129343269184
  77     0.000654662749
  78    -0.000109130517
  79     0.105675094960
  80     0.611936236067
  81    -0.229304360143
  82    -0.132117041754
  83    -0.004452593515
  84    -0.000110370986
 Sym=     1a
 Ene= 1.79367886309132E+01
Spin= Alpha
 Occup= 0
  1      1.253757594438
  2     -1.493867426147
  3      0.902141517298
  4     -0.263525565377
  5     -1.381202451495
  6     -0.067864014883
  7     -0.015268929256
  8     -0.000133054102
  9      0.544932539668
  10     0.117801901109
  11     0.001613419317
  12    -0.164363826624
  13    -0.360884556942
  14    -0.000076957554
  15    -0.073039262650
  16     0.184320323019
  17    -0.111281060369
  18    -0.007558420605
  19     0.000700354975
  20     0.003989033200
  21    -0.125122527736
  22     0.035704394186
  23     0.089418133550
  24     0.292126398336
  25    -0.002011354429
  26     0.003157892237
  27    -0.337541911815
  28     0.159941412904
  29    -0.000535199904
  30     0.116567066929
  31    -0.221534059951
  32     0.000506200969
  33     0.336292929115
  34     0.006950136948
  35     0.000211845051
  36     0.000279373620
  37    -0.000953014371
  38    -0.039148732260
  39     0.230286977626
  40    -0.605099659058
  41     1.165033708403
  42    -0.020342221190
  43     0.022656507896
  44    -0.000172107941
  45    -0.108269627743
  46     0.103292688616
  47    -0.000911400356
  48     0.487350151070
  49     0.205963820544
  50    -0.000515395695
  51    -0.038307778629
  52     0.026955729883
  53     0.011352048746
  54    -0.018448036131
  55     0.000079459492
  56     0.000068940070
  57     0.022021252716
  58    -0.049221794265
  59     0.027200541549
  60     0.155206545576
  61    -0.001082845226
  62    -0.000580005006
  63    -0.035414855041
  64    -0.014242652527
  65     0.000112817102
  66     0.020122303441
  67     0.023501306244
  68    -0.000184153971
  69     0.027391710530
  70    -0.004392782705
  71     0.000032793946
  72    -0.000051949661
  73    -0.043626778868
  74    -0.468200838024
  75     0.825555393240
  76     0.174416158772
  77     0.202698303374
  78    -0.000486408346
  79    -0.006394670637
  80    -0.130444562014
  81     0.290679081163
  82     0.103699457866
  83    -0.157862483421
  84     0.000691896272
 Sym=     1a
 Ene= 3.78931343100312E+01
Spin= Alpha
 Occup= 0
  1      0.019341330644
  2     -0.077770056360
  3     -0.213290056002
  4      2.855321604518
  5      0.312082055422
  6     -0.112905345907
  7     -0.000110219673
  8     -0.000073570977
  9     -2.287941490991
  10    -0.000708380617
  11    -0.005221600390
  12    -0.263058249693
  13     0.003177799684
  14     0.001849862665
  15     0.260966997792
  16    -0.117260520936
  17    -0.143706476856
  18     0.000342049154
  19     0.001393678934
  20     0.000001251508
  21     1.021240663992
  22    -0.579478681825
  23    -0.441761982167
  24     0.002300861679
  25     0.004353729852
  26    -0.000118209498
  27    -0.289839322332
  28     0.000711467347
  29     0.001899210634
  30     0.179087099752
  31    -0.001026854965
  32    -0.003527480989
  33     0.209773156620
  34     0.000072321354
  35     0.000979422540
  36     0.000035115449
  37    -1.328162663819
  38     1.438128323630
  39    -0.099710803356
  40    -1.988113407234
  41    -1.895344660931
  42     0.095033474798
  43    -0.002362405843
  44    -0.006098832367
  45    -1.393731991375
  46     0.005190508802
  47     0.010693366489
  48    -0.802380536249
  49    -0.002629032088
  50    -0.005320238134
  51     0.031552511708
  52    -0.013644208517
  53    -0.017908303191
  54    -0.000835743224
  55    -0.000184779186
  56    -0.000959032689
  57    -0.450942132244
  58     0.233626893896
  59     0.217315238348
  60     0.001893876270
  61     0.002247550064
  62     0.000855964632
  63    -0.087045096963
  64    -0.000447248296
  65    -0.000043649337
  66     0.046396628408
  67     0.000143829849
  68     0.000494963992
  69     0.070386623943
  70     0.000456216707
  71    -0.000436402261
  72    -0.000055419540
  73     0.013385041167
  74     0.096951072524
  75    -0.008351073598
  76    -0.022474654025
  77     0.024309718635
  78    -0.000176039080
  79     0.013604829534
  80     0.099090556683
  81    -0.005074152036
  82    -0.022465088412
  83    -0.024003969560
  84    -0.000231941649
