[Molden Format]
[Title]
CLPOs

[Atoms] AU
C    1   6          1.0987909774         0.0000000195         0.0013856064 
O    2   8         -1.1610484666        -0.0000000768        -0.0005317799 
H    3   1          2.2054476983         1.7750124409         0.0023131898 
H    4   1          2.2054475694        -1.7750123836         0.0023131896 
[GTO]
  1 0 
s   6 1.0  
    13575.3496820000         0.0006064549 
     2035.2333680000         0.0046979088 
      463.2256235900         0.0243324776 
      131.2001959800         0.0973999683 
       42.8530158910         0.3019558425 
       15.5841857660         0.6623360915 
s   2 1.0  
        6.2067138508         0.6559530853 
        2.5764896527         0.3758563329 
s   1 1.0  
        0.5769633942         1.0000000000 
s   1 1.0  
        0.2297283136         1.0000000000 
s   1 1.0  
        0.0951644400         1.0000000003 
p   4 1.0  
       34.6972322440         0.0113272200 
        7.9582622826         0.0761696592 
        2.3780826883         0.3019225220 
        0.8143320818         0.7278502735 
p   1 1.0  
        0.2888754725         0.9999999999 
p   1 1.0  
        0.1005682367         0.9999999995 
d   1 1.0  
        1.0970000000         1.0000000000 
d   1 1.0  
        0.3180000000         1.0000000000 
f   1 1.0  
        0.7610000000         1.0000000000 

  2 0 
s   6 1.0  
    27032.3826310000         0.0005722733 
     4052.3871392000         0.0044353233 
      922.3272271000         0.0230201076 
      261.2407098900         0.0928224906 
       85.3546413510         0.2937850002 
       31.0350352450         0.6740160450 
s   2 1.0  
       12.2608607280         0.6383993703 
        4.9987076005         0.3953458713 
s   1 1.0  
        1.1703108158         1.0000000000 
s   1 1.0  
        0.4647474099         1.0000000000 
s   1 1.0  
        0.1850453636         0.9999999999 
p   4 1.0  
       63.2749548010         0.0120183321 
       14.6270493790         0.0830054217 
        4.4501223456         0.3199174393 
        1.5275799647         0.7071554292 
p   1 1.0  
        0.5293511794         1.0000000000 
p   1 1.0  
        0.1747842127         1.0000000000 
d   1 1.0  
        2.3140000000         1.0000000000 
d   1 1.0  
        0.6450000000         1.0000000000 
f   1 1.0  
        1.4280000000         1.0000000000 

  3 0 
s   3 1.0  
       34.0613410000         0.0254393072 
        5.1235746000         0.1900859489 
        1.1646626000         0.8524411301 
s   1 1.0  
        0.3272304100         1.0000000002 
s   1 1.0  
        0.1030724100         1.0000000001 
p   1 1.0  
        0.8000000000         1.0000000000 

  4 0 
s   3 1.0  
       34.0613410000         0.0254393072 
        5.1235746000         0.1900859489 
        1.1646626000         0.8524411301 
s   1 1.0  
        0.3272304100         1.0000000002 
s   1 1.0  
        0.1030724100         1.0000000001 
p   1 1.0  
        0.8000000000         1.0000000000 

[5D]
[7F]
[MO]
 Sym=     1a
 Ene=  0.00000000000000E+00
Spin= Alpha
 Occup= 0.000000
  1       1.253757594424
  2      -1.493867426124
  3       0.902141517285
  4      -0.263525565606
  5      -1.381202451652
  6      -0.067864014841
  7      -0.015268929260
  8      -0.000133054102
  9       0.544932539776
 10       0.117801901121
 11       0.001613419317
 12      -0.164363826421
 13      -0.360884556941
 14      -0.000076957554
 15      -0.111281060325
 16       0.000700354975
 17       0.003989033201
 18      -0.148586626131
 19      -0.007558420606
 20       0.089418133575
 21      -0.002011354429
 22       0.003157892237
 23      -0.092853466749
 24       0.292126398341
 25      -0.000535199904
 26       0.306992038660
 27       0.006344577972
 28       0.000169946468
 29       0.000279373620
 30      -0.189165488160
 31      -0.207226151750
 32      -0.000953014372
 33      -0.039148732278
 34       0.230286977705
 35      -0.605099659123
 36       1.165033708892
 37      -0.020342221169
 38       0.022656507895
 39      -0.000172107941
 40      -0.108269627653
 41       0.103292688615
 42      -0.000911400356
 43       0.487350151185
 44       0.205963820544
 45      -0.000515395695
 46       0.011352048748
 47       0.000079459492
 48       0.000068940070
 49      -0.037679904214
 50      -0.018448036131
 51       0.027200541528
 52      -0.001082845226
 53      -0.000580005006
 54       0.041132192401
 55       0.155206545576
 56       0.000112817102
 57       0.025005096236
 58      -0.004010043629
 59      -0.000125254938
 60      -0.000051949661
 61      -0.025427777698
 62       0.021121855202
 63      -0.043626778858
 64      -0.468200838047
 65       0.825555393225
 66       0.174416158772
 67       0.202698303367
 68      -0.000486408346
 69      -0.006394670625
 70      -0.130444562021
 71       0.290679081147
 72       0.103699457865
 73      -0.157862483412
 74       0.000691896272
 Sym=     1a
 Ene=  1.00000000000000E+00
Spin= Alpha
 Occup= 0.000000
  1       0.071842137512
  2      -0.357271542047
  3       1.846127782574
  4      -2.912634323932
  5       7.043338765260
  6       0.320212103118
  7       0.161109520124
  8      -0.013742095924
  9      -2.175808783482
 10      -0.619580708346
 11       0.016299944655
 12      -0.404833820763
 13      -0.167180511739
 14       0.012815681745
 15      -0.067418319309
 16      -0.012365469645
 17       0.002668770067
 18      -0.211172412724
 19       0.047250277278
 20      -0.361624329715
 21      -0.014327606699
 22       0.001727290155
 23       0.812347257657
 24      -0.281382344041
 25      -0.004115157339
 26       0.246976046094
 27       0.157186392611
 28       0.003418482270
 29      -0.000138411099
 30      -0.079662870683
 31      -0.107840502171
 32      -0.031157503489
 33       0.094528908004
 34      -0.568362432917
 35       0.971508923131
 36      -4.550060511534
 37       0.012564218136
 38       0.021354066255
 39      -0.001686526425
 40      -0.515595664160
 41       0.032522477541
 42      -0.009107072914
 43      -0.919279641175
 44       0.067359958108
 45      -0.016059189745
 46      -0.008119925837
 47       0.001560843764
 48       0.000055920339
 49       0.037649335158
 50      -0.006780477941
 51       0.086201540603
 52      -0.013018295807
 53      -0.000470467651
 54      -0.151753496885
 55       0.057045400604
 56       0.001467450605
 57       0.034777409039
 58      -0.008271180301
 59      -0.001809699838
 60      -0.000032300022
 61       0.001323186313
 62       0.021276318634
 63      -0.025524981069
 64       1.761981088247
 65      -2.331054501530
 66      -0.152982468279
 67      -0.258774466045
 68       0.000082793887
 69      -0.157055493569
 70       0.888417368528
 71      -2.381401433522
 72      -0.127441816971
 73       0.114299260495
 74       0.000880715634
 Sym=     1a
 Ene=  2.00000000000000E+00
Spin= Alpha
 Occup=-0.000000
  1       0.113381227997
  2      -0.300675090739
  3      -0.065858128933
  4       3.515983794692
  5      -4.626077503754
  6       0.135936399301
  7       0.032851633772
  8       0.008891398691
  9      -0.240029733775
 10      -0.093327700774
 11      -0.009680534019
 12      -2.212997966998
 13       0.243000901098
 14      -0.010783710928
 15      -0.430874781393
 16       0.006904086333
 17      -0.002165579037
 18       0.324160574109
 19       0.006776528575
 20      -0.392688015206
 21       0.008728816969
 22      -0.001733178193
 23       0.563800827668
 24      -0.171254752547
 25       0.002143507703
 26      -0.192615780208
 27      -0.027515515641
 28      -0.001910785067
 29      -0.000190537349
 30      -0.441202051946
 31       0.131162249517
 32       0.020999649258
 33       0.104482922578
 34      -0.402073370136
 35      -0.334361045427
 36      -1.557863991283
 37      -0.201282740973
 38      -0.011956654869
 39       0.000700455950
 40      -0.486095038663
 41      -0.059969521593
 42       0.003899806728
 43      -0.376516213571
 44      -0.131686945810
 45       0.008192124558
 46      -0.006515340188
 47      -0.000714789357
 48      -0.000033218538
 49       0.008890451311
 50       0.011779782799
 51       0.059312416483
 52       0.005887316896
 53       0.000279473396
 54      -0.216174215047
 55      -0.099105423648
 56      -0.000692835782
 57      -0.007750694181
 58       0.003091863061
 59       0.000785048139
 60       0.000017084777
 61      -0.068069604130
 62      -0.013669305464
 63      -0.075552095068
 64      -0.470405993972
 65       2.201816880502
 66       0.122742475887
 67       0.360340401551
 68       0.000202892752
 69      -0.087346161711
 70      -0.682323167310
 71       2.562771970080
 72       0.160867067664
 73      -0.380406693239
 74      -0.000471513287
 Sym=     1a
 Ene=  3.00000000000000E+00
Spin= Alpha
 Occup= 1.994057
  1      -0.024269887297
  2      -0.072778204150
  3       0.166094744381
  4       0.232190754952
  5       0.063468379232
  6       0.148692851675
  7      -0.256052077378
  8       0.000125602649
  9       0.055760635475
 10      -0.163030532207
 11       0.000047095531
 12       0.008754876692
 13      -0.023385904175
 14       0.000007516248
 15      -0.003484300520
 16      -0.000000261492
 17      -0.000011582720
 18      -0.006308373312
 19      -0.013768283977
 20      -0.005488899160
 21       0.000016657416
 22      -0.000015078619
 23       0.010176570966
 24      -0.017744263484
 25      -0.000000589573
 26      -0.000285013388
 27       0.001185557167
 28      -0.000000662135
 29      -0.000002002190
 30      -0.000951526255
 31      -0.000375831185
 32       0.003789729902
 33       0.012247016276
 34      -0.027412021855
 35      -0.013222577457
 36      -0.086990868099
 37      -0.032694904395
 38       0.034903804160
 39      -0.000027652365
 40      -0.043191308371
 41       0.025975420421
 42      -0.000036596079
 43      -0.043676723468
 44      -0.004083737446
 45      -0.000037139015
 46       0.000088015262
 47      -0.000000038264
 48       0.000001958247
 49       0.000101388338
 50       0.002306339615
 51      -0.001150350109
 52       0.000002934151
 53      -0.000016475078
 54       0.001519094620
 55      -0.019403641633
 56      -0.000000781612
 57      -0.000377130547
 58       0.000494227910
 59       0.000001379050
 60      -0.000002625670
 61       0.000839563891
 62      -0.001885718476
 63      -0.004805477279
 64      -0.039036015266
 65      -0.037135202472
 66       0.000568563017
 67      -0.006998218372
 68       0.000000517223
 69       0.195717011540
 70       0.295939543915
 71       0.117818974223
 72      -0.014544640754
 73       0.022140427724
 74      -0.000012233154
 Sym=     1a
 Ene=  4.00000000000000E+00
Spin= Alpha
 Occup= 0.063049
  1      -0.041177413276
  2      -0.140020997020
  3       0.238549257584
  4       0.752108913277
  5       0.094298651942
  6       0.230787685411
  7      -0.397696864839
  8       0.000194242321
  9       0.335421346400
 10      -0.583336124932
 11       0.000281718032
 12       0.078094832798
 13      -0.155072801874
 14       0.000065747855
 15      -0.010504228801
 16       0.000006812813
 17      -0.000018379818
 18      -0.010045182780
 19      -0.021869249817
 20      -0.022369171269
 21       0.000024246927
 22      -0.000039624337
 23      -0.009873416055
 24      -0.047101176753
 25      -0.000018362763
 26      -0.008942210457
 27       0.013732272906
 28      -0.000011116820
 29      -0.000021361724
 30      -0.022313802111
 31      -0.003048933789
 32       0.001275959563
 33       0.002109095759
 34      -0.000535205914
 35       0.002422531856
 36      -0.012891263031
 37      -0.016419369690
 38       0.064274225921
 39      -0.000013653222
 40      -0.020981914105
 41       0.054188998203
 42      -0.000017559852
 43      -0.017424513306
 44       0.027357668848
 45      -0.000014731252
 46      -0.000145264252
 47       0.000000448091
 48       0.000001547241
 49       0.000271834971
 50       0.001820273710
 51       0.000865073366
 52      -0.000001494172
 53      -0.000013017213
 54      -0.000220495143
 55      -0.015314283476
 56      -0.000001670640
 57      -0.000801742093
 58       0.000097668608
 59       0.000000330717
 60      -0.000001798366
 61      -0.000713619164
 62      -0.001614686823
 63      -0.000098613025
 64       0.000331945654
 65       0.014104985649
 66       0.003010972262
 67      -0.003241631506
 68       0.000002545337
 69      -0.360897368268
 70      -1.099489733420
 71      -0.251037380099
 72       0.025221732610
 73      -0.046896632065
 74       0.000021112455
 Sym=     1a
 Ene=  5.00000000000000E+00
Spin= Alpha
 Occup= 1.999729
  1       0.475722995930
  2       0.629145122061
  3      -0.013890925991
  4      -0.026631800257
  5       0.006425972412
  6       0.002379451289
  7       0.000000006917
  8       0.000002079420
  9      -0.019172015598
 10       0.000000003954
 11      -0.000016220724
 12      -0.003701014524
 13      -0.000000001098
 14      -0.000003157807
 15       0.000730116913
 16      -0.000000575838
 17       0.000000000006
 18       0.000575794598
 19       0.000000000493
 20       0.000249405170
 21       0.000003118680
 22       0.000000000026
 23       0.004080418227
 24      -0.000000000903
 25       0.000001521292
 26       0.000738677981
 27       0.000000000060
 28       0.000000211832
 29      -0.000000000015
 30       0.001162916210
 31      -0.000000000146
 32       0.002206840531
 33       0.005663311454
 34      -0.009595929722
 35      -0.013464317976
 36      -0.019025393242
 37      -0.016209879918
 38      -0.000000001626
 39      -0.000013762318
 40      -0.020848437409
 41      -0.000000002049
 42      -0.000017692232
 43      -0.018520446416
 44      -0.000000000844
 45      -0.000015698403
 46       0.000118272015
 47      -0.000000315850
 48       0.000000000001
 49      -0.000166358106
 50      -0.000000000024
 51      -0.000863317123
 52       0.000002189632
 53      -0.000000000010
 54       0.001076432929
 55       0.000000000152
 56      -0.000000262347
 57      -0.000126210725
 58      -0.000000000020
 59       0.000000408323
 60      -0.000000000002
 61       0.000229418713
 62       0.000000000089
 63      -0.000995068578
 64      -0.017903273559
 65      -0.002347424867
 66      -0.000620032037
 67      -0.000483661624
 68      -0.000000520444
 69      -0.000995069070
 70      -0.017903272608
 71      -0.002347429151
 72      -0.000620032096
 73       0.000483661693
 74      -0.000000520441
 Sym=     1a
 Ene=  6.00000000000000E+00
Spin= Alpha
 Occup=-0.000000
  1       0.168639855501
  2      -0.059884412661
  3      -1.539497266738
  4       3.831381296018
  5       0.019392615582
  6       0.091897721409
  7      -0.235144989197
  8       0.103916924485
  9      -0.063504416908
 10       0.711240262412
 11      -0.112011403275
 12      -0.866840431140
 13       0.438442348482
 14      -0.106442758271
 15       0.141800772186
 16       0.080713746521
 17      -0.000955271675
 18      -0.883524314526
 19      -0.021352642798
 20      -1.026883055151
 21       0.089497978976
 22      -0.000901090446
 23       1.082606295614
 24       0.111518586473
 25       0.027359580032
 26      -0.523753383905
 27      -0.210554854257
 28      -0.018488277985
 29       0.000013185773
 30      -0.620671916219
 31       0.182098208775
 32      -0.013262549569
 33       0.052968008402
 34      -0.331680148805
 35      -0.238242251092
 36      -2.029977299466
 37      -0.003959338241
 38      -0.038495912399
 39       0.010282582525
 40      -0.260510664070
 41      -0.097967418530
 42       0.050661161366
 43      -0.383639900842
 44      -0.225348099823
 45       0.099807470993
 46       0.035622742105
 47      -0.008897951101
 48      -0.000002626891
 49      -0.031888254689
 50       0.016524337538
 51      -0.280113104711
 52       0.074788376746
 53       0.000022100488
 54       0.217729410166
 55      -0.139022174701
 56      -0.008929785015
 57      -0.143630057098
 58       0.010216929472
 59       0.011079060954
 60      -0.000047830302
 61       0.075108323153
 62      -0.027216862867
 63      -0.351645354943
 64      -1.335742590074
 65       0.149587185800
 66       0.031452630490
 67       0.409037460039
 68      -0.002566857920
 69      -0.212657500835
 70      -0.506580865853
 71       0.556186429496
 72       0.013639789778
 73      -0.290088848246
 74      -0.003090537779
 Sym=     1a
 Ene=  7.00000000000000E+00
Spin= Alpha
 Occup=-0.000000
  1      -0.071105612426
  2       0.083154120509
  3      -0.143546943976
  4       0.416781354802
  5      -0.209487302263
  6       0.000023401908
  7      -0.602734708071
  8       0.021962899050
  9       0.045564657141
 10       3.075609463150
 11      -0.026509035084
 12      -0.109499231690
 13      -5.567228363497
 14       0.011008288662
 15      -0.035640052950
 16      -0.004073262868
 17      -0.000094607674
 18      -0.004109564446
 19       0.066299734395
 20      -0.074816153951
 21      -0.004430870677
 22       0.000458583191
 23      -0.001036267400
 24       0.716131058585
 25       0.000491510033
 26      -0.042060490907
 27      -0.217975980425
 28      -0.000244887373
 29       0.000386842145
 30      -0.048271520104
 31       0.151139812504
 32       0.000697634328
 33       0.007134578491
 34      -0.036472730879
 35       0.027998660429
 36      -0.151030246458
 37      -0.009675012566
 38      -0.065327427349
 39       0.001284716944
 40      -0.014076738697
 41      -0.426801324811
 42       0.001470375444
 43      -0.050599786702
 44       1.616719981946
 45      -0.004548314788
 46      -0.001183176606
 47       0.000215169412
 48       0.000008202530
 49       0.001667804245
 50       0.013016475141
 51       0.002665590682
 52      -0.001793242466
 53      -0.000069009336
 54      -0.006615329926
 55      -0.109509901854
 56       0.000219572849
 57      -0.004197736150
 58       0.022054935441
 59      -0.000309922310
 60      -0.000087584312
 61      -0.001635966496
 62      -0.055386640429
 63      -0.213576527180
 64      -1.446846006657
 65       4.157023734147
 66       0.161854096332
 67       0.453420919634
 68       0.000985106600
 69       0.171838961216
 70       1.205847955252
 71      -3.919952860121
 72      -0.130233650359
 73       0.393148395348
 74       0.000670472154
 Sym=     1a
 Ene=  8.00000000000000E+00
Spin= Alpha
 Occup= 0.000000
  1       0.001317330049
  2      -0.009044027620
  3       0.097428868745
  4      -0.252350246066
  5       0.103504571605
  6      -0.000521188298
  7       0.004572181209
  8      -0.707902627193
  9      -0.013470196530
 10       0.012561013975
 11       0.896058223935
 12       0.041792366485
 13      -0.103094842325
 14      -0.835709384713
 15       0.004624033720
 16       0.461916856999
 17       0.000054421662
 18       0.028809050502
 19       0.001208761954
 20       0.052839063840
 21       0.711437789041
 22       0.000024488949
 23      -0.025474264916
 24       0.022799207032
 25      -0.367080658271
 26      -0.001144630939
 27       0.003391678459
 28      -0.144172337111
 29      -0.000058200844
 30       0.033687455140
 31      -0.016592926792
 32       0.000186766878
 33      -0.002701125487
 34       0.014560648455
 35       0.030286223866
 36       0.049111862292
 37       0.006024349932
 38       0.002323668584
 39      -0.037498914286
 40       0.014398400445
 41       0.005281708072
 42       0.093789346833
 43       0.012121166536
 44       0.040061627681
 45       0.610852841511
 46      -0.000357190257
 47      -0.038515233440
 48       0.000000393597
 49       0.001601924653
 50      -0.001512941331
 51       0.003175485437
 52       0.324037962766
 53      -0.000003311402
 54      -0.010218423948
 55       0.012728643174
 56      -0.020579708387
 57       0.003938750192
 58      -0.000284132129
 59       0.040153434623
 60      -0.000002314864
 61      -0.002773422256
 62       0.001489157485
 63       0.008765453566
 64       0.063527812638
 65       0.015340295231
 66      -0.004201926657
 67      -0.013319534421
 68      -0.145130366180
 69       0.011378842792
 70       0.081775856437
 71      -0.125514567717
 72      -0.011574334925
 73       0.022525982955
 74      -0.145146117839
 Sym=     1a
 Ene=  9.00000000000000E+00
Spin= Alpha
 Occup= 0.010863
  1       0.038971118353
  2       0.262364609948
  3      -1.794794612564
  4       2.815777341133
  5       0.882646294609
  6       0.876279993716
  7       0.000000362600
  8       0.000742821479
  9      -1.964283537444
 10      -0.000001864936
 11      -0.001666638785
 12      -0.624739793599
 13       0.000000392318
 14      -0.000529514793
 15       0.000200371671
 16       0.000003281886
 17      -0.000000000238
 18       0.004197858311
 19       0.000000052197
 20      -0.131474469531
 21       0.000528188069
 22      -0.000000007317
 23       0.393758637382
 24      -0.000001542895
 25       0.000014318071
 26       0.007010579298
 27       0.000000196572
 28       0.000024473278
 29      -0.000000001720
 30       0.033134565709
 31      -0.000000031287
 32       0.015121721130
 33       0.144580386481
 34      -0.522024671954
 35      -0.222345089845
 36      -2.061135163192
 37      -0.035802238753
 38       0.000000000999
 39      -0.000030238651
 40      -0.314796893490
 41      -0.000000184804
 42      -0.000266885164
 43      -0.609820150257
 44      -0.000000414952
 45      -0.000517383818
 46       0.007038563366
 47      -0.000016967358
 48      -0.000000000084
 49      -0.007748396030
 50       0.000000026231
 51      -0.054277299668
 52       0.000138182837
 53       0.000000000707
 54       0.068388285950
 55      -0.000000218786
 56      -0.000024700871
 57      -0.011880176571
 58      -0.000000010056
 59       0.000033284173
 60       0.000000000008
 61       0.016649446549
 62       0.000000018576
 63       0.030540404944
 64       0.063542865724
 65      -0.131631124210
 66      -0.035644600124
 67      -0.020468566950
 68      -0.000030052138
 69       0.030540008997
 70       0.063539641531
 71      -0.131630057026
 72      -0.035644463682
 73       0.020467987921
 74      -0.000030054468
 Sym=     1a
 Ene=  1.00000000000000E+01
Spin= Alpha
 Occup=-0.000000
  1       0.142483082105
  2      -0.131383380420
  3      -0.416285604306
  4       1.274942535203
  5       1.182266419421
  6       0.171814395941
  7       0.249800414733
  8       0.009271884209
  9      -1.115699765163
 10      -1.193114105513
 11      -0.015341439699
 12      -0.198056194698
 13      -0.317199755829
 14       0.004184165039
 15       0.950441840369
 16       0.008107252324
 17      -0.000704610775
 18       0.207619769003
 19       0.177798313016
 20      -1.016821605610
 21       0.002789926079
 22      -0.000959443085
 23       0.464933877819
 24      -1.691630073470
 25       0.000311822678
 26       0.228245813229
 27       0.319511216230
 28      -0.000443199147
 29       0.005492224979
 30      -0.048441474429
 31       0.525373335687
 32      -0.006004516911
 33       0.065687625955
 34      -0.304450841252
 35      -0.298017863338
 36      -1.631806703235
 37      -0.059175421602
 38      -0.052978794756
 39       0.000835537935
 40      -0.344238966650
 41      -0.423338184189
 42       0.002699286043
 43      -0.426510744028
 44      -0.265617924793
 45       0.000601042830
 46      -0.004611302662
 47      -0.000516189092
 48      -0.000120506224
 49      -0.017214961945
 50       0.055871745460
 51       0.055805377959
 52       0.004312924506
 53       0.001013840127
 54       0.139151824376
 55      -0.470058849773
 56      -0.000800980277
 57      -0.029254306744
 58      -0.001457831292
 59       0.001049496888
 60       0.000436103084
 61       0.054734869245
 62      -0.035149654490
 63       0.272528497770
 64       1.274425872054
 65      -0.276636680133
 66      -0.195307421557
 67      -0.263748552029
 68      -0.001080254663
 69      -0.110727209711
 70      -1.542027068446
 71      -0.231769474767
 72       0.058682931134
 73      -0.089351913757
 74       0.001152774087
 Sym=     1a
 Ene=  1.10000000000000E+01
Spin= Alpha
 Occup= 0.000000
  1      -0.000812199862
  2       0.001037409297
  3      -0.005285757446
  4       0.018562587617
  5      -0.002954447991
  6       0.000249465203
  7      -0.002220964663
  8      -0.035916514716
  9      -0.002849677271
 10       0.006949031016
 11       0.217308002394
 12       0.000760995016
 13      -0.008404701879
 14      -0.175705015315
 15      -0.001158008503
 16      -0.524558313016
 17      -0.000032301049
 18       0.001567898987
 19       0.000295026436
 20      -0.004716311886
 21       0.410531971653
 22       0.000026847239
 23      -0.002151090480
 24      -0.001732491494
 25       0.098755561754
 26       0.004770651290
 27      -0.000278027674
 28       0.994194938429
 29       0.000032888816
 30      -0.003841850826
 31       0.002189126490
 32       0.000021065577
 33       0.000359757377
 34      -0.001395349295
 35      -0.003931610850
 36      -0.003020893772
 37      -0.001061799742
 38      -0.000457302623
 39      -0.074782380190
 40      -0.002394084116
 41      -0.002152354830
 42      -0.204338881812
 43      -0.002172527585
 44       0.001213240977
 45       0.203159600105
 46      -0.000150709876
 47       0.037609568032
 48      -0.000000317844
 49      -0.000025955100
 50       0.000209551292
 51       0.001187473507
 52      -0.316415793096
 53       0.000002674078
 54       0.000241868300
 55      -0.001762992009
 56       0.077675599161
 57      -0.000051164980
 58       0.000074221665
 59      -0.122216224906
 60       0.000002374333
 61       0.000088364788
 62      -0.000294390885
 63      -0.000554543470
 64      -0.007701585338
 65       0.007706374964
 66       0.001062123493
 67       0.001192476449
 68       0.062915850794
 69      -0.000197233486
 70      -0.004446494092
 71      -0.004678936908
 72       0.001111793934
 73       0.000008483373
 74       0.062934689439
 Sym=     1a
 Ene=  1.20000000000000E+01
Spin= Alpha
 Occup= 1.999505
  1      -0.023107650788
  2      -0.079153061878
  3       0.209374550357
  4       0.137657843989
  5      -0.021349187633
  6      -0.246622672911
  7      -0.000000007526
  8      -0.000211016240
  9      -0.129997953014
 10       0.000000047028
 11      -0.000112043672
 12      -0.021132127249
 13      -0.000000004614
 14      -0.000018639481
 15      -0.013130134766
 16       0.000038725301
 17      -0.000000000013
 18       0.022747196962
 19       0.000000000293
 20      -0.008529941197
 21       0.000011816438
 22      -0.000000000049
 23      -0.000958873854
 24       0.000000038728
 25       0.000009778572
 26       0.004667292869
 27      -0.000000003822
 28      -0.000017250572
 29      -0.000000000127
 30      -0.010613677716
 31      -0.000000000320
 32      -0.026375801841
 33      -0.092812074534
 34       0.211795813406
 35       0.253072049883
 36      -0.014803184243
 37       0.288824894219
 38       0.000000020236
 39       0.000242508445
 40       0.210275586407
 41       0.000000023607
 42       0.000176260162
 43       0.068936077102
 44       0.000000012872
 45       0.000057390454
 46      -0.005169943280
 47       0.000015916831
 48       0.000000000682
 49       0.009873235021
 50       0.000000000410
 51      -0.006719454808
 52       0.000024987568
 53      -0.000000000339
 54       0.018046681018
 55       0.000000006455
 56      -0.000002638104
 57      -0.001275267723
 58       0.000000000019
 59       0.000005428699
 60      -0.000000000001
 61       0.003617406303
 62       0.000000000675
 63      -0.005391267790
 64      -0.044654673373
 65       0.014113160716
 66       0.004394450560
 67       0.001786362069
 68       0.000003697635
 69      -0.005391255781
 70      -0.044654609269
 71       0.014113156538
 72       0.004394448085
 73      -0.001786349081
 74       0.000003697580
 Sym=     1a
 Ene=  1.30000000000000E+01
Spin= Alpha
 Occup= 0.000014
  1      -0.039556245898
  2      -0.225424169284
  3       0.731259764014
  4       0.057293955488
  5      -0.081325923795
  6      -0.662653288583
  7      -0.000000024841
  8      -0.000565343547
  9      -0.278310571597
 10       0.000000055154
 11      -0.000239388809
 12      -0.037808132778
 13      -0.000000015106
 14      -0.000033338509
 15      -0.010179178601
 16       0.000033423265
 17      -0.000000000009
 18       0.021517936150
 19       0.000000000034
 20       0.049754959989
 21      -0.000172278748
 22      -0.000000000215
 23      -0.116917868876
 24       0.000000044462
 25      -0.000009452545
 26      -0.004626305239
 27      -0.000000006327
 28      -0.000002051418
 29      -0.000000000130
 30      -0.008013680109
 31       0.000000000912
 32       0.054888376901
 33       0.163301538708
 34      -0.306556606565
 35      -0.596750304903
 36       0.334174300036
 37      -0.462201867462
 38      -0.000000028404
 39      -0.000389626250
 40      -0.363504439651
 41      -0.000000019479
 42      -0.000306102968
 43      -0.083951272058
 44       0.000000008931
 45      -0.000069670544
 46      -0.000244444089
 47      -0.000000243400
 48      -0.000000000500
 49      -0.000737994730
 50      -0.000000001130
 51       0.037930756106
 52      -0.000112221603
 53       0.000000000257
 54      -0.066926533856
 55       0.000000002259
 56       0.000021228598
 57       0.010233724336
 58       0.000000000868
 59      -0.000029498280
 60      -0.000000000018
 61      -0.015231729272
 62      -0.000000003015
 63      -0.009957696049
 64       0.006311454754
 65       0.002178689396
 66       0.006637214133
 67       0.004526244755
 68       0.000005570652
 69      -0.009957687216
 70       0.006311534927
 71       0.002178652687
 72       0.006637205079
 73      -0.004526226612
 74       0.000005570498
 Sym=     1a
 Ene=  1.40000000000000E+01
Spin= Alpha
 Occup= 1.994057
  1      -0.024269894223
  2      -0.072778211436
  3       0.166094743555
  4       0.232190777721
  5       0.063468384799
  6       0.148692857770
  7       0.256052071161
  8       0.000125602027
  9       0.055760632423
 10       0.163030504128
 11       0.000047099214
 12       0.008754881389
 13       0.023385879892
 14       0.000007516121
 15      -0.003484299450
 16      -0.000000262212
 17       0.000011582734
 18      -0.006308372609
 19       0.013768284512
 20      -0.005488890629
 21       0.000016651854
 22       0.000015078273
 23       0.010176567610
 24       0.017744238620
 25      -0.000000591278
 26      -0.000285015471
 27      -0.001185554338
 28      -0.000000659830
 29       0.000002002525
 30      -0.000951522331
 31       0.000375832374
 32       0.003789729059
 33       0.012247013610
 34      -0.027412017019
 35      -0.013222560909
 36      -0.086990883096
 37      -0.032694895222
 38      -0.034903802914
 39      -0.000027652776
 40      -0.043191304213
 41      -0.025975425890
 42      -0.000036598628
 43      -0.043676730550
 44       0.004083733776
 45      -0.000037142032
 46       0.000088015181
 47      -0.000000037814
 48      -0.000001958265
 49       0.000101389188
 50      -0.002306338807
 51      -0.001150349538
 52       0.000002930363
 53       0.000016475231
 54       0.001519087781
 55       0.019403635771
 56      -0.000000781323
 57      -0.000377130190
 58      -0.000494228069
 59       0.000001378670
 60       0.000002625704
 61       0.000839563200
 62       0.001885718796
 63       0.195717000337
 64       0.295939593473
 65       0.117818976778
 66      -0.014544643375
 67      -0.022140432788
 68      -0.000012233010
 69      -0.004805484784
 70      -0.039036026910
 71      -0.037135232223
 72       0.000568565105
 73       0.006998217747
 74       0.000000517498
 Sym=     1a
 Ene=  1.50000000000000E+01
Spin= Alpha
 Occup= 0.063049
  1      -0.041177419367
  2      -0.140020993760
  3       0.238549246929
  4       0.752108783885
  5       0.094298644360
  6       0.230787698155
  7       0.397696843423
  8       0.000194241808
  9       0.335421369038
 10       0.583335989693
 11       0.000281721206
 12       0.078094884126
 13       0.155072916952
 14       0.000065747785
 15      -0.010504226049
 16       0.000006812179
 17       0.000018379815
 18      -0.010045180314
 19       0.021869243891
 20      -0.022369151603
 21       0.000024242018
 22       0.000039623930
 23      -0.009873416233
 24       0.047101120030
 25      -0.000018364216
 26      -0.008942212312
 27      -0.013732264523
 28      -0.000011114789
 29       0.000021361968
 30      -0.022313797637
 31       0.003048936218
 32       0.001275958713
 33       0.002109087960
 34      -0.000535176955
 35       0.002422524868
 36      -0.012891156380
 37      -0.016419355103
 38      -0.064274227583
 39      -0.000013653578
 40      -0.020981891920
 41      -0.054188999046
 42      -0.000017562063
 43      -0.017424480287
 44      -0.027357708248
 45      -0.000014733842
 46      -0.000145263454
 47       0.000000448482
 48      -0.000001547258
 49       0.000271835035
 50      -0.001820272683
 51       0.000865066559
 52      -0.000001497457
 53       0.000013017351
 54      -0.000220495423
 55       0.015314275653
 56      -0.000001670391
 57      -0.000801742600
 58      -0.000097668908
 59       0.000000330386
 60       0.000001798393
 61      -0.000713619775
 62       0.001614686362
 63      -0.360897318344
 64      -1.099489600798
 65      -0.251037513819
 66       0.025221725509
 67       0.046896605824
 68       0.000021112839
 69      -0.000098614374
 70       0.000331869981
 71       0.014105095084
 72       0.003010975728
 73       0.003241620637
 74       0.000002545573
 Sym=     1a
 Ene=  1.60000000000000E+01
Spin= Alpha
 Occup= 1.999926
  1      -0.000000275688
  2      -0.000000746660
  3       0.000001621211
  4       0.000001714142
  5       0.000000629392
  6      -0.000221999702
  7       0.000000000033
  8       0.260185176920
  9      -0.000197169408
 10       0.000000001099
 11       0.231584346718
 12      -0.000078544298
 13       0.000000000382
 14       0.092710536568
 15      -0.000027699552
 16      -0.018800792090
 17      -0.000000001290
 18       0.000016087826
 19      -0.000000000339
 20      -0.000040082883
 21      -0.027091179913
 22      -0.000000003689
 23       0.000023061018
 24      -0.000000002331
 25      -0.008207947460
 26       0.000023950178
 27      -0.000000000194
 28       0.005178851129
 29       0.000000000743
 30      -0.000005528449
 31       0.000000000525
 32      -0.000000192737
 33      -0.000000675100
 34       0.000001579516
 35       0.000001398041
 36       0.000000059077
 37      -0.000315686839
 38       0.000000000834
 39       0.374221922540
 40      -0.000263842096
 41      -0.000000000561
 42       0.312363162317
 43      -0.000141006156
 44      -0.000000001128
 45       0.166660671355
 46       0.000013854049
 47       0.009436832994
 48      -0.000000001896
 49      -0.000007950397
 50       0.000000003240
 51       0.000040203595
 52       0.027375010594
 53       0.000000002765
 54      -0.000023102957
 55      -0.000000002866
 56      -0.001852549218
 57       0.000010657444
 58       0.000000000055
 59       0.005090717767
 60       0.000000000643
 61      -0.000005271189
 62      -0.000000000192
 63      -0.000000027518
 64      -0.000000148577
 65      -0.000000095593
 66      -0.000002335502
 67       0.000000104805
 68       0.002796260445
 69      -0.000000027764
 70      -0.000000149897
 71      -0.000000095036
 72      -0.000002335776
 73      -0.000000105314
 74       0.002796259765
 Sym=     1a
 Ene=  1.70000000000000E+01
Spin= Alpha
 Occup= 0.000000
  1       0.000000422919
  2       0.000001750938
  3      -0.000004848873
  4      -0.000002415538
  5      -0.000000637467
  6       0.000403791401
  7      -0.000000000107
  8      -0.471180016831
  9       0.000412527970
 10      -0.000000000008
 11      -0.483419766480
 12       0.000142208766
 13       0.000000000533
 14      -0.167304701930
 15       0.000044924669
 16       0.030538151084
 17       0.000000002023
 18      -0.000026019398
 19       0.000000000303
 20       0.000047634803
 21       0.032445482254
 22       0.000000004076
 23      -0.000026770313
 24       0.000000000863
 25       0.014570004246
 26      -0.000044394163
 27       0.000000000334
 28      -0.010649441553
 29      -0.000000001405
 30       0.000011199901
 31      -0.000000001224
 32      -0.000000405973
 33      -0.000001254078
 34       0.000002511825
 35       0.000003827166
 36      -0.000000431248
 37      -0.000312889621
 38       0.000000000914
 39       0.372529155712
 40      -0.000291932377
 41       0.000000000883
 42       0.347311060242
 43      -0.000194025548
 44       0.000000000129
 45       0.230119830065
 46       0.000003302243
 47       0.002234709535
 48      -0.000000001427
 49      -0.000001910701
 50       0.000000002155
 51       0.000085823283
 52       0.058570864522
 53       0.000000002453
 54      -0.000049186876
 55      -0.000000000452
 56      -0.006570670330
 57       0.000027349763
 58      -0.000000000029
 59       0.010255368333
 60       0.000000000882
 61      -0.000010554541
 62       0.000000000129
 63      -0.000000015359
 64      -0.000000580648
 65       0.000000063463
 66       0.000002418171
 67      -0.000000129163
 68      -0.002962785041
 69      -0.000000015418
 70      -0.000000579462
 71       0.000000064063
 72       0.000002417537
 73       0.000000129041
 74      -0.002962785264
 Sym=     1a
 Ene=  1.80000000000000E+01
Spin= Alpha
 Occup=-0.000000
  1      -0.219234930854
  2       0.326240781389
  3      -1.461627553659
  4       4.309811470956
  5      -1.951600557836
  6      -0.050296532450
  7      -0.426240349710
  8       0.039291181335
  9       0.359945516914
 10       0.028217162957
 11      -0.095215472960
 12      -0.292351776808
 13       0.599351295830
 14       0.027156792981
 15      -0.318447271210
 16       0.053478204523
 17      -0.001014601174
 18      -0.072909427153
 19      -0.046490877876
 20      -0.903951884933
 21       0.054098542458
 22       0.002436185148
 23      -0.392508621800
 24      -0.555661103532
 25       0.004989590754
 26       0.492768031819
 27       0.494556697019
 28      -0.018077636228
 29       0.002809051680
 30      -0.531136573456
 31       0.142952215410
 32       0.003560288420
 33       0.046251646986
 34      -0.206760106893
 35      -0.517531455181
 36      -0.241339524218
 37      -0.173921097573
 38      -0.061472776940
 39       0.007084499096
 40      -0.282104793717
 41      -0.145104466022
 42       0.033776351750
 43      -0.221470732605
 44      -0.312465757604
 45       0.027963942811
 46      -0.031206974501
 47      -0.005974446759
 48      -0.000032741391
 49      -0.009870302177
 50       0.010544530180
 51       0.238901236318
 52       0.050282566510
 53       0.000275459090
 54       0.063739312315
 55      -0.088713002888
 56      -0.005476080265
 57       0.025826207088
 58      -0.010372445899
 59       0.007348458633
 60       0.000268967425
 61       0.004415779286
 62      -0.004655953928
 63       0.040766658485
 64      -1.304135219856
 65       0.497231439524
 66       0.153068051731
 67       0.096961958109
 68      -0.004293016931
 69      -0.262562747790
 70      -1.800647799386
 71       1.329128052971
 72       0.372399824664
 73      -0.385339821893
 74      -0.002035909843
 Sym=     1a
 Ene=  1.90000000000000E+01
Spin= Alpha
 Occup=-0.000000
  1      -0.000179650811
  2       0.000208067407
  3       0.000908964239
  4      -0.004097728784
  5      -0.000182524802
  6      -0.000080077503
  7       0.000718992204
  8      -0.000042139900
  9       0.000832383804
 10      -0.000103382171
 11       0.000100812210
 12       0.000049425621
 13      -0.001008407390
 14      -0.000032994138
 15       0.000459012966
 16      -0.000055256652
 17      -0.865038946317
 18       0.000165433018
 19       0.000503083980
 20       0.001215723195
 21      -0.000060950444
 22       1.329594850976
 23       0.000365833152
 24       0.001039511914
 25      -0.000004234646
 26      -0.001799979718
 27      -0.000332004100
 28      -0.000001376513
 29       0.042338307126
 30       0.000868195504
 31      -0.000631749374
 32       0.000013214127
 33      -0.000085762194
 34       0.000410938488
 35       0.001124724489
 36       0.001068762778
 37       0.000345299765
 38       0.000159396494
 39      -0.000005741372
 40       0.000771289093
 41       0.000661398922
 42      -0.000030169402
 43       0.000372415845
 44       0.000967434352
 45      -0.000029390561
 46       0.000061482415
 47       0.000005458678
 48       0.025745587713
 49       0.000017295933
 50      -0.000096839187
 51      -0.000536866380
 52      -0.000045857549
 53      -0.216602171883
 54      -0.000100164828
 55       0.000814725171
 56       0.000004311020
 57      -0.000123199365
 58       0.000006006252
 59      -0.000005646395
 60       0.000215615502
 61      -0.000015263943
 62       0.000028909150
 63      -0.000133616885
 64       0.000452077544
 65       0.000664780668
 66      -0.000045668045
 67       0.000121222817
 68      -0.207257386326
 69       0.000297327604
 70       0.002410432199
 71      -0.000873534414
 72      -0.000685740507
 73       0.000423393577
 74       0.207262007340
 Sym=     1a
 Ene=  2.00000000000000E+01
Spin= Alpha
 Occup=-0.000000
  1       0.006723221503
  2       0.019240024080
  3      -0.333197683022
  4       0.849807219803
  5      -0.317479677415
  6       0.001488400153
  7      -0.046057212104
  8      -0.722328355652
  9       0.097656323208
 10       0.126565577203
 11       1.112748704349
 12      -0.177630942808
 13       0.045501804263
 14       0.366662959542
 15       0.006522848302
 16      -0.670832859323
 17      -0.000232701446
 18      -0.119498361953
 19      -0.000797139972
 20      -0.189281909693
 21      -0.511845810344
 22      -0.000131629754
 23       0.096766970230
 24      -0.022930590917
 25      -0.622890706432
 26      -0.046413312924
 27      -0.027657952111
 28       0.188901447360
 29       0.000142655427
 30      -0.114799262449
 31       0.055416696387
 32      -0.001356625413
 33       0.007911823293
 34      -0.050472616607
 35      -0.048822989118
 36      -0.222423109492
 37      -0.010239328622
 38      -0.010125083896
 39      -0.108835609379
 40      -0.030549589363
 41      -0.035195180401
 42      -0.468409188981
 43      -0.043137751507
 44      -0.042938305538
 45      -0.564469318144
 46       0.003221282800
 47       0.080950105926
 48      -0.000001694547
 49      -0.006237338857
 50       0.005053745175
 51      -0.026468929692
 52      -0.681059060825
 53       0.000014256524
 54       0.039950107988
 55      -0.042518052655
 56       0.095838701377
 57      -0.019363719805
 58       0.002079684067
 59      -0.110926920047
 60       0.000000113759
 61       0.010647820051
 62      -0.007161506966
 63      -0.050961094215
 64      -0.308546605294
 65       0.172261722742
 66       0.022231818561
 67       0.077930562829
 68      -0.061715070216
 69      -0.035071149920
 70      -0.209008436791
 71       0.206760854105
 72       0.027352891079
 73      -0.060540013587
 74      -0.061736814804
 Sym=     1a
 Ene=  2.10000000000000E+01
Spin= Alpha
 Occup=-0.000000
  1      -0.241203070771
  2       0.313433558061
  3      -0.947539066604
  4       2.625317585980
  5      -0.377720685636
  6       0.073071513276
  7      -0.113630311383
  8       0.013970860231
  9      -0.174371705215
 10       1.485974040842
 11      -0.030847311495
 12      -0.693402711822
 13       0.141757696170
 14       0.007946153423
 15       0.393594176597
 16       0.015756223684
 17      -0.003546179883
 18       0.057519313388
 19      -0.040935965987
 20      -0.917571139231
 21       0.017475237746
 22       0.000291918037
 23      -0.044148970034
 24       1.542717924229
 25       0.000314956282
 26       0.441980517499
 27      -0.850358668689
 28      -0.006180533444
 29       0.001738565646
 30      -0.371524285727
 31      -0.385431832545
 32      -0.010041806995
 33       0.060963142328
 34      -0.360732362727
 35       0.013686879407
 36      -1.422861284567
 37      -0.124723262406
 38       0.047735070681
 39       0.002115939627
 40      -0.207698947845
 41       0.292054659751
 42       0.010083094890
 43      -0.352749205380
 44       0.176374079746
 45       0.008289562983
 46      -0.019709673721
 47      -0.001764646170
 48      -0.000109306638
 49      -0.010925958714
 50      -0.031699005183
 51       0.142421804971
 52       0.014904106401
 53       0.000919616031
 54       0.119510369377
 55       0.266689324619
 56      -0.001601768752
 57      -0.002459399207
 58       0.016194456087
 59       0.002220639000
 60       0.000165749496
 61       0.032276205404
 62       0.017045669703
 63      -0.352790490500
 64      -2.269667119489
 65       0.621046749965
 66       0.315737101109
 67       0.330134133620
 68      -0.001022784648
 69       0.282683883649
 70       0.686923259910
 71       0.310894195847
 72      -0.093215533314
 73       0.204508955688
 74      -0.001440841258
 Sym=     1a
 Ene=  2.20000000000000E+01
Spin= Alpha
 Occup= 0.000027
  1      -0.145697115138
  2       0.024962139580
  3       0.825403462573
  4      -2.779608081454
  5      -2.796316615420
  6       0.754392663310
  7      -0.000001099128
  8       0.000641467318
  9       0.548719077064
 10       0.000005665704
 11       0.000468950233
 12       1.091343526367
 13      -0.000001396451
 14       0.000925646881
 15       0.276348404953
 16      -0.000888149820
 17       0.000000002498
 18      -0.568115571102
 19      -0.000001038621
 20       0.294322186765
 21      -0.000961085377
 22       0.000000058159
 23      -0.621810227237
 24       0.000004982579
 25      -0.000343193720
 26      -0.165127982812
 27      -0.000000733496
 28       0.000505404610
 29       0.000000026661
 30       0.273387295374
 31       0.000000203321
 32      -0.001999848958
 33      -0.144719824881
 34       0.637819113948
 35      -0.611015202370
 36       4.218426529539
 37       0.150418191300
 38      -0.000000042882
 39       0.000127088136
 40       0.778809602987
 41       0.000000488265
 42       0.000660803376
 43       1.063797154625
 44       0.000001245251
 45       0.000902030749
 46       0.021030813653
 47      -0.000074816808
 48       0.000000000499
 49      -0.051864484377
 50      -0.000000058052
 51      -0.193158648585
 52       0.000623947562
 53      -0.000000004206
 54       0.401627927685
 55       0.000000476402
 56      -0.000145521887
 57      -0.070013917332
 58       0.000000056153
 59       0.000190437037
 60       0.000000001071
 61       0.092864709141
 62      -0.000000144053
 63       0.100694059985
 64       0.224711675529
 65       0.548528850733
 66       0.020775696653
 67      -0.004681514725
 68       0.000017565461
 69       0.100695186850
 70       0.224721511099
 71       0.548525139968
 72       0.020775477337
 73       0.004683195226
 74       0.000017591717
 Sym=     1a
 Ene=  2.30000000000000E+01
Spin= Alpha
 Occup=-0.000000
  1       0.096826716122
  2      -0.137610557649
  3       0.688829488453
  4      -1.989063365718
  5      -0.684616186603
  6      -0.631111052704
  7      -0.090135071436
  8       0.006479818674
  9       5.254851914072
 10       0.031842128602
 11       0.001823276706
 12      -0.442942941673
 13       0.175807090760
 14      -0.010647298146
 15       0.126406321830
 16       0.000713168264
 17      -0.000876729941
 18       0.143607344806
 19       0.051332688395
 20       0.140904016945
 21      -0.001901840157
 22      -0.000930429503
 23      -3.044426763740
 24      -0.314175209282
 25       0.001358647489
 26      -0.842354374228
 27      -0.012291362043
 28       0.001436769946
 29      -0.000154636598
 30       0.201203339754
 31       0.068759744675
 32      -0.026643258905
 33      -0.177624375845
 34       0.497473597645
 35       3.184661418113
 36       1.713978664548
 37       0.348476519075
 38      -0.020607770786
 39       0.000602517683
 40       1.476820858767
 41      -0.094513592465
 42       0.002266937431
 43       0.810987677284
 44      -0.157157950338
 45       0.005441737430
 46      -0.010288139745
 47      -0.000105228105
 48      -0.000005579750
 49      -0.013911735289
 50       0.011372897576
 51       0.093946170832
 52       0.000851821484
 53       0.000046943415
 54       0.090356271034
 55      -0.095682198541
 56      -0.000113859475
 57       0.031015399712
 58       0.000121368653
 59       0.000028759603
 60       0.000004862504
 61      -0.074049408691
 62      -0.002188992094
 63      -0.187224512697
 64      -1.703047452453
 65       0.449629444031
 66       0.399081029295
 67       0.162232333367
 68       0.000912593594
 69      -0.216956802284
 70      -1.964504466851
 71       0.709918212102
 72       0.414178540140
 73      -0.228751718936
 74       0.000596773344
 Sym=     1a
 Ene=  2.40000000000000E+01
Spin= Alpha
 Occup= 0.000000
  1       0.014688907522
  2      -0.013502280889
  3      -0.013010697201
  4       0.007028553554
  5       0.011550292424
  6      -0.000235784408
  7      -0.000211541536
  8      -0.084279427119
  9       0.034131907276
 10       0.020958624037
 11      -1.103330487830
 12      -0.038882411174
 13      -0.015392945419
 14       1.364760701687
 15       0.015716043860
 16       0.452529770682
 17      -0.000031075055
 18      -0.031665194572
 19      -0.001632742039
 20      -0.005418138308
 21       0.303163145731
 22      -0.000073062103
 23       0.036505754197
 24       0.031450241736
 25       0.418133778813
 26      -0.049332798972
 27      -0.009147632099
 28      -0.183219095759
 29      -0.000094679071
 30       0.000256469591
 31      -0.010889990218
 32      -0.000573792524
 33      -0.000940472307
 34      -0.000786124961
 35       0.029467453393
 36      -0.047568320734
 37       0.008631437382
 38       0.001486627544
 39       0.088971060764
 40       0.012003789670
 41       0.007501604604
 42       0.367237679158
 43       0.001496940025
 44       0.011638628588
 45      -0.225344645624
 46       0.002404485150
 47      -0.067074126232
 48      -0.000000501864
 49      -0.001190608224
 50      -0.001047192683
 51      -0.018693170322
 52       0.564301858252
 53       0.000004222273
 54       0.007256483322
 55       0.008810216500
 56      -0.075852208585
 57      -0.006451038268
 58       0.000089023857
 59       0.089976096049
 60      -0.000005447598
 61       0.002335161020
 62       0.000737948556
 63      -0.011394840271
 64      -0.025177772928
 65       0.022343214348
 66      -0.002032955324
 67       0.013191146280
 68       0.057649937560
 69      -0.002532725300
 70       0.023326987702
 71      -0.006057560019
 72      -0.008895993126
 73      -0.004165953353
 74       0.057577565300
 Sym=     1a
 Ene=  2.50000000000000E+01
Spin= Alpha
 Occup=-0.000000
  1       0.003188720595
  2      -0.006476499509
  3       0.037273208628
  4      -0.093468034116
  5       0.050277310277
  6       0.000388746257
  7       0.007036072723
  8       0.282535718599
  9      -0.012743885212
 10      -0.023192126948
 11      -0.991235478931
 12       0.018404470900
 13       0.009238134053
 14      -0.197089882015
 15       0.002575322497
 16      -0.706537986039
 17       0.000039827776
 18       0.011008319717
 19      -0.000115659783
 20       0.019431218736
 21       1.835928764032
 22       0.000001992734
 23      -0.006216059668
 24       0.000905520745
 25       0.140755096860
 26      -0.001336131185
 27       0.003981679167
 28      -0.783637371784
 29      -0.000036798578
 30       0.012376145953
 31      -0.007018031788
 32       0.000060935444
 33      -0.000766502355
 34       0.004767107867
 35       0.006363636664
 36       0.013462924686
 37       0.001880138082
 38       0.001377871276
 39       0.106667862751
 40       0.002117767394
 41       0.005341425354
 42       0.633234464488
 43       0.002399060505
 44       0.000891148589
 45       0.944835212251
 46      -0.000177972620
 47      -0.092748854243
 48       0.000000541393
 49       0.000617693495
 50      -0.000641146554
 51       0.001851782301
 52       0.780312763095
 53      -0.000004554834
 54      -0.004239850037
 55       0.005394079389
 56       0.000462699323
 57       0.001294451307
 58      -0.000308377358
 59       0.013976297477
 60      -0.000001409035
 61      -0.000879465079
 62       0.001000517487
 63       0.005143909014
 64       0.038760616731
 65      -0.034164233361
 66      -0.003547240632
 67      -0.009129219478
 68      -0.167721377178
 69       0.002188147474
 70       0.019951948566
 71      -0.017013229890
 72      -0.003353745418
 73       0.004804109240
 74      -0.167728170599
 Sym=     1a
 Ene=  2.60000000000000E+01
Spin= Alpha
 Occup=-0.000000
  1       0.022012479537
  2      -0.031680206827
  3       0.125787495373
  4      -0.379575797521
  5       0.363661992300
  6      -0.012569057439
  7       0.002776598281
  8       0.001227750305
  9       0.208490085306
 10       1.754764732690
 11      -0.000703195720
 12      -0.192425365418
 13      -0.126238944917
 14      -0.001031245238
 15       0.135463065447
 16       0.000506174546
 17       0.000574055799
 18      -0.016189799470
 19      -0.685482523848
 20      -0.055887880382
 21       0.000207064940
 22       0.002287222715
 23      -0.090595293254
 24       2.498715110756
 25      -0.000283715993
 26       0.015733931348
 27      -0.030104620741
 28       0.000296517586
 29       0.001810665159
 30       0.088062815802
 31       0.758962194751
 32      -0.005862478112
 33      -0.005103319918
 34      -0.023674723558
 35       0.339564599353
 36      -0.309078771000
 37       0.032671523858
 38      -0.026263489487
 39       0.000063045611
 40       0.094591791906
 41       0.192330920884
 42       0.000205676621
 43       0.001278443473
 44       0.491567633151
 45       0.000570463417
 46      -0.000800026376
 47      -0.000020523341
 48      -0.000018276981
 49      -0.004634694306
 50       0.001308168297
 51       0.009433241128
 52       0.000173446060
 53       0.000153767469
 54       0.044614610885
 55      -0.011005848727
 56      -0.000023132036
 57       0.000272308614
 58       0.039895657307
 59       0.000044785464
 60      -0.000161413265
 61       0.010421463297
 62      -0.160585810494
 63      -0.165334301775
 64      -2.051556899899
 65       0.377413064740
 66      -0.115164120834
 67       0.410881068688
 68      -0.000369302255
 69       0.213486501717
 70       2.044248762608
 71      -0.472261439257
 72       0.109685610797
 73       0.459884468485
 74       0.000268129700
 Sym=     1a
 Ene=  2.70000000000000E+01
Spin= Alpha
 Occup= 0.002139
  1       0.000000000080
  2      -0.000000152329
  3       0.000001976257
  4      -0.000005926862
  5       0.000005283937
  6       0.000000862131
  7      -0.118720452310
  8      -0.000000001090
  9      -0.000005452073
 10       1.168162412652
 11       0.000000045431
 12       0.000000395512
 13      -0.190809753171
 14      -0.000000008387
 15       0.000000058350
 16      -0.000000009815
 17       0.000974541230
 18      -0.000000253770
 19       1.152772619622
 20       0.000001449542
 21      -0.000000068974
 22       0.000978884739
 23       0.000003003015
 24       1.153489801936
 25      -0.000000017780
 26       0.000000502073
 27      -0.024052723520
 28       0.000000026973
 29      -0.000052255256
 30       0.000000518807
 31      -0.081084291876
 32      -0.000000000626
 33       0.000000107549
 34      -0.000000345801
 35      -0.000001367076
 36      -0.000002271814
 37      -0.000000071351
 38       0.076312091451
 39      -0.000000005642
 40      -0.000000834900
 41       0.294668397578
 42      -0.000000032554
 43      -0.000000517980
 44       0.362461875508
 45      -0.000000035284
 46       0.000000041065
 47       0.000000005526
 48      -0.000058553419
 49       0.000000044086
 50      -0.069023237390
 51      -0.000000337875
 52      -0.000000046376
 53       0.000492620243
 54      -0.000000225603
 55       0.580704674354
 56       0.000000003454
 57      -0.000000012859
 58      -0.034370313405
 59      -0.000000004546
 60       0.000190856633
 61       0.000000036271
 62       0.139285029317
 63      -0.213109596494
 64      -1.321941142664
 65       0.314338277515
 66       0.162780918134
 67       0.356273692539
 68       0.000134525914
 69       0.213110213021
 70       1.321949913395
 71      -0.314343144724
 72      -0.162782274014
 73       0.356274973202
 74      -0.000134519886
 Sym=     1a
 Ene=  2.80000000000000E+01
Spin= Alpha
 Occup= 0.000000
  1      -0.004586180372
  2       0.013867824161
  3      -0.124190015875
  4       0.334190820021
  5      -0.124103879619
  6       0.001851645289
  7      -0.021291788631
  8      -0.684077570684
  9       0.017647814559
 10       0.060590932777
 11       0.686863214188
 12      -0.053253864466
 13      -0.018020869149
 14      -0.702963175407
 15      -0.002000303838
 16      -0.083646111240
 17      -0.000077970816
 18      -0.030574495385
 19       0.000690420269
 20      -0.074436088874
 21       0.296449418639
 22      -0.000015395460
 23       0.020151565543
 24      -0.016020144992
 25       0.911326362082
 26       0.004619277209
 27      -0.007696437480
 28      -0.337536086059
 29       0.000099333929
 30      -0.046006139915
 31       0.026369361420
 32      -0.000311486192
 33       0.003910310285
 34      -0.021303928470
 35      -0.033108083919
 36      -0.073554866158
 37      -0.008867666499
 38      -0.004850322775
 39       0.023452369506
 40      -0.019945755667
 41      -0.019259564560
 42       0.206344331501
 43      -0.020248346723
 44      -0.008625960269
 45       0.365659819546
 46      -0.000160889458
 47      -0.046109981719
 48      -0.000000556436
 49      -0.001768133150
 50       0.002401075276
 51       0.000858985649
 52       0.387929238675
 53       0.000004681396
 54       0.011448803776
 55      -0.020200670863
 56      -0.057415227592
 57      -0.003892670868
 58       0.000896508642
 59       0.057182051325
 60       0.000002115548
 61       0.002942645191
 62      -0.003401031174
 63      -0.015952802841
 64      -0.119759266626
 65       0.087107833495
 66       0.011059715942
 67       0.027175949456
 68       0.092171991295
 69      -0.011052992592
 70      -0.083504210384
 71       0.051862395833
 72       0.013842644334
 73      -0.018214772872
 74       0.092193171152
 Sym=     1a
 Ene=  2.90000000000000E+01
Spin= Alpha
 Occup=-0.000000
  1      -0.055751577126
  2       0.073230095287
  3      -0.393867377883
  4       1.187748952526
  5      -0.014682370946
  6       0.048064056618
  7      -0.055931905943
  8      -0.014449041103
  9      -0.117982288206
 10      -0.613166458158
 11       0.039010079617
 12      -0.140230871442
 13      -0.038322754545
 14      -0.011532272064
 15       0.360178024697
 16      -0.021913065281
 17      -0.003371134614
 18       0.117019918954
 19      -0.151830573848
 20      -0.444671773900
 21      -0.023638582268
 22      -0.001888503446
 23       0.061437610758
 24       1.145796598692
 25      -0.003178959536
 26      -0.242287493362
 27       0.609991058149
 28       0.007921294194
 29      -0.003867867364
 30      -0.330550425376
 31      -1.136110722942
 32      -0.001558605105
 33       0.027040651899
 34      -0.134693354223
 35      -0.048627299981
 36      -0.573441698472
 37      -0.034698324254
 38       0.123306092084
 39      -0.003106920660
 40      -0.101368980816
 41       0.685976697084
 42      -0.014987785680
 43      -0.186896057939
 44       0.577150381012
 45      -0.012829340937
 46       0.006175335267
 47       0.002642421724
 48      -0.000126676927
 49       0.002141909807
 50      -0.109334928730
 51      -0.056742547067
 52      -0.022219580221
 53       0.001065755338
 54      -0.012674164124
 55       0.919854046198
 56       0.002285463537
 57      -0.039379323528
 58      -0.039912812829
 59      -0.003103921468
 60       0.000139115493
 61      -0.006351344646
 62       0.133676721923
 63      -0.018633744763
 64      -0.552537754923
 65       0.121535507498
 66       0.075304359227
 67      -0.049011581289
 68       0.002387890445
 69      -0.217338111411
 70      -0.046376222911
 71       0.057831420026
 72      -0.024367264184
 73      -0.185174352178
 74       0.000619400539
 Sym=     1a
 Ene=  3.00000000000000E+01
Spin= Alpha
 Occup=-0.000000
  1      -0.022340627871
  2       0.123282001891
  3      -1.199928411846
  4       3.350527069172
  5      -1.615107236638
  6      -0.160654212194
  7       0.872608591411
  8       0.006253844250
  9       0.969350497216
 10      -1.850512504171
 11      -0.008542623593
 12       0.121445289919
 13      -0.834658382963
 14      -0.003778836533
 15      -0.306314357897
 16       0.006317237356
 17      -0.000228600574
 18      -0.113371588930
 19       0.072694873429
 20      -0.757090484612
 21       0.007908317198
 22      -0.000803916681
 23      -0.548204592733
 24      -0.253861166176
 25       0.000796218403
 26      -0.095083245454
 27       0.148497989979
 28      -0.001804015627
 29      -0.000359155587
 30      -0.161104758289
 31      -0.197144815586
 32       0.010119793456
 33       0.001677979369
 34       0.034375544704
 35      -0.217861988985
 36       0.419259409856
 37      -0.024479632897
 38       0.098652693187
 39       0.000766410722
 40      -0.041498514752
 41       0.186212947952
 42       0.003953068705
 43      -0.062275009406
 44       0.429414559990
 45       0.006280879485
 46      -0.017572318124
 47      -0.000683073445
 48      -0.000034067396
 49      -0.013471026820
 50      -0.018673982591
 51       0.143800140449
 52       0.005713798764
 53       0.000286615003
 54       0.067311858071
 55       0.157107498424
 56      -0.000613750984
 57       0.000684480101
 58      -0.010061759952
 59       0.000808832596
 60       0.000065013814
 61       0.002622261928
 62       0.031757493726
 63      -0.003005541752
 64      -0.548120024051
 65       0.997218851252
 66       0.205013400040
 67       0.179003911151
 68      -0.000184840045
 69      -0.171155521829
 70      -2.571586587621
 71       0.347866322570
 72       0.212119108483
 73      -0.313492948539
 74      -0.000363591486
 Sym=     1a
 Ene=  3.10000000000000E+01
Spin= Alpha
 Occup=-0.000000
  1      -0.007859376625
  2       0.010534347119
  3      -0.021822044192
  4       0.045840006065
  5      -0.038285157341
  6      -0.000250929518
  7       0.000080016588
  8       0.000026205186
  9       0.009862175195
 10      -0.001071756316
 11       0.000015378958
 12      -0.013744745646
 13       0.001433029576
 14      -0.000057912979
 15       0.005095377610
 16       0.000003677823
 17       0.753970976368
 18       0.000906817890
 19      -0.000324861421
 20      -0.008466130173
 21       0.000000000268
 22       0.318032254669
 23      -0.001032624819
 24       0.001847441833
 25      -0.000000574081
 26      -0.002708479817
 27      -0.001052947447
 28       0.000033510440
 29      -0.415608213271
 30      -0.003933213041
 31      -0.002844661970
 32       0.000011789323
 33       0.000477234567
 34      -0.003207030285
 35       0.002825833623
 36      -0.007113695631
 37      -0.000902270922
 38       0.000347364715
 39      -0.000002797155
 40       0.001490970900
 41       0.001592577874
 42      -0.000007824098
 43      -0.002176421327
 44       0.000508523286
 45       0.000011498280
 46      -0.000032913650
 47       0.000001467012
 48       0.026694896254
 49      -0.000137954703
 50      -0.000262022476
 51      -0.000547841639
 52      -0.000010756744
 53      -0.224588872126
 54       0.001598347882
 55       0.002204441235
 56      -0.000000926938
 57      -0.000817693918
 58      -0.000151220607
 59      -0.000000351804
 60      -0.055242440562
 61       0.000362226281
 62       0.000467051844
 63      -0.001023036604
 64      -0.014218449827
 65       0.018053336125
 66       0.001680258812
 67       0.001923398158
 68       0.010569824499
 69      -0.000643990250
 70      -0.012915977131
 71       0.019932215538
 72       0.000656669743
 73      -0.002342384337
 74      -0.010559866502
 Sym=     1a
 Ene=  3.20000000000000E+01
Spin= Alpha
 Occup=-0.000000
  1       0.003254182478
  2      -0.003979550325
  3       0.002653132334
  4      -0.000116670139
  5       0.015843416516
  6       0.000827009947
  7       0.000273701574
  8       0.000096700963
  9      -0.008737883878
 10      -0.002227509425
 11      -0.000232682210
 12       0.003866555231
 13      -0.000608071287
 14       0.000089478100
 15       0.001553516613
 16       0.000129393777
 17      -0.279689764747
 18       0.000428861846
 19       0.000468455578
 20      -0.004050814132
 21       0.000107725018
 22      -0.243653179484
 23       0.001187597505
 24      -0.008867049351
 25       0.000008010642
 26       0.004980407773
 27       0.000076441168
 28      -0.000026994269
 29      -1.102471377667
 30      -0.000423702297
 31       0.007492318073
 32      -0.000039108867
 33       0.000264300604
 34      -0.000864497304
 35      -0.004482376364
 36      -0.005404180821
 37      -0.000589220415
 38      -0.000714589988
 39       0.000014742751
 40      -0.003232119080
 41      -0.003708462243
 42       0.000066413640
 43      -0.001681175095
 44      -0.002568949481
 45       0.000045720445
 46      -0.000130981922
 47      -0.000012173085
 48       0.027580011660
 49      -0.000066831192
 50       0.000514114080
 51       0.001451926323
 52       0.000101681246
 53      -0.232035504209
 54       0.000305294226
 55      -0.004325332444
 56      -0.000011187486
 57       0.000360338847
 58      -0.000013362822
 59       0.000015527519
 60      -0.085427004858
 61       0.000147472651
 62      -0.000585643401
 63       0.001383307171
 64       0.005934307551
 65      -0.006789562821
 66      -0.001282151618
 67      -0.001137978195
 68       0.238327808447
 69      -0.000388089987
 70      -0.005172446649
 71      -0.006044444271
 72       0.001427312597
 73       0.000296495459
 74      -0.238340394751
 Sym=     1a
 Ene=  3.30000000000000E+01
Spin= Alpha
 Occup=-0.000000
  1       0.026229813093
  2       0.031206183989
  3       0.231393983694
  4      -1.700119062153
  5       0.063231509831
  6      -0.019247234806
  7      -0.217646812802
  8      -0.003804357209
  9       0.135610552945
 10       0.324354237208
 11       0.013714124236
 12      -0.849998704392
 13       0.178446197407
 14      -0.010532745318
 15       0.183020474696
 16      -0.007538248149
 17       0.000105046230
 18      -0.293330448389
 19      -0.020728235809
 20       0.155787641198
 21      -0.004735395656
 22       0.000033285957
 23       0.534956622083
 24       0.346835333372
 25       0.000694534383
 26       0.147506755733
 27       0.030676510547
 28       0.002967494330
 29      -0.000903897147
 30       1.311165178284
 31      -0.297419810406
 32      -0.001717599520
 33      -0.018030266935
 34       0.023312295722
 35       0.808692985090
 36      -0.831985679013
 37       0.190929922880
 38       0.012881859203
 39      -0.000747471343
 40       0.325624829603
 41       0.136677086096
 42      -0.003645874549
 43       0.049703131970
 44       0.037468941524
 45      -0.000407355638
 46      -0.003244855952
 47       0.000672827146
 48      -0.000008594996
 49      -0.034730346180
 50      -0.024565553625
 51       0.028902805442
 52      -0.005660405878
 53       0.000072311219
 54       0.295226870191
 55       0.206674337989
 56       0.000688417506
 57       0.002483440873
 58      -0.007559797949
 59      -0.000809860358
 60      -0.000000520311
 61       0.114575789274
 62       0.033915225349
 63       0.457144281047
 64       0.225239600648
 65       0.212036301212
 66      -0.198404650429
 67      -0.223408837169
 68       0.000323465734
 69       0.489767813843
 70       0.870286951163
 71       0.330235420707
 72      -0.274272636606
 73       0.207272842906
 74      -0.000015956072
 Sym=     1a
 Ene=  3.40000000000000E+01
Spin= Alpha
 Occup= 0.000000
  1       0.423226358007
  2      -0.611510035333
  3       0.807590275738
  4       0.131185477367
  5       3.234082320504
  6       0.032458417023
  7      -0.295042366035
  8      -0.008191564481
  9      -1.514152491193
 10       0.978653668320
 11       0.010402162399
 12       2.156286790559
 13       0.326419504963
 14       0.007603910030
 15      -0.153388046226
 16      -0.005614725042
 17       0.001861622772
 18       0.736440839286
 19      -0.065973434831
 20      -0.753272836553
 21      -0.009593326587
 22       0.001152477828
 23      -0.487367249084
 24       0.522096701970
 25      -0.001733785031
 26      -0.167735882742
 27      -0.235562242846
 28       0.002134794973
 29       0.000151939164
 30      -0.039752311006
 31       0.030341716441
 32       0.027974584901
 33       0.039579963504
 34       0.119242680284
 35      -1.043417420005
 36       0.200181981312
 37      -0.052826424971
 38      -0.023194800177
 39      -0.001013308870
 40      -0.685110203456
 41       0.009114498237
 42      -0.005674837417
 43      -0.490009205000
 44      -0.089955791566
 45      -0.009156462862
 46      -0.031064653948
 47       0.000955972338
 48       0.000037819799
 49       0.040118756807
 50       0.000281770357
 51       0.307622202056
 52      -0.008113173601
 53      -0.000318184635
 54      -0.340187883670
 55      -0.002370573681
 56       0.000859237213
 57       0.080334053448
 58       0.008987754361
 59      -0.001103612628
 60      -0.000093499402
 61      -0.089308815185
 62      -0.015756565070
 63      -0.166538798156
 64      -0.991323867311
 65      -1.804867536691
 66       0.096158649031
 67       0.044175259327
 68       0.000582029454
 69       0.041644792103
 70       0.468459743971
 71      -1.653446514708
 72       0.021130274612
 73       0.154425715505
 74       0.000741287712
 Sym=     1a
 Ene=  3.50000000000000E+01
Spin= Alpha
 Occup=-0.000000
  1       0.019341330644
  2      -0.077770056367
  3      -0.213290055988
  4       2.855321604568
  5       0.312082055425
  6      -0.112905345923
  7      -0.000110219673
  8      -0.000073570977
  9      -2.287941491149
 10      -0.000708380612
 11      -0.005221600391
 12      -0.263058249703
 13       0.003177799681
 14       0.001849862665
 15      -0.143706476869
 16       0.001393678934
 17       0.000001251508
 18       0.218369759772
 19       0.000342049153
 20      -0.441761982202
 21       0.004353729853
 22      -0.000118209498
 23       0.924175745291
 24       0.002300861674
 25       0.001899210635
 26       0.191495816419
 27       0.000066020062
 28      -0.002602061967
 29       0.000035115449
 30      -0.218288944080
 31      -0.000951081837
 32      -1.328162663820
 33       1.438128323610
 34      -0.099710803266
 35      -1.988113407436
 36      -1.895344660988
 37       0.095033474763
 38      -0.002362405840
 39      -0.006098832367
 40      -1.393731991528
 41       0.005190508795
 42       0.010693366489
 43      -0.802380536111
 44      -0.002629032087
 45      -0.005320238133
 46      -0.017908303187
 47      -0.000184779186
 48      -0.000959032689
 49       0.026094338582
 50      -0.000835743222
 51       0.217315238351
 52       0.002247550066
 53       0.000855964632
 54      -0.395236111557
 55       0.001893876262
 56      -0.000043649337
 57       0.064253902813
 58       0.000416466969
 59       0.000537724558
 60      -0.000055419540
 61      -0.060333447130
 62       0.000243135390
 63       0.013385041170
 64       0.096951072543
 65      -0.008351073599
 66      -0.022474654028
 67       0.024309718636
 68      -0.000176039080
 69       0.013604829537
 70       0.099090556703
 71      -0.005074152040
 72      -0.022465088415
 73      -0.024003969561
 74      -0.000231941649
 Sym=     1a
 Ene=  3.60000000000000E+01
Spin= Alpha
 Occup=-0.000000
  1      -0.055815382474
  2       0.068486358531
  3       0.563734666853
  4      -5.720060284496
  5      -0.546913930505
  6       0.167064215037
  7       0.007286277179
  8      -0.000564890571
  9       2.917048082315
 10       0.082118935239
 11      -0.000636530248
 12       0.656588277506
 13      -0.037827218442
 14       0.000248671870
 15       0.104244947973
 16       0.000950609716
 17      -0.000013264946
 18      -0.127324929032
 19      -0.016539998922
 20       0.415497361249
 21       0.001310076816
 22      -0.000048044341
 23      -0.608310595845
 24      -0.064282410080
 25       0.000768971850
 26      -0.094905649859
 27      -0.006517159737
 28      -0.001409608397
 29       0.000044593678
 30       0.114614647772
 31       0.033768284725
 32      -0.081558706626
 33       0.163446210853
 34      -0.480387577302
 35       0.842223875867
 36       5.302707295973
 37       0.131584108287
 38       0.033151754195
 39       0.000077871777
 40       0.864258722031
 41      -0.105876236456
 42       0.002748525916
 43       2.929352549641
 44       0.014901603839
 45       0.004114741576
 46       0.016406888941
 47      -0.000982234504
 48       0.000027403091
 49      -0.098876412145
 50       0.030992324558
 51      -1.115152565606
 52       0.008440747165
 53      -0.000213947052
 54       0.700876172779
 55      -0.132315249064
 56       0.001464610604
 57       0.059573883208
 58       0.007630640829
 59       0.005515689370
 60      -0.000009121073
 61       0.089178435471
 62      -0.025350838802
 63       0.005464208150
 64       0.100312557795
 65      -0.146011362493
 66      -0.013156696934
 67      -0.017806185429
 68      -0.000104338469
 69       0.002958637486
 70       0.111659798274
 71      -0.193486610331
 72      -0.015968293383
 73       0.015682896646
 74      -0.000104246810
 Sym=     1a
 Ene=  3.70000000000000E+01
Spin= Alpha
 Occup= 0.000000
  1       0.028637773316
  2      -0.170572895361
  3      -0.533398311538
  4       7.070987582920
  5       0.652097580879
  6      -0.247689042822
  7       0.001629072860
  8      -0.000575457436
  9      -6.884012370006
 10       0.010403263759
 11      -0.007720304959
 12      -0.353266127025
 13      -0.001880431405
 14      -0.000569775538
 15      -0.344791085249
 16       0.001585469449
 17      -0.000002463231
 18       0.560096064580
 19      -0.003360255709
 20      -1.231251534066
 21       0.005635219783
 22      -0.000002435524
 23       2.957577506854
 24      -0.007386144735
 25       0.001588445876
 26       0.511532773169
 27      -0.001279423866
 28      -0.001980165136
 29       0.000007350198
 30      -0.451141793987
 31       0.005752195456
 32       0.397208807799
 33      -0.965599302505
 34       3.968951116253
 35      -9.825671393093
 36      -2.933012644173
 37       0.226442959137
 38       0.001785457189
 39       0.000152192067
 40      -4.195094407399
 41      -0.009632479421
 42      -0.002656215373
 43      -1.449825566637
 44      -0.001847439816
 45      -0.000004030143
 46      -0.064687161537
 47       0.000085051679
 48       0.000012215163
 49       0.126182415433
 50       0.004182274548
 51       0.381429052358
 52       0.002399879591
 53      -0.000063620794
 54      -0.970736245968
 55      -0.015510664803
 56       0.000573649638
 57       0.137134158071
 58       0.002444053462
 59       0.001830898460
 60      -0.000003356143
 61      -0.117654832904
 62      -0.010260414976
 63       0.107505903929
 64       0.603319198273
 65      -0.199108252938
 66      -0.130700185025
 67      -0.000387540326
 68      -0.000140920475
 69       0.107292876654
 70       0.605763310556
 71      -0.202040626522
 72      -0.130563220329
 73       0.000878877369
 74      -0.000139359915
 Sym=     1a
 Ene=  3.80000000000000E+01
Spin= Alpha
 Occup= 1.987128
  1       0.011018693616
  2       0.018181752094
  3       0.042451750996
  4      -0.304484353639
  5      -0.030230183503
  6       0.036662889662
  7      -0.000000001728
  8       0.000031105833
  9       0.236595735030
 10      -0.000000001710
 11       0.000200801732
 12       0.060767632594
 13      -0.000000010782
 14       0.000051546376
 15       0.002826545806
 16      -0.000007073173
 17       0.000000000002
 18      -0.003445297104
 19      -0.000000000288
 20       0.012618068567
 21      -0.000035036982
 22      -0.000000000040
 23      -0.019440829953
 24      -0.000000004146
 25      -0.000002677640
 26      -0.001288032907
 27      -0.000000000204
 28       0.000003227057
 29       0.000000000014
 30       0.001449608238
 31       0.000000001395
 32       0.003198161770
 33      -0.079381561872
 34       0.338508460875
 35       0.411486140531
 36       0.450501922803
 37      -0.293393931338
 38       0.000000026301
 39      -0.000249116222
 40      -0.194801908310
 41       0.000000012874
 42      -0.000165421197
 43      -0.070680729967
 44       0.000000031981
 45      -0.000060151996
 46       0.003734119657
 47      -0.000009439493
 48      -0.000000000366
 49      -0.004649795758
 50      -0.000000000765
 51       0.008981143061
 52      -0.000023335557
 53       0.000000000201
 54      -0.011881324785
 55       0.000000008036
 56       0.000001892916
 57       0.000915822126
 58       0.000000000487
 59      -0.000004326987
 60       0.000000000001
 61      -0.002983337282
 62      -0.000000000667
 63      -0.002540706831
 64      -0.000788385976
 65      -0.009355390142
 66      -0.001258858943
 67      -0.000193034036
 68      -0.000001068491
 69      -0.002540708098
 70      -0.000788385033
 71      -0.009355407118
 72      -0.001258859539
 73       0.000193033694
 74      -0.000001068510
 Sym=     1a
 Ene=  3.90000000000000E+01
Spin= Alpha
 Occup= 1.999956
  1       0.000365751901
  2      -0.000993177932
  3       0.001722609786
  4       0.022587656902
  5       0.001832119241
  6      -0.002564989422
  7       0.000000000328
  8      -0.000002181192
  9      -0.011618692745
 10       0.000000002055
 11      -0.000009873819
 12      -0.002550482157
 13       0.000000001987
 14      -0.000002166036
 15      -0.000723055468
 16       0.000001946448
 17       0.000000000000
 18       0.001043202510
 19       0.000000000100
 20      -0.001435009707
 21       0.000004207643
 22       0.000000000003
 23       0.002474123227
 24       0.000000000501
 25       0.000000775434
 26       0.000373352427
 27       0.000000000024
 28      -0.000001075402
 29      -0.000000000002
 30      -0.000554780093
 31      -0.000000000244
 32       0.447428699388
 33       0.676813164975
 34      -0.045644398553
 35      -0.123358297716
 36      -0.065274431308
 37       0.036857348198
 38      -0.000000002056
 39       0.000031313283
 40       0.018455210253
 41      -0.000000000550
 42       0.000015685984
 43       0.014556106821
 44      -0.000000003762
 45       0.000012387165
 46      -0.000635760103
 47       0.000001586904
 48       0.000000000014
 49       0.000769777360
 50       0.000000000193
 51       0.000907661412
 52      -0.000003808402
 53      -0.000000000018
 54      -0.002927689193
 55      -0.000000001708
 56       0.000001029804
 57       0.000493884446
 58      -0.000000000054
 59      -0.000001128114
 60      -0.000000000003
 61      -0.000447742463
 62       0.000000000030
 63       0.000025029470
 64      -0.000321994616
 65       0.000669996289
 66       0.000174091075
 67       0.000148530986
 68       0.000000147054
 69       0.000025029712
 70      -0.000321991663
 71       0.000669998323
 72       0.000174091054
 73      -0.000148530957
 74       0.000000147054
 Sym=     1a
 Ene=  4.00000000000000E+01
Spin= Alpha
 Occup=-0.000000
  1      -0.071764307331
  2       0.294501287298
  3      -0.332634008614
  4      -6.302315617378
  5      -0.518614743705
  6       0.715364968072
  7       0.003231456291
  8      -0.007041564042
  9       5.384454461023
 10       0.040014539497
 11      -0.038596703369
 12       0.569431162821
 13      -0.022485422547
 14      -0.005290293673
 15       0.349125089861
 16       0.018509348713
 17      -0.000006692964
 18      -0.535585223420
 19      -0.007870567999
 20       0.969656250018
 21       0.029522972764
 22      -0.000026834979
 23      -2.109312912308
 24      -0.032110032965
 25       0.013430923153
 26      -0.367315935525
 27      -0.003106067168
 28      -0.024708176246
 29       0.000021877176
 30       0.416944077593
 31       0.017143702981
 32      -0.126366651503
 33       0.012079718302
 34      -0.532663339894
 35       4.303094945746
 36       4.707875494710
 37      -1.250459512718
 38       0.018903855534
 39      -0.013633498147
 40       4.884554404645
 41      -0.056422763000
 42       0.029764115933
 43       1.295407918877
 44       0.011005085967
 45       0.045826192696
 46       0.099322119242
 47      -0.015758991292
 48       0.000012182741
 49      -0.182487445970
 50       0.011581417202
 51      -0.859669092619
 52       0.054410313539
 53      -0.000056269675
 54       1.411716210019
 55      -0.063527718761
 56       0.019111101689
 57      -0.060625694698
 58       0.002308310995
 59       0.106964947773
 60      -0.000014007601
 61       0.224510433116
 62      -0.010532386298
 63      -0.033541844408
 64      -0.271796838221
 65      -0.015470994643
 66       0.036183147922
 67      -0.044699109629
 68      -0.001594861681
 69      -0.034771545343
 70      -0.267704377201
 71      -0.043131442087
 72       0.035287711695
 73       0.043669804275
 74      -0.001595492522
 Sym=     1a
 Ene=  4.10000000000000E+01
Spin= Alpha
 Occup=-0.000000
  1      -0.018045555171
  2       0.022644705849
  3       0.162730700929
  4      -1.718486168045
  5      -0.159687206873
  6       0.050318896117
  7      -0.061177423338
  8       0.000513983016
  9       0.873732937332
 10      -0.360005102091
 11       0.003393378115
 12       0.206919163144
 13       1.182149511664
 14       0.000576671030
 15       0.026742058504
 16      -0.000710313071
 17       0.000126061858
 18      -0.038791587985
 19       0.145598672834
 20       0.106239606001
 21      -0.001983725184
 22       0.000827669870
 23      -0.185000894948
 24       1.003509450907
 25      -0.000774909803
 26      -0.037243352774
 27       0.036068532166
 28       0.000985017224
 29      -0.000428923242
 30       0.027234759562
 31      -0.349422368950
 32      -0.012359380558
 33       0.003037658807
 34       0.016761692148
 35       0.055900974458
 36       1.668508443670
 37      -0.026174645265
 38      -0.906412778679
 39      -0.000090109298
 40       0.334619087765
 41       2.065975652713
 42      -0.000845213702
 43       0.856754386802
 44      -0.969293792652
 45      -0.000676574447
 46       0.022968593346
 47      -0.000693834064
 48      -0.000676707841
 49       0.002557290303
 50      -0.659357488674
 51      -0.027045754164
 52      -0.005599935615
 53       0.001122352634
 54       0.396723721557
 55       1.002123520430
 56       0.000426581346
 57      -0.057443923370
 58      -0.040873217296
 59      -0.000653637797
 60      -0.000013344200
 61      -0.088082571774
 62       0.068927719042
 63      -0.055539080917
 64      -0.385728028702
 65      -0.654690162135
 66      -0.036233620292
 67       0.074280557034
 68      -0.000025198348
 69       0.039076735008
 70       0.462067687614
 71       0.544330192134
 72       0.022215719228
 73       0.076805002319
 74       0.000009277783
 Sym=     1a
 Ene=  4.20000000000000E+01
Spin= Alpha
 Occup= 0.000000
  1       0.000222607962
  2      -0.000903078724
  3       0.003501895413
  4       0.009105800067
  5       0.000328912941
  6      -0.002872845673
  7       0.000005982251
  8       0.011039684540
  9      -0.008181444645
 10      -0.000120316783
 11      -0.577569940660
 12      -0.001254311465
 13       0.000323683441
 14       0.397324600956
 15      -0.000467765447
 16       0.174033056780
 17      -0.000001621538
 18       0.000988641070
 19       0.000032991295
 20      -0.000245810285
 21       0.519558986472
 22      -0.000011763534
 23       0.002772440956
 24       0.000121827913
 25       0.272034431459
 26      -0.000768017014
 27      -0.000005152576
 28      -0.387321494743
 29       0.000001144092
 30      -0.000103003517
 31      -0.000150497186
 32       0.007480618645
 33      -0.007668108273
 34       0.002846646440
 35      -0.005943529112
 36      -0.009103113984
 37       0.005074258844
 38      -0.000217407785
 39      -1.159411437063
 40      -0.013278275523
 41       0.000451616363
 42       2.221561852929
 43      -0.000831237201
 44      -0.000245279707
 45      -0.914395146874
 46       0.001041404988
 47       0.027308409706
 48      -0.000009423804
 49       0.001645464928
 50       0.000357711171
 51       0.002227509859
 52       0.473311677843
 53       0.000171258957
 54      -0.004970546447
 55       0.000065167290
 56       0.019167260183
 57       0.000784631358
 58       0.000423307632
 59       0.110652098823
 60      -0.000035323977
 61      -0.001958822289
 62       0.000101831107
 63       0.000027684024
 64       0.000749127241
 65       0.000032461397
 66      -0.000023332462
 67       0.000019368001
 68      -0.035016995879
 69       0.000036678494
 70       0.000801213366
 71       0.000415786949
 72      -0.000093837664
 73      -0.000038519801
 74      -0.035020933207
 Sym=     1a
 Ene=  4.30000000000000E+01
Spin= Alpha
 Occup= 0.000130
  1      -0.009714405180
  2       0.002889841861
  3       0.771334553738
  4      -4.183175209570
  5      -0.432357079812
  6      -0.053956768595
  7      -0.000003968765
  8      -0.000044998924
  9       2.716677258557
 10       0.000033718408
 11       0.002292305758
 12       0.777789389797
 13       0.000018286260
 14       0.000656501957
 15       0.123850773016
 16      -0.000324923939
 17       0.000000002971
 18      -0.170477172013
 19      -0.000000295485
 20       0.419915491505
 21      -0.001254911387
 22      -0.000000072252
 23      -0.758223543135
 24      -0.000002635802
 25      -0.000277143452
 26      -0.134182923594
 27      -0.000000365149
 28       0.000330412685
 29       0.000000022986
 30       0.146929813601
 31      -0.000000692890
 32       0.098949968577
 33      -0.099544274311
 34       0.413012712411
 35      -0.703565961877
 36       5.359302849374
 37       0.049744185070
 38       0.000013955203
 39       0.000030700858
 40       1.890477700845
 41       0.000006575626
 42       0.001610084729
 43       0.550601976488
 44      -0.000047223103
 45       0.000485574843
 46      -0.012823066617
 47       0.000000291509
 48      -0.000000676289
 49      -0.020600664743
 50       0.000005584711
 51      -0.170501832200
 52       0.000503958302
 53       0.000000367868
 54       0.286001106138
 55      -0.000011343014
 56      -0.000113138687
 57      -0.053987590805
 58      -0.000000023896
 59       0.000044958545
 60       0.000000004210
 61      -0.027785372251
 62       0.000000079665
 63      -0.030727386136
 64       0.068985543825
 65      -0.216940722936
 66      -0.017362832155
 67      -0.015454677825
 68      -0.000014740943
 69      -0.030726869043
 70       0.069015329977
 71      -0.216930179396
 72      -0.017365104886
 73       0.015454587288
 74      -0.000014778234
 Sym=     1a
 Ene=  4.40000000000000E+01
Spin= Alpha
 Occup= 0.003826
  1      -0.000000474557
  2       0.000005285203
  3      -0.000076688008
  4       0.000278622930
  5       0.000031253236
  6       0.000020684745
  7      -0.141939792601
  8       0.000000023002
  9      -0.000146207630
 10       1.185315415307
 11      -0.000000057344
 12      -0.000046510564
 13       0.647436003185
 14      -0.000000028727
 15      -0.000003424881
 16      -0.000000000345
 17      -0.000007849649
 18       0.000004097819
 19      -0.009149438175
 20      -0.000018432066
 21       0.000000002468
 22      -0.000071844442
 23       0.000030749394
 24      -0.082749729051
 25       0.000000009745
 26       0.000003568927
 27      -0.012663886474
 28      -0.000000009944
 29      -0.000008681391
 30      -0.000003100792
 31      -0.024486647796
 32      -0.000003039136
 33       0.000005129216
 34      -0.000029021984
 35       0.000056512420
 36      -0.000313543190
 37       0.000013092373
 38       0.492016509640
 39       0.000000031851
 40      -0.000071912391
 41       0.238711504158
 42      -0.000000091477
 43      -0.000095681799
 44      -1.673829365862
 45      -0.000000144762
 46      -0.000001147043
 47       0.000000247238
 48       0.000148950455
 49       0.000003534959
 50       0.175666230830
 51      -0.000006178819
 52      -0.000000137178
 53      -0.000330017117
 54       0.000012879768
 55      -0.387997016734
 56       0.000000003491
 57      -0.000000616126
 58      -0.001283085313
 59       0.000000000388
 60       0.000006456650
 61       0.000005311820
 62       0.004673793333
 63      -0.010518373939
 64      -0.526293694230
 65      -0.189520743684
 66       0.038202854823
 67      -0.000417161583
 68       0.000032409509
 69       0.010523138823
 70       0.526278682097
 71       0.189545221523
 72      -0.038200819014
 73      -0.000417080305
 74      -0.000032405563
 Sym=     1a
 Ene=  4.50000000000000E+01
Spin= Alpha
 Occup= 0.000000
  1      -0.000835830503
  2       0.003405376609
  3      -0.003605070233
  4      -0.072971675312
  5      -0.005974606496
  6       0.008267512029
  7       0.000090194534
  8      -0.074572857306
  9       0.060806880003
 10       0.000818013653
 11       0.515191750135
 12       0.006445597046
 13      -0.001129067239
 14       0.266686959655
 15       0.004014189139
 16      -0.013430372526
 17      -0.000000179597
 18      -0.006190242987
 19      -0.000208005410
 20       0.010953823866
 21      -0.080064998699
 22      -0.000000998941
 23      -0.023778941092
 24      -0.001182987526
 25      -0.004623271758
 26      -0.004165788525
 27      -0.000065192015
 28      -0.005786005302
 29       0.000000591085
 30       0.005019078672
 31       0.000465029464
 32      -0.001364562166
 33      -0.000103248359
 34      -0.005116457755
 35       0.047495867583
 36       0.055093359540
 37      -0.014562406425
 38       0.000899220567
 39       0.418517173283
 40       0.055270128684
 41      -0.002248328793
 42       0.368286867184
 43       0.016540684798
 44       0.000828388634
 45      -1.438854994489
 46       0.000710662705
 47      -0.222583667148
 48       0.000000599619
 49      -0.001116714476
 50       0.000733953752
 51      -0.009462809050
 52      -0.128134054968
 53      -0.000001564528
 54       0.016295656054
 55      -0.001659700729
 56       0.078632652215
 57      -0.000758768540
 58       0.000059221164
 59       0.036766749215
 60      -0.000000130583
 61       0.002935701385
 62      -0.000168136098
 63      -0.000258629619
 64      -0.002508236063
 65       0.000167887777
 66       0.000388264211
 67      -0.000656264894
 68      -0.009665968595
 69      -0.000348194261
 70      -0.003065380719
 71      -0.001035166323
 72       0.000316152663
 73       0.000520032987
 74      -0.009666021842
 Sym=     1a
 Ene=  4.60000000000000E+01
Spin= Alpha
 Occup= 1.876993
  1      -0.000000001640
  2       0.000000000694
  3       0.000000012432
  4      -0.000000112322
  5      -0.000000010534
  6      -0.000000000698
  7      -0.079525503683
  8       0.000000000047
  9       0.000000098533
 10      -0.134000734738
 11      -0.000000000605
 12       0.000000004305
 13      -0.059487492216
 14      -0.000000000124
 15       0.000000006440
 16       0.000000000076
 17       0.000001122655
 18      -0.000000009549
 19       0.001350643647
 20       0.000000023079
 21       0.000000000548
 22      -0.000017115356
 23      -0.000000043998
 24      -0.020303027219
 25      -0.000000000074
 26      -0.000000008884
 27       0.000969983932
 28       0.000000000080
 29       0.000000664138
 30       0.000000008778
 31       0.001846442153
 32       0.000000003718
 33       0.000000019648
 34      -0.000000076400
 35       0.000000085035
 36       0.000000049127
 37      -0.000000021072
 38       0.520379200082
 39      -0.000000001102
 40       0.000000060095
 41       0.436725966927
 42      -0.000000000375
 43       0.000000019322
 44       0.307494742714
 45       0.000000000544
 46      -0.000000000442
 47      -0.000000003166
 48       0.000004698976
 49       0.000000002205
 50       0.005514709535
 51      -0.000000015622
 52       0.000000001845
 53       0.000031070975
 54       0.000000009528
 55       0.036534204949
 56      -0.000000000051
 57      -0.000000001516
 58      -0.000352022243
 59       0.000000000053
 60       0.000010499452
 61       0.000000000617
 62       0.009650517847
 63       0.007445271595
 64       0.050934339379
 65       0.023738980721
 66       0.001032193605
 67      -0.002942589478
 68       0.000000893116
 69      -0.007445276277
 70      -0.050934336629
 71      -0.023738982924
 72      -0.001032193639
 73      -0.002942587754
 74      -0.000000893143
 Sym=     1a
 Ene=  4.70000000000000E+01
Spin= Alpha
 Occup=-0.000000
  1      -0.000010562398
  2       0.000010475694
  3      -0.000337351165
  4       0.000050068955
  5      -0.000010208206
  6       0.000191141181
  7      -0.000052835955
  8      -0.000001314019
  9      -0.000472963786
 10      -0.000983830549
 11       0.000042818279
 12       0.000089310296
 13      -0.000550957789
 14      -0.000031637447
 15      -0.000047488065
 16      -0.000012821408
 17       0.032682298901
 18       0.000054703841
 19       0.000081365078
 20      -0.000133252916
 21      -0.000038760609
 22       0.021365559570
 23       0.000336409110
 24      -0.000269431907
 25      -0.000020314965
 26       0.000175028982
 27       0.000097015079
 28       0.000029306798
 29      -0.194678010606
 30      -0.000130971918
 31       0.000096694502
 32       0.000466948177
 33      -0.000509868073
 34       0.000288782833
 35      -0.000971648791
 36       0.000609810543
 37       0.000017756157
 38       0.000409550255
 39       0.000092202253
 40      -0.000293029797
 41      -0.000530369672
 42      -0.000174703093
 43       0.000395075147
 44       0.000716447594
 45       0.000073570697
 46       0.000601533185
 47      -0.000004552491
 48      -0.249985933395
 49      -0.000560062268
 50       0.000286755822
 51      -0.000406988426
 52      -0.000030503553
 53       0.340968516490
 54       0.000439419064
 55       0.000358319038
 56      -0.000003583796
 57       0.000124834106
 58      -0.006406973397
 59      -0.000007852760
 60      -0.971383750444
 61       0.000272948944
 62       0.000311185971
 63       0.000133669472
 64       0.000723734593
 65       0.000113576923
 66      -0.000115228191
 67      -0.000128082782
 68       0.036352431462
 69      -0.000123908245
 70      -0.000506416067
 71      -0.000279007321
 72       0.000074328331
 73      -0.000118550381
 74      -0.036346888116
 Sym=     1a
 Ene=  4.80000000000000E+01
Spin= Alpha
 Occup= 0.000000
  1       0.000091590469
  2      -0.000491136325
  3      -0.001660986807
  4       0.015096914027
  5       0.001259201621
  6      -0.000265974717
  7       0.000000501245
  8      -0.075465759027
  9      -0.012672021095
 10      -0.000061291057
 11      -0.585383792833
 12      -0.000983302057
 13       0.000031580952
 14      -0.038458212493
 15      -0.000645046585
 16       0.171330339326
 17       0.000000096765
 18       0.001191689902
 19       0.000011765681
 20      -0.002088571546
 21       0.445693095361
 22       0.000000636181
 23       0.005287980385
 24      -0.000003788831
 25       0.141986106644
 26       0.000842153290
 27       0.000007185782
 28      -0.158566619097
 29      -0.000000171961
 30      -0.001578473857
 31      -0.000042046980
 32       0.000775260743
 33      -0.000657220950
 34       0.001777653845
 35      -0.012486064119
 36      -0.008422723575
 37       0.002161235742
 38      -0.000015650253
 39      -0.218707938007
 40      -0.010699359202
 41       0.000042407267
 42       0.472192711638
 43      -0.002277601687
 44      -0.000007445764
 45       0.390178463760
 46       0.000147655033
 47      -1.044576342672
 48       0.000001027424
 49      -0.001937350201
 50       0.000135023831
 51       0.001747178917
 52       1.055205284712
 53      -0.000008197504
 54      -0.001409431953
 55       0.000015410157
 56      -0.588792800313
 57       0.001157159669
 58       0.000011301635
 59       0.139186674673
 60       0.000001513502
 61      -0.000067587644
 62       0.000031370870
 63      -0.000027951330
 64       0.000667760461
 65      -0.000259068554
 66      -0.000082964514
 67       0.000186489606
 68      -0.002289475098
 69      -0.000035321246
 70       0.000609219538
 71      -0.000204538113
 72      -0.000104667720
 73      -0.000206313759
 74      -0.002289280393
 Sym=     1a
 Ene=  4.90000000000000E+01
Spin= Alpha
 Occup=-0.000000
  1      -0.000012058607
  2       0.000057024747
  3       0.000379559447
  4      -0.002562975921
  5      -0.000291023386
  6      -0.000018112627
  7       0.000001575798
  8       0.000000058340
  9       0.002367721380
 10       0.000327706142
 11       0.000001555511
 12       0.000211992600
 13      -0.000835922268
 14       0.000000379458
 15       0.000141750700
 16      -0.000000299732
 17      -0.003200980746
 18      -0.000211001106
 19      -0.000102310338
 20       0.000400292386
 21      -0.000001110529
 22      -0.132676459323
 23      -0.001058563955
 24      -0.000124794434
 25      -0.000000408848
 26      -0.000237139550
 27      -0.000009421808
 28       0.000000446580
 29       0.092520813516
 30       0.000258802748
 31       0.000268314234
 32       0.001019672396
 33      -0.001108633953
 34       0.000010546358
 35       0.002195364691
 36       0.001500346399
 37      -0.000084499087
 38       0.000541441644
 39      -0.000001106666
 40       0.001359637458
 41      -0.001118143556
 42       0.000002521121
 43       0.000585544331
 44       0.000615995894
 45       0.000000435690
 46      -0.000561593180
 47      -0.000000262258
 48      -1.147183853162
 49       0.000080079413
 50       0.000261701239
 51       0.000180306944
 52       0.000000023296
 53       0.620999556875
 54       0.000249410600
 55      -0.000533920636
 56      -0.000000161992
 57      -0.000036155560
 58       0.001720567712
 59       0.000000001618
 60       0.253474790454
 61      -0.000077252610
 62      -0.000134022327
 63      -0.000049558280
 64      -0.000183967576
 65       0.000550515624
 66      -0.000012550619
 67       0.000045688351
 68       0.022358239952
 69       0.000016812674
 70      -0.000274748636
 71      -0.000434026504
 72       0.000122159788
 73       0.000057768606
 74      -0.022358207789
 Sym=     1a
 Ene=  5.00000000000000E+01
Spin= Alpha
 Occup= 0.000000
  1       0.002137654244
  2      -0.026775041075
  3      -0.631879577635
  4       2.028908866657
  5       0.193877519088
  6       0.195537738363
  7      -0.002445601174
  8       0.000002711814
  9      -1.942450200024
 10      -0.013235394781
 11      -0.001152525160
 12      -0.094275208828
 13       0.124142993616
 14       0.000092308250
 15      -0.134106032070
 16       0.000417115520
 17       0.000021664316
 18       0.178439319678
 19       0.012234815209
 20      -0.393856273275
 21       0.001102787060
 22       0.000098244724
 23       0.904600172928
 24       0.068910483488
 25       0.000881529688
 26       0.315830299709
 27       0.003993378368
 28      -0.001049615028
 29      -0.000010510304
 30      -0.294621570784
 31      -0.038551205431
 32       0.025218814165
 33      -0.018037861256
 34       0.248580266054
 35      -2.010571709760
 36      -0.786400050593
 37       0.055613192355
 38      -0.087890774406
 39       0.000901773750
 40      -1.063862334549
 41       0.183396635043
 42      -0.000924695165
 43      -0.223445322752
 44      -0.102941982342
 45      -0.001674817052
 46       0.875875730761
 47       0.001587427790
 48      -0.000396677522
 49      -0.726972059282
 50       0.009317742146
 51      -0.400549785158
 52       0.000658135257
 53      -0.001129163472
 54       0.292231662569
 55       0.028491149898
 56       0.000584614556
 57       0.146937913377
 58      -0.003833426168
 59       0.000534332275
 60       0.000442905896
 61       0.318811361546
 62       0.010592652691
 63       0.003561021842
 64       0.135654091543
 65      -0.151490604714
 66      -0.033730630737
 67       0.010329701474
 68      -0.000029673576
 69       0.008886982453
 70       0.213783223525
 71      -0.021325007426
 72      -0.039596086029
 73      -0.004643617747
 74      -0.000019564350
 Sym=     1a
 Ene=  5.10000000000000E+01
Spin= Alpha
 Occup=-0.000000
  1      -0.006616887534
  2       0.014988893503
  3      -0.098413492460
  4      -0.140798025879
  5      -0.005241845669
  6       0.074767312385
  7      -0.014429281988
  8       0.000178211153
  9      -0.010538535088
 10       0.012002591468
 11       0.000229658859
 12       0.024653194085
 13      -1.063118015887
 14       0.000161002632
 15       0.008230107975
 16      -0.000183792044
 17      -0.000062692499
 18      -0.005498986155
 19      -0.091313058313
 20       0.001058823661
 21      -0.000115507726
 22      -0.000063094816
 23       0.071504088297
 24      -0.260234519915
 25      -0.000180600376
 26      -0.014464546341
 27      -0.045775896460
 28       0.000137050480
 29       0.000368066673
 30      -0.044085271641
 31       0.393009380696
 32      -0.007424482012
 33       0.004296998850
 34       0.015734155338
 35      -0.147892074669
 36       0.252183574533
 37      -0.012723891985
 38       0.684000968651
 39      -0.000362007481
 40       0.008751579519
 41      -1.293247268153
 42       0.000344419966
 43       0.160845967111
 44       0.862272776133
 45      -0.000320284048
 46       0.114589287114
 47      -0.000395281269
 48       0.000032449892
 49      -0.057475515201
 50      -0.927788381649
 51      -0.110968549431
 52      -0.000241055214
 53      -0.000905541384
 54       0.114286694312
 55       0.357282649490
 56       0.000303085533
 57      -0.181227922566
 58       0.020960243969
 59      -0.000210831392
 60      -0.000343103121
 61      -0.032877691545
 62      -0.146433557305
 63      -0.013907178477
 64       0.265108459684
 65       0.565059187825
 66      -0.100609363703
 67       0.038402663681
 68      -0.000118024616
 69      -0.007514880136
 70      -0.184561434788
 71      -0.619255190182
 72       0.077354092027
 73       0.028640575817
 74       0.000072642457
 Sym=     1a
 Ene=  5.20000000000000E+01
Spin= Alpha
 Occup=-0.000000
  1      -0.026763236938
  2      -0.019031488286
  3       0.607157881988
  4      -3.424363343718
  5      -0.342818198219
  6      -0.085941955734
  7       0.021031725057
  8      -0.001243072345
  9       1.449621025873
 10       0.171316183240
 11      -0.004774279507
 12       0.459446592274
 13      -0.320918821144
 14      -0.000523994039
 15      -0.031995868986
 16       0.001565740424
 17      -0.000041985124
 18       0.026483633991
 19      -0.049290381853
 20       0.093105788545
 21       0.003596247122
 22      -0.000250057233
 23      -0.230161891351
 24      -0.306297693927
 25       0.001677973747
 26       0.055918819368
 27      -0.014343252415
 28      -0.002104736127
 29       0.000140293079
 30       0.036838446965
 31       0.113932114924
 32      -0.004913630746
 33      -0.015045903596
 34       0.211102130562
 35      -0.609102909180
 36       3.546802730825
 37       0.052299795941
 38       0.251380837472
 39       0.000622853543
 40       0.172175019982
 41      -0.602931273290
 42       0.002602362419
 43       1.871040087033
 44       0.248739614049
 45       0.004506985291
 46       0.119570885389
 47       0.000440121150
 48       0.000204589828
 49      -0.023523778648
 50       0.193899959769
 51       0.273497845926
 52       0.014603334160
 53      -0.000432675780
 54       0.880275564445
 55      -0.380872431352
 56      -0.000313032233
 57       0.335076165039
 58       0.014619714041
 59       0.001147021570
 60      -0.000013641524
 61      -0.242891971247
 62      -0.029954090865
 63       0.010901651084
 64       0.195313207938
 65       0.050983477300
 66       0.000080293049
 67      -0.023982194409
 68      -0.000005697948
 69      -0.014507258991
 70       0.005462610399
 71      -0.283672202789
 72      -0.018552662214
 73      -0.015942867102
 74      -0.000016769785
 Sym=     1a
 Ene=  5.30000000000000E+01
Spin= Alpha
 Occup= 0.000000
  1       0.001204966575
  2      -0.003177517326
  3      -0.002299965129
  4       0.115364672678
  5       0.010404041902
  6      -0.007568917752
  7      -0.000493772660
  8      -0.118323598106
  9      -0.080207643398
 10      -0.003665511698
 11      -0.560026717080
 12      -0.013049928824
 13       0.008738882026
 14      -0.056745783944
 15      -0.003037836086
 16       0.153334369472
 17       0.000001044964
 18       0.005086557042
 19       0.001197244671
 20      -0.011602152680
 21       0.391230193872
 22       0.000006441873
 23       0.026887146612
 24       0.007754561657
 25       0.160868445219
 26       0.001993858265
 27       0.000329278667
 28      -0.218159134026
 29      -0.000003452599
 30      -0.004460054509
 31      -0.002864129334
 32       0.001015888082
 33       0.002070149908
 34      -0.003427087098
 35      -0.032712951891
 36      -0.104060845882
 37       0.017830027976
 38      -0.006750083796
 39       0.045927182705
 40      -0.063950509697
 41       0.015750632523
 42       0.333433349707
 43      -0.037367668633
 44      -0.006962330403
 45       0.159817669382
 46      -0.003205245214
 47       0.047791298123
 48      -0.000005450169
 49       0.006124959709
 50      -0.004717125092
 51       0.014975136680
 52       1.359759413509
 53       0.000008052532
 54      -0.028669325107
 55       0.008710660609
 56      -0.076352670922
 57      -0.007982677586
 58      -0.000284365048
 59       0.231707460879
 60       0.000000879740
 61       0.000891221965
 62       0.000644343556
 63      -0.000002005840
 64      -0.000483610825
 65      -0.002456500224
 66      -0.000589584687
 67       0.001004390426
 68      -0.002841089316
 69       0.000672751052
 70       0.005107884603
 71       0.006568216383
 72      -0.000169752203
 73       0.000053098480
 74      -0.002840814114
 Sym=     1a
 Ene=  5.40000000000000E+01
Spin= Alpha
 Occup=-0.000000
  1      -0.000017481437
  2      -0.000002846280
  3      -0.000554787382
  4       0.000332613541
  5       0.000023185141
  6       0.000295961926
  7      -0.000296703854
  8      -0.000002455872
  9      -0.001269880670
 10      -0.003872834111
 11       0.000073760521
 12       0.000145762602
 13      -0.001114405457
 14      -0.000055403140
 15      -0.000121237673
 16      -0.000022113682
 17      -0.029290793801
 18       0.000156821310
 19       0.000653411947
 20      -0.000308746684
 21      -0.000066899419
 22      -0.097074695217
 23       0.000839389433
 24      -0.000109593771
 25      -0.000035249608
 26       0.000353509070
 27       0.001592063624
 28       0.000050881898
 29       0.118496207132
 30      -0.000280319303
 31      -0.000952429428
 32       0.000366012957
 33      -0.000409719256
 34       0.000490962047
 35      -0.002346141038
 36       0.001060339360
 37       0.000051835892
 38       0.000858477272
 39       0.000161160142
 40      -0.000848074901
 41      -0.000409664651
 42      -0.000305299780
 43       0.000728737651
 44       0.001988693541
 45       0.000129054946
 46       0.001142785745
 47      -0.000008828670
 48       0.033785606920
 49      -0.000882472756
 50      -0.000194535170
 51      -0.000764182568
 52      -0.000051716640
 53       1.001891861429
 54       0.000682822132
 55       0.002048028221
 56      -0.000006627368
 57       0.000266167387
 58      -0.019299238842
 59      -0.000013893728
 60       0.301479703156
 61       0.000419396425
 62      -0.002395655120
 63       0.000474228182
 64       0.002192202367
 65       0.000087744971
 66      -0.000285648777
 67      -0.000449081499
 68      -0.005919495241
 69      -0.000443746065
 70      -0.001653779008
 71      -0.000427164303
 72       0.000177496132
 73      -0.000433305348
 74       0.005929138059
 Sym=     1a
 Ene=  5.50000000000000E+01
Spin= Alpha
 Occup= 0.000365
  1      -0.018570498393
  2       0.134755285914
  3      -1.382178881485
  4       4.061333772770
  5       0.481496272230
  6       0.481121604578
  7       0.000005644521
  8       0.000408190295
  9      -1.755198041255
 10      -0.000047154115
 11      -0.001487921826
 12      -0.622140747647
 13      -0.000025677429
 14      -0.000527064010
 15       0.001813393325
 16      -0.000018442883
 17      -0.000000000300
 18      -0.018305501535
 19       0.000000365035
 20      -0.165348416604
 21       0.000440023631
 22       0.000000014789
 23       0.233272451378
 24       0.000003343618
 25      -0.000013602901
 26      -0.006425114509
 27       0.000000505975
 28       0.000037196526
 29      -0.000000003533
 30       0.027136337347
 31       0.000000973016
 32      -0.006777637959
 33       0.060273196673
 34      -0.444237888741
 35       0.938561906224
 36      -4.113841081046
 37       0.367521280535
 38      -0.000019530228
 39       0.000313603813
 40      -0.469045208684
 41      -0.000009411981
 42      -0.000398705021
 43      -2.032466639186
 44       0.000066296731
 45      -0.001727301594
 46      -0.038440261981
 47       0.000124186354
 48       0.000000112091
 49       0.079610516908
 50      -0.000007065723
 51      -0.274755751562
 52       0.000843903981
 53      -0.000000049128
 54       0.520393419137
 55       0.000015494901
 56      -0.000111273405
 57      -0.053630618914
 58       0.000000044344
 59       0.000189849613
 60      -0.000000000983
 61       0.113665413742
 62      -0.000000156114
 63       0.038199427101
 64      -0.142330021612
 65       0.156699092423
 66       0.013596824261
 67      -0.011946046409
 68       0.000011633551
 69       0.038198628597
 70      -0.142371906534
 71       0.156684220030
 72       0.013599888355
 73       0.011946088956
 74       0.000011642255
 Sym=     1a
 Ene=  5.60000000000000E+01
Spin= Alpha
 Occup=-0.000000
  1      -0.007720894192
  2       0.012818539632
  3       0.045042435438
  4      -0.715228295886
  5      -0.066351540841
  6       0.034175288555
  7      -0.052685499809
  8       0.000005276304
  9       0.386071320983
 10      -1.036813934117
 11       0.000304301187
 12       0.086088377359
 13      -0.229132104702
 14       0.000051669976
 15       0.013646887590
 16      -0.000052819512
 17       0.000126278884
 18      -0.020365244018
 19       0.129423830411
 20       0.049744861737
 21      -0.000151379931
 22       0.000283220100
 23      -0.092346517682
 24       0.251827423545
 25      -0.000010249938
 26      -0.008637715640
 27       0.067449711834
 28       0.000047540219
 29      -0.000393498454
 30       0.017289446018
 31      -0.258303832764
 32      -0.006949478377
 33       0.003618121733
 34      -0.007267318601
 35       0.070150158391
 36       0.689895753649
 37      -0.026019380712
 38       0.113235302780
 39       0.000125834211
 40       0.187163182307
 41       0.181851819680
 42       0.000069287276
 43       0.338486629936
 44       0.422978558234
 45       0.000214207659
 46       0.013846801405
 47       0.000144317670
 48       0.000009572337
 49      -0.024352603080
 50       0.110381694188
 51      -0.075280170006
 52       0.000546520069
 53       0.000135744695
 54       0.151831804586
 55       1.326556199568
 56      -0.000110785042
 57       0.013977936228
 58      -0.016174940040
 59      -0.000321693332
 60       0.000338820961
 61       0.005940179932
 62       0.232571889719
 63       0.016575825114
 64       0.424423376032
 65       0.015563912445
 66       0.001644896736
 67      -0.041682268637
 68       0.000005474571
 69      -0.017234795867
 70      -0.405750029014
 71      -0.059284882045
 72      -0.004542811086
 73      -0.036556634462
 74       0.000007790924
 Sym=     1a
 Ene=  5.70000000000000E+01
Spin= Alpha
 Occup=-0.000000
  1       0.005800344780
  2      -0.023020494159
  3       0.024757138456
  4       0.502971567994
  5       0.041549320764
  6      -0.056264117340
  7      -0.000291938186
  8       0.002430398842
  9      -0.420105678539
 10      -0.003735918810
 11      -0.135686047337
 12      -0.046282136887
 13       0.001566495946
 14      -0.081948733380
 15      -0.027232104768
 16      -0.004155284932
 17       0.000000593637
 18       0.041472697191
 19       0.000696893063
 20      -0.075183724473
 21       0.072130642448
 22       0.000002223049
 23       0.161650678753
 24       0.002670737741
 25      -0.073783698100
 26       0.028870305235
 27       0.000283711975
 28       0.017311293927
 29      -0.000001952069
 30      -0.031949718348
 31      -0.001479104287
 32       0.009645197752
 33      -0.000385736570
 34       0.038148196061
 35      -0.323949332210
 36      -0.383380326610
 37       0.095838665034
 38      -0.001376821506
 39      -0.024014108161
 40      -0.376175737589
 41       0.004467694143
 42      -0.147371853170
 43      -0.111705141390
 44      -0.000560419789
 45       0.366522675800
 46      -0.007924297886
 47      -0.486376527361
 48      -0.000000951403
 49       0.014596233892
 50      -0.000958376224
 51       0.071169138272
 52       0.279314038866
 53       0.000005618516
 54      -0.111551316302
 55       0.005790923622
 56       0.730375295556
 57       0.006137434229
 58      -0.000226639206
 59       0.520644422415
 60       0.000001051712
 61      -0.017500235302
 62       0.000991715644
 63       0.002576320179
 64       0.019924780064
 65       0.002323947496
 66      -0.002505908585
 67       0.003433735375
 68      -0.014202953885
 69       0.002656320952
 70       0.019122123132
 71       0.004371912615
 72      -0.002423630697
 73      -0.003391056092
 74      -0.014202912264
 Sym=     1a
 Ene=  5.80000000000000E+01
Spin= Alpha
 Occup=-0.000000
  1       0.037003926581
  2      -0.106994503479
  3       0.416969907666
  4       1.313742104891
  5       0.074809247022
  6      -0.392441600966
  7      -0.011971222800
  8      -0.001193384178
  9      -0.572088226323
 10      -0.058644771204
 11      -0.003344358973
 12      -0.145932139566
 13      -0.040465381108
 14      -0.000096441899
 15      -0.104891936242
 16       0.001728810075
 17       0.000005994394
 18       0.120866320797
 19       0.003553036278
 20      -0.134802481496
 21       0.002564643374
 22       0.000123588658
 23      -0.052404467895
 24       0.097178420731
 25       0.001960723482
 26       0.167013087477
 27      -0.003633137143
 28      -0.002098972360
 29       0.000003533299
 30       0.098340476787
 31       0.026018209473
 32       0.044579321588
 33      -0.029615284240
 34       0.049257931343
 35      -0.030684904280
 36      -1.467622308599
 37       0.099812025933
 38       0.004182698444
 39       0.000370598994
 40      -0.496902304982
 41       0.046530550294
 42       0.002423583836
 43      -0.834605885858
 44       0.032635378642
 45      -0.000608716236
 46      -0.310134986904
 47       0.002082993351
 48       0.000030689871
 49       0.078016385891
 50      -0.281077091974
 51       0.432714206909
 52       0.004515720765
 53      -0.000076747233
 54      -0.534930702057
 55       0.229523325797
 56      -0.001929861786
 57       0.992153923395
 58       0.000551307552
 59       0.001524419808
 60      -0.000080685406
 61       0.099204694226
 62      -0.019880099275
 63       0.039740369927
 64      -0.162437701699
 65       0.141640902959
 66       0.026047459465
 67       0.005488075160
 68       0.000020844919
 69       0.054705524545
 70      -0.134630653550
 71       0.080703229218
 72       0.070311703090
 73       0.029759827031
 74       0.000070161261
 Sym=     1a
 Ene=  5.90000000000000E+01
Spin= Alpha
 Occup=-0.000000
  1       0.000316186784
  2      -0.000254430095
  3      -0.000913931231
  4       0.020174577902
  5       0.002147912799
  6      -0.001145726393
  7       0.026104728562
  8       0.000005192111
  9      -0.007553601689
 10       0.185528263445
 11       0.000305567218
 12      -0.003572062805
 13      -0.008491148732
 14      -0.000176932432
 15       0.000052291803
 16      -0.000092621010
 17      -0.000453108547
 18      -0.000045915015
 19      -0.057542906569
 20       0.001131993746
 21      -0.000271642355
 22      -0.001643868628
 23       0.000428163885
 24      -0.031166758529
 25      -0.000140376075
 26      -0.001064677461
 27      -0.080403518814
 28       0.000194896534
 29       0.001409308170
 30      -0.000148598034
 31       0.090057401504
 32       0.000430785010
 33       0.000177809021
 34      -0.004173866160
 35       0.011472716424
 36      -0.027668327550
 37      -0.000237241363
 38      -0.003524928102
 39       0.000516623584
 40      -0.000047168285
 41      -0.072112624853
 42      -0.001031690889
 43      -0.014731416386
 44      -0.061224416488
 45       0.000386267128
 46       0.005288190175
 47      -0.000016620968
 48       0.000954411132
 49       0.004700191203
 50       0.005251156253
 51       0.000138487635
 52      -0.000347870391
 53       0.020471197877
 54      -0.007282196147
 55      -0.125074289862
 56       0.000011177756
 57      -0.002383473272
 58       1.010759949904
 59      -0.000055840960
 60      -0.000741454197
 61      -0.002156315508
 62      -0.002749786881
 63      -0.021468777000
 64      -0.063470622444
 65       0.020223163317
 66       0.005592184008
 67       0.024517483081
 68       0.000058677781
 69       0.021028543794
 70       0.064205864231
 71      -0.018036498720
 72      -0.006050821491
 73       0.024690591924
 74      -0.000027738235
 Sym=     1a
 Ene=  6.00000000000000E+01
Spin= Alpha
 Occup= 0.000000
  1       0.004746122050
  2      -0.019182688205
  3       0.020168060367
  4       0.420068903545
  5       0.034752207324
  6      -0.046390967755
  7      -0.000198912524
  8      -0.100885596586
  9      -0.354496293269
 10      -0.002781028447
 11      -0.223741854378
 12      -0.038520332067
 13       0.000668550798
 14       0.047078208703
 15      -0.022324533899
 16       0.245318169106
 17       0.000000415500
 18       0.034610842889
 19       0.000485750988
 20      -0.063288108300
 21       0.262421530109
 22       0.000001294534
 23       0.137906116782
 24       0.001584103046
 25       0.241543530033
 26       0.022476912035
 27       0.000211242380
 28      -0.329579713767
 29      -0.000001360497
 30      -0.027324387051
 31      -0.001023349617
 32       0.008147917338
 33      -0.000312349137
 34       0.032607953428
 35      -0.277139858051
 36      -0.317090404113
 37       0.082084791651
 38      -0.000640456062
 39      -0.033249383153
 40      -0.320319481355
 41       0.002501903069
 42       0.407220050029
 43      -0.088787984238
 44       0.000035023002
 45       0.003003360747
 46      -0.006223075726
 47       0.304180209608
 48      -0.000000310952
 49       0.011769627963
 50      -0.000303371960
 51       0.059064197290
 52       0.053918446022
 53       0.000004076384
 54      -0.092440162877
 55       0.004019329323
 56      -0.513311240898
 57       0.002786768339
 58      -0.000157002920
 59       0.943049481989
 60       0.000001036130
 61      -0.016511245271
 62       0.000787256299
 63       0.001978619656
 64       0.017800398131
 65       0.001731642912
 66      -0.002296863455
 67       0.003009063357
 68      -0.007031291058
 69       0.001987944474
 70       0.016714693851
 71       0.002786167399
 72      -0.002282628182
 73      -0.003069326856
 74      -0.007031307350
 Sym=     1a
 Ene=  6.10000000000000E+01
Spin= Alpha
 Occup=-0.000000
  1      -0.007809352051
  2       0.005705486404
  3      -0.379793705635
  4       0.799697843082
  5       0.035532781661
  6       0.127892289569
  7       0.001331496226
  8       0.000147285137
  9      -0.226151266563
 10       0.014532873101
 11      -0.000655768402
 12       0.010549168539
 13      -0.017627392142
 14       0.000644015344
 15      -0.038778118270
 16       0.000151422139
 17      -0.000007356967
 18       0.048901792794
 19      -0.003548633316
 20      -0.323010157233
 21       0.000997466879
 22       0.000002222343
 23       0.046587634794
 24      -0.016861777462
 25       0.000422083993
 26       0.098286077029
 27      -0.001604436528
 28      -0.000689231549
 29       0.000008972624
 30      -0.154101700777
 31       0.008405446713
 32       0.001927997852
 33      -0.001812689737
 34       0.040284791483
 35      -0.498631794284
 36       0.017227154295
 37      -0.008573998181
 38       0.013624638647
 39      -0.001368679819
 40      -0.235010275037
 41      -0.034248558935
 42       0.002804327500
 43       0.128311527342
 44       0.012222051181
 45      -0.001928198275
 46      -0.711349472393
 47       0.000986896065
 48       0.000297271894
 49      -0.929726417686
 50       0.005703085296
 51       0.449712256458
 52       0.000632259967
 53      -0.000007545112
 54       0.645533941694
 55      -0.024509014935
 56       0.001028407764
 57      -0.107522615124
 58       0.006524754869
 59       0.000087089290
 60      -0.000018458402
 61       0.069941841832
 62      -0.002702868778
 63      -0.032469610287
 64      -0.268219284831
 65       0.015075125771
 66       0.071891988677
 67       0.065208412766
 68      -0.000005583865
 69      -0.033244603379
 70      -0.273723724708
 71      -0.004557778529
 72       0.071510832880
 73      -0.066249813959
 74       0.000007605900
 Sym=     1a
 Ene=  6.20000000000000E+01
Spin= Alpha
 Occup=-0.000000
  1      -0.040358407535
  2       0.174881076488
  3      -0.320763485961
  4      -2.391790357690
  5      -0.159992221930
  6       0.469517994495
  7       0.000111205302
  8       0.000873208338
  9       1.422047327204
 10       0.009810788145
 11       0.001988411423
 12       0.230906639780
 13      -0.031934274228
 14       0.000659511434
 15       0.199687685056
 16      -0.000868340746
 17      -0.000003860302
 18      -0.325806867543
 19      -0.003662191015
 20       0.246712398584
 21      -0.001380743446
 22      -0.000010666430
 23      -0.492257693417
 24      -0.013260878972
 25      -0.000355903882
 26      -0.061943449462
 27      -0.001860364877
 28       0.000774091372
 29       0.000019377926
 30       0.359948163444
 31       0.013291728532
 32      -0.030285423313
 33       0.036785062480
 34      -0.285878575810
 35       1.186603720752
 36       1.939415566499
 37      -0.053577640562
 38       0.021585427756
 39      -0.001948649415
 40       1.164179952593
 41      -0.045151687876
 42       0.002269880908
 43       0.872002561247
 44       0.024513695251
 45       0.000257476992
 46      -0.170549277679
 47      -0.000010426893
 48      -0.000000415221
 49       0.252652140471
 50      -0.021952805250
 51       0.037760400387
 52      -0.003451380733
 53      -0.000009952714
 54       0.560153383810
 55      -0.005452056054
 56      -0.000451382305
 57      -0.205767834621
 58       0.002547688027
 59       0.000522209513
 60       0.000008376121
 61       1.038836707048
 62      -0.003555396424
 63       0.072349370624
 64       0.075176951494
 65      -0.050727945732
 66      -0.020570320361
 67      -0.087999826307
 68      -0.000040260298
 69       0.072403235599
 70       0.065816858203
 71      -0.087105332288
 72      -0.016363619347
 73       0.089503046741
 74      -0.000034831936
 Sym=     1a
 Ene=  6.30000000000000E+01
Spin= Alpha
 Occup=-0.000000
  1      -0.000064314411
  2      -0.000849022553
  3       0.000193325102
  4       0.016943702256
  5       0.001373487749
  6      -0.001345727297
  7      -0.137506241080
  8      -0.000017773953
  9      -0.028829150245
 10      -0.353247210877
 11      -0.000110620928
 12       0.001037367545
 13       0.126670755822
 14      -0.000011002488
 15      -0.001708574781
 16       0.000026087416
 17       0.000202298359
 18       0.003161251307
 19       0.279937863508
 20      -0.005298070307
 21       0.000077620020
 22       0.000187610081
 23       0.015430999293
 24       0.391506553811
 25       0.000027713553
 26       0.002633638685
 27       0.089695470981
 28      -0.000035069487
 29      -0.000507689401
 30      -0.002202542798
 31      -0.452789024149
 32       0.002377056163
 33      -0.006198194138
 34       0.025629923826
 35      -0.060473824170
 36       0.007668798593
 37       0.000896497177
 38      -0.071640373851
 39       0.000007539839
 40      -0.020802506147
 41       0.477242431549
 42       0.000022215189
 43       0.003857134352
 44       0.139566179104
 45       0.000039945093
 46      -0.001373424222
 47       0.000009914847
 48       0.000013041685
 49       0.000735427809
 50      -0.196175720917
 51      -0.007026145097
 52       0.000212841028
 53       0.002432614942
 54      -0.005726497781
 55       0.474424300321
 56      -0.000007795685
 57       0.003135121142
 58      -0.077208746492
 59       0.000015196408
 60       0.001197449040
 61      -0.001272707806
 62       1.150479357877
 63      -0.010966961826
 64      -0.043142945499
 65      -0.077184531743
 66       0.034562938184
 67      -0.032933236674
 68       0.000036040603
 69       0.012537873917
 70       0.051501149585
 71       0.073111407665
 72      -0.036316597296
 73      -0.032777150992
 74      -0.000037665355
 Sym=     1a
 Ene=  6.40000000000000E+01
Spin= Alpha
 Occup= 0.000126
  1      -0.015752525049
  2       0.012168665978
  3      -0.262419925653
  4       0.661343500065
  5       0.079993471932
  6      -0.001735728579
  7      -0.024155543080
  8      -0.000001610608
  9       0.188411643484
 10       0.383899842071
 11       0.000157589137
 12       0.142261763118
 13       0.596599029723
 14       0.000119797683
 15      -0.057544583526
 16       0.000041557716
 17       0.000048827299
 18      -0.050158527252
 19       0.058369498805
 20      -0.138860821087
 21      -0.000106147630
 22       0.000054376641
 23      -0.364911670284
 24       0.068148393961
 25      -0.000075849312
 26      -0.037287577177
 27      -0.089861665119
 28      -0.000099406724
 29       0.000022687701
 30      -0.145592888174
 31      -0.093291632140
 32       0.001296990758
 33      -0.004559559569
 34       0.034029871672
 35      -0.032741151842
 36       0.296097883175
 37      -0.010702367008
 38       0.004661313269
 39      -0.000009140120
 40       0.014087444704
 41       0.021101999081
 42       0.000011866622
 43       0.030169187598
 44      -0.168063575396
 45       0.000025819740
 46      -0.004219710237
 47       0.000005746364
 48       0.000006082181
 49      -0.000501122024
 50       0.007218653377
 51       0.035501166729
 52      -0.000048345177
 53      -0.000051170462
 54       0.004216028000
 55      -0.060731804496
 56       0.000005338100
 57       0.002577892453
 58       0.000325914168
 59      -0.000008231576
 60       0.000010364952
 61      -0.004502874083
 62       0.010344111182
 63      -1.335350909294
 64       1.249524577536
 65      -1.671866040099
 66       0.765538314680
 67       0.225417084868
 68       0.000647090177
 69      -0.041611906541
 70      -0.069421766480
 71       0.509715519604
 72       0.033251383013
 73      -0.032515790368
 74       0.000027621807
 Sym=     1a
 Ene=  6.50000000000000E+01
Spin= Alpha
 Occup= 0.002334
  1      -0.009520457528
  2       0.088380658711
  3      -0.516111629875
  4       0.560779814042
  5       0.093647978299
  6      -0.066681676439
  7      -0.062330109528
  8      -0.000056372305
  9       0.433401946594
 10      -0.162593440562
 11       0.000367847045
 12       0.384139290908
 13       0.981958978387
 14       0.000324183645
 15       0.002873678101
 16      -0.000001046877
 17      -0.000012339005
 18       0.003778226874
 19      -0.015215625040
 20       0.059319228646
 21      -0.000027438987
 22      -0.000094584822
 23       0.070057648882
 24      -0.113447276319
 25      -0.000017089608
 26      -0.008036362533
 27       0.032431103128
 28       0.000009826589
 29       0.000001217759
 30      -0.000166127729
 31       0.042350876827
 32       0.001536986075
 33      -0.021440183254
 34       0.133310677924
 35      -0.416360850136
 36       1.093095750849
 37      -0.009031362631
 38      -0.031636964020
 39      -0.000007513925
 40       0.083567496351
 41       0.044122665678
 42       0.000070893115
 43       0.309316546982
 44      -0.131420793638
 45       0.000262122683
 46       0.007705542777
 47      -0.000016422346
 48       0.000001206729
 49      -0.006006721723
 50       0.001356732095
 51      -0.064828090915
 52       0.000138164093
 53      -0.000010152423
 54       0.050535609661
 55      -0.011414426493
 56      -0.000012649973
 57      -0.006083253168
 58      -0.001135059586
 59       0.000008865776
 60       0.000000264072
 61       0.000633805636
 62      -0.001254386104
 63       0.380092839334
 64       0.664152300553
 65      -2.731211744353
 66      -0.162991985082
 67       0.182445321998
 68      -0.000141102533
 69       0.009478499565
 70      -0.307590033821
 71       0.852401444865
 72      -0.003738063299
 73      -0.066663926069
 74      -0.000003392903
 Sym=     1a
 Ene=  6.60000000000000E+01
Spin= Alpha
 Occup= 0.000018
  1       0.007203469804
  2       0.125528334783
  3      -0.007492881932
  4      -2.337502437944
  5      -0.201777858762
  6      -0.045321412567
  7      -0.178589068382
  8      -0.000037497275
  9      -1.255719605839
 10      -2.037327621735
 11      -0.001051655767
 12      -0.042441078499
 13       0.247451592516
 14      -0.000034938840
 15       0.172950470500
 16      -0.000189729005
 17      -0.000211759310
 18       0.073774814006
 19      -0.252856705111
 20       0.552733322517
 21      -0.000708994119
 22      -0.000989073368
 23       0.112757141318
 24      -1.178662243812
 25       0.000339436697
 26       0.165260110940
 27       0.235297270687
 28       0.000098080247
 29      -0.000553126884
 30       0.308484833685
 31      -0.234705423368
 32       0.001241661689
 33      -0.002982592031
 34       0.030555067185
 35      -0.096227515641
 36       0.352039385914
 37       0.003374523381
 38      -0.003885042551
 39       0.000002906693
 40       0.079785732593
 41      -0.028114220981
 42       0.000067892522
 43       0.133015683339
 44      -0.034181667443
 45       0.000112144407
 46       0.006082622141
 47      -0.000016345010
 48      -0.000003599944
 49      -0.008784365540
 50      -0.004314199485
 51      -0.051174173266
 52       0.000137513454
 53       0.000030286962
 54       0.073904417166
 55       0.036296121450
 56       0.000013172604
 57       0.006264527861
 58      -0.010571535005
 59       0.000024063123
 60       0.000037639853
 61       0.031274745936
 62       0.022115336263
 63       0.240977960391
 64       3.524825326597
 65      -0.720788925467
 66      -0.253738611623
 67      -2.031413663572
 68      -0.000210452364
 69      -0.063382710428
 70      -0.279479083214
 71       0.464244224823
 72       0.016131614867
 73      -0.022514992667
 74       0.000013320102
 Sym=     1a
 Ene=  6.70000000000000E+01
Spin= Alpha
 Occup= 0.000079
  1       0.003649014785
  2      -0.108715312436
  3      -0.048530331813
  4       2.571608610846
  5       0.227204924040
  6       0.106829174084
  7       0.074338417499
  8       0.000089950055
  9       0.610669458937
 10       2.251005092322
 11       0.000505060466
 12      -0.075278999992
 13       0.039382622178
 14      -0.000065366660
 15      -0.145597535007
 16       0.000123139993
 17       0.000145479248
 18      -0.105708601395
 19       0.174421899085
 20      -0.479044832775
 21       0.000085889790
 22       0.000462322092
 23      -0.724769097995
 24       0.557493953070
 25      -0.000141054879
 26      -0.069525887771
 27      -0.212002331341
 28      -0.000161229540
 29       0.000138325611
 30      -0.248358587373
 31      -0.137654503750
 32       0.000506363775
 33       0.021538462712
 34      -0.119984930183
 35       0.466671766693
 36      -0.967321931330
 37      -0.003256796338
 38       0.018260503239
 39      -0.000002863717
 40      -0.098900487447
 41      -0.068177804230
 42      -0.000083665354
 43      -0.361426872901
 44      -0.250236804517
 45      -0.000304824611
 46      -0.016230347179
 47       0.000029009673
 48       0.000013488147
 49       0.006187131112
 50       0.016072800668
 51       0.136548774440
 52      -0.000244063498
 53      -0.000113478161
 54      -0.052053425682
 55      -0.135223307845
 56       0.000026382999
 57       0.012716348976
 58       0.003770246565
 59      -0.000029062068
 60       0.000007009750
 61      -0.011384860310
 62       0.011621785467
 63       0.667548230415
 64      -4.148500856691
 65       0.801750846648
 66       1.561410875127
 67       0.788300130318
 68       0.001320954988
 69      -0.054397810166
 70       0.286945003234
 71      -0.269801421372
 72       0.037006612794
 73       0.023594656476
 74       0.000030963565
 Sym=     1a
 Ene=  6.80000000000000E+01
Spin= Alpha
 Occup= 0.000037
  1       0.000000015976
  2       0.000001032542
  3      -0.000001142562
  4      -0.000014893167
  5      -0.000001190254
  6      -0.000058384693
  7      -0.000000714767
  8       0.068225471121
  9       0.000333292573
 10      -0.000017450952
 11      -0.401390806807
 12       0.000029106804
 13       0.000002856462
 14      -0.033639047338
 15      -0.000041084786
 16      -0.029104407829
 17      -0.050606251974
 18       0.000025513860
 19       0.000041047348
 20      -0.000361112853
 21      -0.251285865323
 22      -0.395173896507
 23       0.000217540625
 24       0.000326302698
 25       0.177205199034
 26      -0.000206212964
 27      -0.000294357850
 28       0.118370593264
 29      -0.223567769010
 30      -0.000119072313
 31       0.000231744922
 32       0.000000016416
 33      -0.000000082723
 34       0.000000611667
 35      -0.000002122620
 36       0.000005047190
 37       0.000005437663
 38      -0.000000108750
 39      -0.006379152395
 40       0.000018809617
 41       0.000000094383
 42      -0.021456784245
 43      -0.000023386345
 44       0.000000084451
 45       0.029616852227
 46       0.000000305170
 47       0.000127608851
 48      -0.004280738871
 49      -0.000000152205
 50       0.000003576410
 51      -0.000002567449
 52      -0.001073595774
 53       0.036014611402
 54       0.000001280527
 55      -0.000030088966
 56      -0.004676239472
 57       0.000002102905
 58      -0.000017613071
 59      -0.005778174610
 60      -0.012975401761
 61       0.000006309667
 62       0.000013593138
 63       0.000000441812
 64       0.000026932107
 65      -0.000009799257
 66      -0.001133706349
 67      -0.000004061252
 68       1.332919634209
 69       0.000000640635
 70      -0.000003594088
 71       0.000004378390
 72       0.000016062298
 73      -0.000000399599
 74      -0.019712070495
 Sym=     1a
 Ene=  6.90000000000000E+01
Spin= Alpha
 Occup= 0.000145
  1      -0.016740550612
  2       0.035102349005
  3      -0.226115852623
  4      -0.019743461127
  5       0.017762274063
  6      -0.033840784377
  7       0.028207551408
  8      -0.000028764928
  9       0.103893832423
 10       0.199499065208
 11       0.000089384881
 12       0.163381600849
 13      -0.512782641250
 14       0.000138210723
 15      -0.022185089913
 16       0.000017103234
 17      -0.000018565591
 18      -0.018025251418
 19      -0.021931617113
 20      -0.024217194395
 21      -0.000048133368
 22      -0.000001329613
 23      -0.098551640065
 24      -0.002011461196
 25      -0.000059823322
 26      -0.029089885431
 27       0.036078973594
 28      -0.000047252515
 29      -0.000035619812
 30      -0.083478831189
 31       0.011977803586
 32       0.000887847752
 33      -0.011434169583
 34       0.070138382357
 35      -0.182745557752
 36       0.573690107738
 37      -0.009194001735
 38       0.001608810590
 39      -0.000007820626
 40       0.038641174961
 41      -0.046658380695
 42       0.000032614399
 43       0.139375480647
 44       0.064833379015
 45       0.000117876702
 46       0.001063649830
 47      -0.000002950055
 48      -0.000001348327
 49      -0.001633526208
 50      -0.001578221663
 51      -0.008948673682
 52       0.000024819330
 53       0.000011343711
 54       0.013743144202
 55       0.013277857307
 56      -0.000005754960
 57      -0.002761506169
 58      -0.000183082303
 59      -0.000000212050
 60      -0.000002927803
 61      -0.003751025139
 62      -0.003044840594
 63      -0.012475566442
 64      -0.133206020143
 65       0.515598761649
 66       0.016143849245
 67       0.035927856153
 68       0.000013358537
 69      -1.502698884976
 70       2.213538825688
 71      -1.753017216186
 72       0.194377680593
 73      -0.164170102703
 74       0.000162333001
 Sym=     1a
 Ene=  7.00000000000000E+01
Spin= Alpha
 Occup= 0.002334
  1      -0.009522995668
  2       0.088386239033
  3      -0.516152969366
  4       0.560807459032
  5       0.093653945324
  6      -0.066684812273
  7       0.062337414901
  8      -0.000056375266
  9       0.433406601171
 10       0.162600458808
 11       0.000367852861
 12       0.384162905422
 13      -0.982054561183
 14       0.000324203681
 15       0.002869334130
 16      -0.000001044628
 17       0.000012336157
 18       0.003773233594
 19       0.015212501301
 20       0.059312764362
 21      -0.000027463433
 22       0.000094593715
 23       0.070016249224
 24       0.113459608787
 25      -0.000017096205
 26      -0.008039223680
 27      -0.032423592667
 28       0.000009814622
 29      -0.000001214110
 30      -0.000181025327
 31      -0.042336722923
 32       0.001537188401
 33      -0.021441404608
 34       0.133318948343
 35      -0.416376932730
 36       1.093166992583
 37      -0.009032964117
 38       0.031636641152
 39      -0.000007515260
 40       0.083572649937
 41      -0.044127244635
 42       0.000070897564
 43       0.309330382733
 44       0.131442116961
 45       0.000262134283
 46       0.007705278254
 47      -0.000016422211
 48      -0.000001207387
 49      -0.006007017885
 50      -0.001357488357
 51      -0.064825865436
 52       0.000138162961
 53       0.000010157961
 54       0.050538101325
 55       0.011420789059
 56      -0.000012649543
 57      -0.006083056248
 58       0.001135188650
 59       0.000008865346
 60      -0.000000265988
 61       0.000633631673
 62       0.001252776372
 63       0.009472328744
 64      -0.307609393137
 65       0.852491962444
 66      -0.003733402536
 67       0.066669762480
 68      -0.000003388945
 69       0.379866335558
 70       0.664477427077
 71      -2.731502977277
 72      -0.162906166930
 73      -0.182444625666
 74      -0.000141035976
 Sym=     1a
 Ene=  7.10000000000000E+01
Spin= Alpha
 Occup= 0.000016
  1       0.005420906522
  2       0.134169606520
  3      -0.027770288441
  4      -2.459350437359
  5      -0.210597647341
  6      -0.053440503339
  7       0.185279572201
  8      -0.000044557884
  9      -1.276694752877
 10       2.161947154881
 11      -0.001067535657
 12      -0.023230288512
 13      -0.297388529149
 14      -0.000018512670
 15       0.177706666450
 16      -0.000194001728
 17       0.000216872621
 18       0.076833983658
 19       0.259193642732
 20       0.573136507971
 21      -0.000719506981
 22       0.001011580719
 23       0.134653117001
 24       1.207105563097
 25       0.000340415890
 26       0.166030204595
 27      -0.241784020363
 28       0.000100389371
 29       0.000557087346
 30       0.312142013349
 31       0.230892113951
 32       0.001312480017
 33      -0.005050760220
 34       0.042767624548
 35      -0.134741491054
 36       0.451727860691
 37       0.002619680638
 38       0.004844810086
 39       0.000002287487
 40       0.088173746374
 41       0.020681703375
 42       0.000075045592
 43       0.162861821347
 44       0.029952549839
 45       0.000137261790
 46       0.006910087189
 47      -0.000017949589
 48       0.000004048815
 49      -0.009246631776
 50       0.004866963258
 51      -0.058135782706
 52       0.000151013060
 53      -0.000034063398
 54       0.077793544571
 55      -0.040946620597
 56       0.000011534492
 57       0.005469243551
 58       0.010757402990
 59       0.000025404655
 60      -0.000037814103
 61       0.031517500564
 62      -0.022003347057
 63      -0.062524787072
 64      -0.306088412306
 65       0.528621682253
 66       0.016197936253
 67       0.027168353568
 68       0.000013418009
 69       0.064723912091
 70       3.935964419483
 71      -0.931314175564
 72      -0.302724933025
 73       2.057136678407
 74      -0.000255997841
 Sym=     1a
 Ene=  7.20000000000000E+01
Spin= Alpha
 Occup= 0.000061
  1       0.001914846629
  2       0.092140286880
  3       0.139045578692
  4      -2.542762440992
  5      -0.232523922613
  6      -0.097303860486
  7       0.053653657183
  8      -0.000081850449
  9      -0.586941169885
 10       2.156684648148
 11      -0.000485848639
 12       0.021326143188
 13       0.259105218709
 14       0.000019744151
 15       0.149499438594
 16      -0.000122191047
 17       0.000144770872
 18       0.113598366392
 19       0.173505805639
 20       0.474562120782
 21      -0.000014205036
 22       0.000411707734
 23       0.802076624535
 24       0.497571102776
 25       0.000145251491
 26       0.071573776288
 27      -0.220508890109
 28       0.000182089609
 29       0.000115255884
 30       0.271368318684
 31      -0.171129413694
 32      -0.000984273473
 33      -0.018365387995
 34       0.098677826188
 35      -0.420177471399
 36       0.783569032565
 37       0.006716633883
 38       0.018553336073
 39       0.000005807133
 40       0.084124394528
 41      -0.057260611314
 42       0.000071151025
 43       0.321363484651
 44      -0.294832098604
 45       0.000270926335
 46       0.016411939820
 47      -0.000028475664
 48       0.000014617520
 49      -0.005246386452
 50       0.017403338026
 51      -0.138076545367
 52       0.000239570789
 53      -0.000122979779
 54       0.044138774873
 55      -0.146417353391
 56      -0.000027062844
 57      -0.013040675666
 58       0.003212882597
 59       0.000029096147
 60       0.000011751752
 61       0.010980771301
 62       0.015418794275
 63       0.068140807505
 64      -0.231988552518
 65       0.051804091688
 66      -0.047036257361
 67       0.009548711469
 68      -0.000039292421
 69      -0.157264664706
 70       3.286907503348
 71      -0.124334654921
 72      -1.720185745064
 73       0.734920889834
 74      -0.001454218867
 Sym=     1a
 Ene=  7.30000000000000E+01
Spin= Alpha
 Occup= 0.000037
  1       0.000000016781
  2       0.000001395913
  3      -0.000001525577
  4      -0.000020361582
  5      -0.000001630592
  6      -0.000058499338
  7       0.000001256187
  8       0.068225458804
  9       0.000329983450
 10       0.000022474398
 11      -0.401390864461
 12       0.000029158843
 13      -0.000004388020
 14      -0.033639053806
 15      -0.000040682776
 16      -0.029104415919
 17       0.050606271063
 18       0.000025642785
 19      -0.000040417782
 20      -0.000359770437
 21      -0.251285833700
 22       0.395173917107
 23       0.000217244593
 24      -0.000323046565
 25       0.177205209125
 26      -0.000205791747
 27       0.000293828862
 28       0.118370613020
 29       0.223567760631
 30      -0.000118410273
 31      -0.000230906161
 32       0.000000021888
 33      -0.000000093441
 34       0.000000723780
 35      -0.000002359301
 36       0.000006289903
 37       0.000005432635
 38       0.000000110518
 39      -0.006379154497
 40       0.000019043350
 41      -0.000000027002
 42      -0.021456767286
 43      -0.000023025270
 44       0.000000288740
 45       0.029616881073
 46       0.000000314254
 47       0.000127606326
 48       0.004280740743
 49      -0.000000177440
 50      -0.000003576509
 51      -0.000002643873
 52      -0.001073574538
 53      -0.036014627146
 54       0.000001492838
 55       0.000030089801
 56      -0.004676237917
 57       0.000002127137
 58       0.000017642885
 59      -0.005778180172
 60       0.012975393999
 61       0.000006393136
 62      -0.000013673980
 63       0.000000388907
 64      -0.000004451222
 65       0.000006369026
 66       0.000016161035
 67       0.000000504587
 68      -0.019712066281
 69      -0.000000498600
 70       0.000038123661
 71      -0.000013993928
 72      -0.001133127852
 73       0.000009561285
 74       1.332919676214
