[Molden Format]
[Title]
NAOs

[Atoms] AU
C    1   6         -1.2489755970         0.0000116313        -0.0000004863 
C    2   6          1.2490380641        -0.0000121056         0.0000013263 
H    3   1         -2.3239431108        -1.7387080395         0.1325088442 
H    4   1         -2.3239124506         1.7387508099        -0.1325125048 
H    5   1          2.3240056248         1.7387082313        -0.1325084570 
H    6   1          2.3239764421        -1.7387505273         0.1325112777 
[GTO]
  1 0 
s   6 1.0  
    13575.3496820000         0.0006064549 
     2035.2333680000         0.0046979088 
      463.2256235900         0.0243324776 
      131.2001959800         0.0973999683 
       42.8530158910         0.3019558425 
       15.5841857660         0.6623360915 
s   2 1.0  
        6.2067138508         0.6559530853 
        2.5764896527         0.3758563329 
s   1 1.0  
        0.5769633942         1.0000000000 
s   1 1.0  
        0.2297283136         1.0000000000 
s   1 1.0  
        0.0951644400         1.0000000003 
p   4 1.0  
       34.6972322440         0.0113272200 
        7.9582622826         0.0761696592 
        2.3780826883         0.3019225220 
        0.8143320818         0.7278502735 
p   1 1.0  
        0.2888754725         0.9999999999 
p   1 1.0  
        0.1005682367         0.9999999995 
d   1 1.0  
        1.0970000000         1.0000000000 
d   1 1.0  
        0.3180000000         1.0000000000 
f   1 1.0  
        0.7610000000         1.0000000000 

  2 0 
s   6 1.0  
    13575.3496820000         0.0006064549 
     2035.2333680000         0.0046979088 
      463.2256235900         0.0243324776 
      131.2001959800         0.0973999683 
       42.8530158910         0.3019558425 
       15.5841857660         0.6623360915 
s   2 1.0  
        6.2067138508         0.6559530853 
        2.5764896527         0.3758563329 
s   1 1.0  
        0.5769633942         1.0000000000 
s   1 1.0  
        0.2297283136         1.0000000000 
s   1 1.0  
        0.0951644400         1.0000000003 
p   4 1.0  
       34.6972322440         0.0113272200 
        7.9582622826         0.0761696592 
        2.3780826883         0.3019225220 
        0.8143320818         0.7278502735 
p   1 1.0  
        0.2888754725         0.9999999999 
p   1 1.0  
        0.1005682367         0.9999999995 
d   1 1.0  
        1.0970000000         1.0000000000 
d   1 1.0  
        0.3180000000         1.0000000000 
f   1 1.0  
        0.7610000000         1.0000000000 

  3 0 
s   3 1.0  
       34.0613410000         0.0254393072 
        5.1235746000         0.1900859489 
        1.1646626000         0.8524411301 
s   1 1.0  
        0.3272304100         1.0000000002 
s   1 1.0  
        0.1030724100         1.0000000001 
p   1 1.0  
        0.8000000000         1.0000000000 

  4 0 
s   3 1.0  
       34.0613410000         0.0254393072 
        5.1235746000         0.1900859489 
        1.1646626000         0.8524411301 
s   1 1.0  
        0.3272304100         1.0000000002 
s   1 1.0  
        0.1030724100         1.0000000001 
p   1 1.0  
        0.8000000000         1.0000000000 

  5 0 
s   3 1.0  
       34.0613410000         0.0254393072 
        5.1235746000         0.1900859489 
        1.1646626000         0.8524411301 
s   1 1.0  
        0.3272304100         1.0000000002 
s   1 1.0  
        0.1030724100         1.0000000001 
p   1 1.0  
        0.8000000000         1.0000000000 

  6 0 
s   3 1.0  
       34.0613410000         0.0254393072 
        5.1235746000         0.1900859489 
        1.1646626000         0.8524411301 
s   1 1.0  
        0.3272304100         1.0000000002 
s   1 1.0  
        0.1030724100         1.0000000001 
p   1 1.0  
        0.8000000000         1.0000000000 

[MO]
 Sym=     1a
 Ene= -1.01244376453596E+01
Spin= Alpha
 Occup= 2
  1      0.002496565667
  2      0.004141198446
  3      0.006080340158
  4     -0.078830238580
  5     -0.004946502916
  6     -0.012529048948
  7      0.000000124543
  8     -0.000000009569
  9     -0.055943320223
  10     0.000000545601
  11    -0.000000040783
  12    -0.020734121653
  13     0.000000201100
  14    -0.000000015696
  15    -0.000779231140
  16     0.000333115078
  17     0.000446116062
  18     0.000000012312
  19    -0.000000000952
  20     0.000010002364
  21    -0.006256603876
  22     0.001905660492
  23     0.004350943384
  24     0.000000084676
  25    -0.000000006586
  26     0.000216444281
  27    -0.000281157181
  28    -0.000000005406
  29     0.000000000057
  30     0.000296547921
  31     0.000000008585
  32    -0.000000000700
  33     0.000080664020
  34    -0.000000001332
  35     0.000000000623
  36    -0.000019109032
  37     0.475677907302
  38     0.630617777589
  39    -0.019883156955
  40     0.013069381526
  41     0.009209378282
  42    -0.002753603314
  43     0.000000026929
  44    -0.000000002916
  45    -0.032448349295
  46     0.000000335226
  47    -0.000000032439
  48    -0.011063155005
  49     0.000000119715
  50    -0.000000010892
  51     0.000759591373
  52     0.000051423482
  53    -0.000811014855
  54    -0.000000007575
  55     0.000000000418
  56    -0.000076338475
  57     0.008866984373
  58    -0.001491929809
  59    -0.007375054564
  60    -0.000000118995
  61     0.000000007921
  62    -0.000520743203
  63    -0.001588447605
  64    -0.000000032623
  65     0.000000001425
  66     0.001700466953
  67     0.000000049073
  68    -0.000000003779
  69     0.000430659141
  70    -0.000000005304
  71     0.000000001867
  72    -0.000112396603
  73     0.000308793103
  74    -0.000307976805
  75    -0.003173193145
  76     0.000512990933
  77     0.000158121278
  78    -0.000012050566
  79     0.000308782828
  80    -0.000308021825
  81    -0.003173204596
  82     0.000512988261
  83    -0.000158130071
  84     0.000012051567
  85    -0.001273345972
  86    -0.024272334560
  87     0.000363328194
  88     0.000820684979
  89     0.000989688729
  90    -0.000075425297
  91    -0.001273341417
  92    -0.024272305381
  93     0.000363339800
  94     0.000820663361
  95    -0.000989702423
  96     0.000075425520
 Sym=     1a
 Ene= -1.01244375938395E+01
Spin= Alpha
 Occup= 2
  1      0.475677906616
  2      0.630617782029
  3     -0.019883175944
  4      0.013069462738
  5      0.009209295847
  6      0.002753600583
  7     -0.000000032481
  8      0.000000001633
  9      0.032448375978
  10    -0.000000326273
  11     0.000000018156
  12     0.011063141840
  13    -0.000000120255
  14     0.000000007452
  15     0.000759592484
  16     0.000051424327
  17    -0.000811016811
  18    -0.000000007594
  19     0.000000000742
  20    -0.000076339169
  21     0.008866988425
  22    -0.001491928423
  23    -0.007375060002
  24    -0.000000116322
  25     0.000000010052
  26    -0.000520746554
  27     0.001588450200
  28     0.000000034059
  29    -0.000000000236
  30    -0.001700469741
  31    -0.000000050317
  32     0.000000003804
  33    -0.000430659834
  34     0.000000004623
  35    -0.000000003488
  36     0.000112397568
  37     0.002496564760
  38     0.004141196503
  39     0.006080346223
  40    -0.078830261836
  41    -0.004946459583
  42     0.012529048471
  43    -0.000000127928
  44     0.000000009705
  45     0.055943352086
  46    -0.000000562284
  47     0.000000043794
  48     0.020734114028
  49    -0.000000199520
  50     0.000000014880
  51    -0.000779232248
  52     0.000333116046
  53     0.000446116202
  54     0.000000011994
  55    -0.000000000903
  56     0.000010002119
  57    -0.006256614540
  58     0.001905668151
  59     0.004350946389
  60     0.000000086488
  61    -0.000000006489
  62     0.000216443562
  63     0.000281157421
  64     0.000000004779
  65    -0.000000000483
  66    -0.000296547365
  67    -0.000000008257
  68     0.000000000584
  69    -0.000080664899
  70     0.000000001845
  71     0.000000000064
  72     0.000019108753
  73    -0.001273348541
  74    -0.024272366450
  75     0.000363345308
  76    -0.000820685465
  77    -0.000989689340
  78     0.000075425048
  79    -0.001273344047
  80    -0.024272312559
  81     0.000363355266
  82    -0.000820666869
  83     0.000989705831
  84    -0.000075427119
  85     0.000308789526
  86    -0.000307967366
  87    -0.003173205701
  88    -0.000512991372
  89    -0.000158121206
  90     0.000012050584
  91     0.000308781560
  92    -0.000308061185
  93    -0.003173194585
  94    -0.000512985501
  95     0.000158128402
  96    -0.000012050800
 Sym=     1a
 Ene= -2.76663407345096E-01
Spin= Alpha
 Occup= 2
  1      0.014897862935
  2      0.071133011009
  3     -0.194856849571
  4      0.198614323834
  5     -0.082398276070
  6     -0.165064583122
  7      0.000001643207
  8     -0.000000123896
  9     -0.009717801077
  10     0.000000239931
  11    -0.000000023896
  12    -0.095480360641
  13     0.000001026589
  14    -0.000000072862
  15     0.009385075061
  16    -0.004376625921
  17    -0.005008449140
  18    -0.000000152783
  19     0.000000011613
  20    -0.000055926767
  21     0.077107023623
  22    -0.026732051664
  23    -0.050374971959
  24    -0.000001082108
  25     0.000000083245
  26    -0.002092752459
  27     0.003429275328
  28     0.000000052425
  29    -0.000000002356
  30    -0.002855035225
  31    -0.000000091980
  32     0.000000007472
  33    -0.001745820423
  34     0.000000021645
  35    -0.000000004311
  36     0.000098182418
  37    -0.071655996713
  38    -0.293030221742
  39     0.749051165795
  40     0.540147751226
  41     0.172893065713
  42    -0.058702820143
  43     0.000000654101
  44    -0.000000087756
  45     0.187858304315
  46    -0.000001860903
  47     0.000000117612
  48     0.020818707198
  49    -0.000000252077
  50    -0.000000014697
  51    -0.009244916431
  52    -0.000929704743
  53     0.010174621174
  54     0.000000088003
  55    -0.000000004786
  56     0.000982896239
  57    -0.104695257941
  58     0.020456352307
  59     0.084238905634
  60     0.000001443223
  61    -0.000000096810
  62     0.005645694925
  63     0.019243296408
  64     0.000000392516
  65    -0.000000017145
  66    -0.020449443790
  67    -0.000000591310
  68     0.000000045553
  69    -0.005368147538
  70     0.000000064695
  71    -0.000000022551
  72     0.001334915788
  73    -0.011849869594
  74    -0.057162007317
  75     0.022688510486
  76    -0.004895346297
  77    -0.000740865709
  78     0.000056462238
  79    -0.011849858817
  80    -0.057162303247
  81     0.022688468712
  82    -0.004895334785
  83     0.000740950008
  84    -0.000056471626
  85    -0.050164048941
  86    -0.206192111946
  87    -0.083935804205
  88    -0.009714207775
  89    -0.012086924232
  90     0.000921158142
  91    -0.050163996902
  92    -0.206192199890
  93    -0.083935878757
  94    -0.009713943532
  95     0.012087088998
  96    -0.000921161128
 Sym=     1a
 Ene= -2.76663359347004E-01
Spin= Alpha
 Occup= 2
  1     -0.071655970077
  2     -0.293030265074
  3      0.749051358329
  4      0.540147304211
  5      0.172893788472
  6      0.058702865429
  7     -0.000000633826
  8      0.000000011038
  9     -0.187858405688
  10     0.000001674448
  11    -0.000000152021
  12    -0.020818595288
  13     0.000000250851
  14    -0.000000052653
  15    -0.009244923910
  16    -0.000929714752
  17     0.010174638662
  18     0.000000087913
  19    -0.000000008662
  20     0.000982904215
  21    -0.104695246991
  22     0.020456309631
  23     0.084238937360
  24     0.000001407435
  25    -0.000000120905
  26     0.005645732494
  27    -0.019243316650
  28    -0.000000409068
  29     0.000000003332
  30     0.020449467107
  31     0.000000606427
  32    -0.000000045839
  33     0.005368151378
  34    -0.000000057604
  35     0.000000041368
  36    -0.001334926728
  37     0.014897869878
  38     0.071132980704
  39    -0.194856809376
  40     0.198614464131
  41    -0.082398611604
  42     0.165064592202
  43    -0.000001646162
  44     0.000000127114
  45     0.009717657627
  46    -0.000000137802
  47     0.000000004706
  48     0.095480541425
  49    -0.000001117248
  50     0.000000090744
  51     0.009385081477
  52    -0.004376633840
  53    -0.005008447637
  54    -0.000000148290
  55     0.000000011369
  56    -0.000055924018
  57     0.077107092282
  58    -0.026732107193
  59    -0.050374985089
  60    -0.000001103920
  61     0.000000083746
  62    -0.002092748269
  63    -0.003429273675
  64    -0.000000046316
  65     0.000000006034
  66     0.002855026643
  67     0.000000089559
  68    -0.000000006375
  69     0.001745826787
  70    -0.000000027420
  71    -0.000000001721
  72    -0.000098180476
  73    -0.050164098484
  74    -0.206192326158
  75    -0.083935866889
  76     0.009714211662
  77     0.012086928498
  78    -0.000921154887
  79    -0.050164009804
  80    -0.206191985342
  81    -0.083936071708
  82     0.009713981048
  83    -0.012087122579
  84     0.000921179184
  85    -0.011849824648
  86    -0.057162061342
  87     0.022688637187
  88     0.004895351675
  89     0.000740865653
  90    -0.000056461969
  91    -0.011849888110
  92    -0.057162273435
  93     0.022688276989
  94     0.004895302539
  95    -0.000740933701
  96     0.000056464175
 Sym=     1a
 Ene= -9.06967026934143E-02
Spin= Alpha
 Occup= 2
  1     -0.004164362012
  2     -0.021428770920
  3      0.169457606847
  4     -0.840455544725
  5     -0.190522781806
  6      0.659572202256
  7     -0.000000069157
  8      0.000000036518
  9     -0.012365424206
  10     0.000004513304
  11    -0.000000328321
  12     0.170202272998
  13     0.000002110455
  14    -0.000000145732
  15    -0.018104815797
  16     0.011530783225
  17     0.006574032572
  18     0.000000367539
  19    -0.000000026759
  20    -0.000438748631
  21    -0.260781618015
  22     0.161863244452
  23     0.098918373563
  24     0.000004904458
  25    -0.000000360557
  26    -0.005571579858
  27    -0.026899185028
  28    -0.000000168962
  29     0.000000024541
  30     0.007042800529
  31     0.000000325704
  32    -0.000000026369
  33     0.029046243228
  34    -0.000000099018
  35    -0.000000006556
  36     0.001947639226
  37     0.011926866757
  38     0.046037454754
  39    -0.193594239930
  40     0.645851205077
  41     0.141721175591
  42     0.119394187333
  43    -0.000002409310
  44     0.000000171230
  45    -0.433331853015
  46     0.000003432149
  47    -0.000000272511
  48    -0.034495774573
  49    -0.000000751738
  50     0.000000052108
  51     0.015315021337
  52    -0.006730425862
  53    -0.008584595475
  54    -0.000000264798
  55     0.000000020041
  56    -0.000164122210
  57     0.216191798777
  58    -0.114084395510
  59    -0.102107403267
  60    -0.000004098995
  61     0.000000312624
  62     0.001060145192
  63    -0.013671199348
  64    -0.000000173215
  65     0.000000021818
  66     0.006401966580
  67     0.000000370801
  68    -0.000000027637
  69     0.011939872066
  70    -0.000000138408
  71    -0.000000001635
  72     0.000490186381
  73     0.034052342651
  74     0.149275668136
  75     0.023370956974
  76    -0.005502137512
  77    -0.013030670748
  78     0.000993078071
  79     0.034051323755
  80     0.149272691768
  81     0.023368148788
  82    -0.005501641528
  83     0.013030358960
  84    -0.000993065323
  85    -0.007737844480
  86    -0.054091120055
  87     0.010381212917
  88     0.001160223109
  89    -0.000669130399
  90     0.000050994672
  91    -0.007738032583
  92    -0.054091706024
  93     0.010380331261
  94     0.001160063193
  95     0.000669017165
  96    -0.000050983379
 Sym=     1a
 Ene= -9.06966594836210E-02
Spin= Alpha
 Occup= 2
  1     -0.011926855875
  2     -0.046037498506
  3      0.193594336541
  4     -0.645850711953
  5     -0.141721116341
  6      0.119394211367
  7     -0.000002361771
  8      0.000000192904
  9     -0.433331386691
  10     0.000003423096
  11    -0.000000250994
  12    -0.034495768879
  13    -0.000000760853
  14     0.000000063163
  15    -0.015315015208
  16     0.006730418431
  17     0.008584596777
  18     0.000000267675
  19    -0.000000020627
  20     0.000164122076
  21    -0.216191626128
  22     0.114084268976
  23     0.102107357152
  24     0.000004117074
  25    -0.000000314712
  26    -0.001060133766
  27    -0.013671195128
  28    -0.000000183071
  29     0.000000024538
  30     0.006401974718
  31     0.000000377446
  32    -0.000000029536
  33     0.011939858265
  34    -0.000000131830
  35    -0.000000003385
  36     0.000490186687
  37     0.004164362316
  38     0.021428742259
  39    -0.169457474237
  40     0.840454963325
  41     0.190522720570
  42     0.659572211890
  43    -0.000000168701
  44    -0.000000018325
  45    -0.012364833373
  46     0.000004497865
  47    -0.000000359991
  48     0.170202286855
  49     0.000002060612
  50    -0.000000172473
  51     0.018104797502
  52    -0.011530771374
  53    -0.006574026128
  54    -0.000000356565
  55     0.000000028516
  56     0.000438744103
  57     0.260781465865
  58    -0.161863143490
  59    -0.098918322375
  60    -0.000004834760
  61     0.000000382968
  62     0.005571541708
  63    -0.026899167255
  64    -0.000000169850
  65     0.000000010967
  66     0.007042794206
  67     0.000000336116
  68    -0.000000024292
  69     0.029046225707
  70    -0.000000108239
  71     0.000000009578
  72     0.001947627663
  73     0.007737907756
  74     0.054091073886
  75    -0.010381166551
  76     0.001160223091
  77    -0.000669120082
  78     0.000050994731
  79     0.007738015411
  80     0.054091839364
  81    -0.010380469073
  82     0.001160116995
  83     0.000669008364
  84    -0.000050988835
  85    -0.034052271861
  86    -0.149275730516
  87    -0.023370804576
  88    -0.005502115889
  89    -0.013030656659
  90     0.000993081262
  91    -0.034051409914
  92    -0.149272920998
  93    -0.023368241664
  94    -0.005501684921
  95     0.013030333606
  96    -0.000993045543
 Sym=     1a
 Ene= -6.44650378623828E-02
Spin= Alpha
 Occup= 2
  1      0.000000101873
  2      0.000000446977
  3     -0.000001913265
  4      0.000006096759
  5      0.000001283927
  6     -0.000002367320
  7     -0.135098752292
  8      0.004769329148
  9      0.000003434439
  10    -0.072497357034
  11     0.000334511131
  12    -0.000000786849
  13    -0.134674813779
  14     0.006853337876
  15     0.000000193440
  16    -0.000000115392
  17    -0.000000078048
  18     0.002946483733
  19    -0.000021293655
  20    -0.000000001324
  21     0.000002904306
  22    -0.000001919755
  23    -0.000000984551
  24     0.050184840233
  25    -0.001153319971
  26     0.000000054754
  27     0.000000330185
  28    -0.005907202752
  29    -0.000160695148
  30    -0.000000304557
  31     0.009455670169
  32     0.000074454600
  33    -0.000000138432
  34    -0.001530326022
  35     0.000141140565
  36     0.000000001641
  37    -0.000000044900
  38    -0.000000247978
  39     0.000001773774
  40    -0.000008160648
  41    -0.000001895509
  42    -0.000000184031
  43     0.656604631548
  44    -0.011577659915
  45     0.000004465152
  46     0.459437830512
  47     0.000773848759
  48     0.000002045624
  49     0.404933700599
  50    -0.013392612878
  51    -0.000000234856
  52     0.000000161562
  53     0.000000073294
  54    -0.004742403780
  55     0.000576103519
  56    -0.000000001285
  57    -0.000002887125
  58     0.000001887156
  59     0.000000999969
  60    -0.036755116433
  61     0.005025106578
  62    -0.000000060858
  63    -0.000000087089
  64    -0.001062554882
  65    -0.002551244693
  66     0.000000222538
  67    -0.016947778506
  68     0.000384243714
  69    -0.000000105696
  70     0.018373345473
  71     0.003038610222
  72    -0.000000004761
  73    -0.006700154259
  74    -0.031194072287
  75    -0.055196158385
  76     0.003611918727
  77    -0.003780090103
  78     0.000350224768
  79     0.006700043292
  80     0.031193116491
  81     0.055196516421
  82    -0.003611988474
  83    -0.003780041709
  84     0.000350225813
  85    -0.053921967737
  86    -0.166686954896
  87    -0.156342489289
  88    -0.015993715676
  89    -0.022022594240
  90     0.001984370391
  91     0.053922562392
  92     0.166689797698
  93     0.156342901734
  94     0.015993366808
  95    -0.022023052292
  96     0.001984385860
 Sym=     1a
 Ene= -6.44649766622271E-02
Spin= Alpha
 Occup= 2
  1      0.000000046842
  2      0.000000233326
  3     -0.000001675934
  4      0.000007865963
  5      0.000001847139
  6     -0.000000097043
  7      0.656604790866
  8     -0.011577729401
  9      0.000004520508
  10     0.459437586124
  11     0.000773850014
  12     0.000002141389
  13     0.404934129274
  14    -0.013392709594
  15     0.000000243336
  16    -0.000000170536
  17    -0.000000072800
  18     0.004742415499
  19    -0.000576110781
  20     0.000000019303
  21     0.000002971977
  22    -0.000002014330
  23    -0.000000957647
  24     0.036755129997
  25    -0.005025145502
  26     0.000000154544
  27    -0.000000098274
  28    -0.001062571040
  29    -0.002551261930
  30     0.000000231389
  31    -0.016947775990
  32     0.000384242938
  33    -0.000000099541
  34     0.018373364636
  35     0.003038634124
  36    -0.000000031632
  37    -0.000000110288
  38    -0.000000446095
  39     0.000001849762
  40    -0.000005899489
  41    -0.000001274448
  42    -0.000002337065
  43    -0.135098736867
  44     0.004769324397
  45     0.000003447439
  46    -0.072497356423
  47     0.000334522058
  48    -0.000000761458
  49    -0.134675071578
  50     0.006853337359
  51    -0.000000194964
  52     0.000000117160
  53     0.000000077804
  54    -0.002946485955
  55     0.000021296628
  56    -0.000000004262
  57    -0.000002905412
  58     0.000001969398
  59     0.000000936014
  60    -0.050184928944
  61     0.001153318126
  62    -0.000000067768
  63     0.000000327446
  64    -0.005907219186
  65    -0.000160694089
  66    -0.000000302420
  67     0.009455685166
  68     0.000074453282
  69    -0.000000136894
  70    -0.001530318971
  71     0.000141140462
  72     0.000000005595
  73     0.053922019808
  74     0.166687096712
  75     0.156342747418
  76    -0.015993704488
  77    -0.022022595237
  78     0.001984364696
  79    -0.053922579048
  80    -0.166689583754
  81    -0.156343255474
  82     0.015993412572
  83    -0.022023128410
  84     0.001984422819
  85     0.006700147742
  86     0.031194041169
  87     0.055196263322
  88     0.003611930510
  89    -0.003780093331
  90     0.000350227888
  91    -0.006700066830
  92    -0.031193324793
  93    -0.055196593844
  94    -0.003611946446
  95    -0.003780056960
  96     0.000350222005
 Sym=     1a
 Ene= -1.18918567329463E-01
Spin= Alpha
 Occup= 0
  1     -0.000000007595
  2     -0.000000036381
  3      0.000000165803
  4     -0.000000538481
  5     -0.000000121031
  6      0.000000171132
  7      0.004769325002
  8     -0.072881651533
  9     -0.000000303404
  10     0.000334521575
  11    -0.068133514978
  12     0.000000025243
  13     0.006853321694
  14    -0.045271366707
  15    -0.000000015593
  16     0.000000005286
  17     0.000000010307
  18    -0.000021294927
  19     0.002668683706
  20    -0.000000024925
  21    -0.000000232585
  22     0.000000099774
  23     0.000000132811
  24    -0.001153321905
  25     0.035139528472
  26    -0.000000334376
  27    -0.000000028489
  28    -0.000067616980
  29    -0.005503935151
  30     0.000000007089
  31     0.000074454922
  32     0.010426943252
  33     0.000000031133
  34     0.000016262777
  35    -0.003042639367
  36    -0.000000143893
  37     0.000000006076
  38     0.000000034320
  39    -0.000000184070
  40     0.000000663204
  41     0.000000159811
  42    -0.000000015967
  43    -0.011577659989
  44     0.505570662190
  45    -0.000000386663
  46     0.000773847157
  47     0.469532814553
  48    -0.000000197825
  49    -0.013392614210
  50     0.230223181525
  51     0.000000018456
  52    -0.000000013995
  53    -0.000000004461
  54     0.000576104520
  55     0.002773055114
  56    -0.000000027550
  57     0.000000225024
  58    -0.000000165096
  59    -0.000000059928
  60     0.005025103940
  61     0.028798940833
  62    -0.000000283684
  63     0.000000001861
  64     0.000266726148
  65     0.008234339281
  66     0.000000008917
  67     0.000384243158
  68    -0.011935219708
  69    -0.000000011415
  70    -0.000742093838
  71     0.000887694279
  72     0.000000140902
  73     0.000510624665
  74     0.002377340677
  75     0.004206532021
  76    -0.000275265612
  77     0.000350228901
  78     0.000788701088
  79    -0.000510622137
  80    -0.002377277404
  81    -0.004206590675
  82     0.000275276999
  83     0.000350224008
  84     0.000788708047
  85     0.004109452009
  86     0.012703397744
  87     0.011915015428
  88     0.001218900915
  89     0.001984369425
  90     0.003863989297
  91    -0.004109460089
  92    -0.012703496409
  93    -0.011914982328
  94    -0.001218858992
  95     0.001984385499
  96     0.003863970692
 Sym=     1a
 Ene= -1.18918565122337E-01
Spin= Alpha
 Occup= 0
  1     -0.000000000963
  2     -0.000000002616
  3      0.000000079933
  4     -0.000000561144
  5     -0.000000126168
  6      0.000000037475
  7     -0.011577729327
  8      0.505570733802
  9     -0.000000300098
  10     0.000773851617
  11     0.469532731797
  12    -0.000000121956
  13    -0.013392708261
  14     0.230223207593
  15    -0.000000018034
  16     0.000000018546
  17    -0.000000000512
  18    -0.000576109780
  19    -0.002773058359
  20     0.000000025270
  21    -0.000000222181
  22     0.000000207425
  23     0.000000014756
  24    -0.005025148140
  25    -0.028798943519
  26     0.000000264223
  27     0.000000012202
  28     0.000266729310
  29     0.008234350376
  30    -0.000000005878
  31     0.000384243493
  32    -0.011935228186
  33    -0.000000010492
  34    -0.000742098414
  35     0.000887687872
  36     0.000000144475
  37     0.000000008594
  38     0.000000031768
  39    -0.000000121613
  40     0.000000378823
  41     0.000000074681
  42     0.000000187950
  43     0.004769328543
  44    -0.072881641694
  45    -0.000000222504
  46     0.000334511613
  47    -0.068133487967
  48     0.000000092397
  49     0.006853353541
  50    -0.045271404646
  51     0.000000014080
  52    -0.000000005754
  53    -0.000000008326
  54     0.000021295356
  55    -0.002668684754
  56     0.000000025838
  57     0.000000211158
  58    -0.000000108446
  59    -0.000000102712
  60     0.001153316192
  61    -0.035139551738
  62     0.000000341622
  63    -0.000000021783
  64    -0.000067615493
  65    -0.005503940474
  66     0.000000001227
  67     0.000074452961
  68     0.010426953825
  69     0.000000027998
  70     0.000016262743
  71    -0.003042642798
  72    -0.000000142982
  73    -0.004109444049
  74    -0.012703365571
  75    -0.011915033092
  76     0.001218891779
  77     0.001984365680
  78     0.003863993435
  79     0.004109523655
  80     0.012703672538
  81     0.011915135674
  82    -0.001218884728
  83     0.001984423163
  84     0.003863982275
  85    -0.000510625518
  86    -0.002377318981
  87    -0.004206582393
  88    -0.000275271001
  89     0.000350223810
  90     0.000788701236
  91     0.000510613340
  92     0.002377253979
  93     0.004206576577
  94     0.000275266170
  95     0.000350223755
  96     0.000788715560
 Sym=     1a
 Ene= 4.65818638909730E-02
Spin= Alpha
 Occup= 0
  1      0.001254274999
  2      0.004360110237
  3      0.025919656438
  4     -0.256070594355
  5     -0.065169481840
  6     -0.017683348896
  7     -0.031625359221
  8      0.002410187314
  9     -0.136125950000
  10    -0.050232729678
  11     0.003828262173
  12    -0.090930190024
  13    -0.054365572107
  14     0.004143236422
  15    -0.002602986492
  16     0.000784984026
  17     0.001818002466
  18    -0.000113258977
  19     0.000008631787
  20     0.000091437410
  21    -0.038341150654
  22     0.010525306413
  23     0.027815844241
  24    -0.009325176092
  25     0.000710677649
  26     0.001530468766
  27    -0.006155891102
  28     0.000258334928
  29    -0.000021285852
  30     0.004311675878
  31    -0.000471391379
  32     0.000035923700
  33     0.003947318702
  34     0.000124798703
  35    -0.000007365733
  36    -0.000032252311
  37     0.016205716762
  38     0.052959373322
  39    -0.101212143743
  40    -0.112073404668
  41    -0.000100157514
  42    -0.093670994297
  43     0.157418359334
  44    -0.011996922316
  45    -0.259603462052
  46     0.246496601779
  47    -0.018785612510
  48    -0.158772571697
  49     0.200032910108
  50    -0.015244608842
  51     0.002733393518
  52    -0.000043351486
  53    -0.002690042032
  54    -0.001488809053
  55     0.000113462357
  56    -0.000234268767
  57     0.035791326450
  58    -0.001951849907
  59    -0.033839476543
  60    -0.018753730388
  61     0.001429229971
  62    -0.002822518509
  63    -0.000188782664
  64     0.000807469168
  65     0.000480955488
  66    -0.004237894240
  67     0.001701788532
  68    -0.000129693240
  69     0.004491172763
  70    -0.002785122101
  71    -0.000515576259
  72     0.000772648297
  73    -0.004788536694
  74    -0.008970801743
  75    -0.057965994232
  76     0.002484256388
  77     0.003993806978
  78    -0.000304371635
  79    -0.002615627634
  80     0.010754797424
  81    -0.014723827179
  82     0.003485052975
  83    -0.001127730542
  84     0.000085947972
  85    -0.003775677227
  86    -0.041333025559
  87    -0.033485766506
  88     0.002900852341
  89     0.000117912812
  90    -0.000008986057
  91     0.439731069479
  92     0.890781987433
  93     0.328066282066
  94     0.010481160656
  95    -0.016729717018
  96     0.001274977299
 Sym=     1a
 Ene= 4.65818816565826E-02
Spin= Alpha
 Occup= 0
  1      0.016205722111
  2      0.052959351996
  3     -0.101212012683
  4     -0.112073397549
  5     -0.000100205396
  6      0.093670762895
  7     -0.157418357441
  8      0.011997091929
  9      0.259603294095
  10    -0.246496755740
  11     0.018785893999
  12     0.158772372162
  13    -0.200032720321
  14     0.015244784590
  15     0.002733394268
  16    -0.000043349696
  17    -0.002690044572
  18    -0.001488810801
  19     0.000113464981
  20    -0.000234275032
  21     0.035791294741
  22    -0.001951805684
  23    -0.033839489057
  24    -0.018753712706
  25     0.001429249190
  26    -0.002822550740
  27     0.000188776834
  28    -0.000807477773
  29    -0.000480962491
  30     0.004237893392
  31    -0.001701772065
  32     0.000129695465
  33    -0.004491164092
  34     0.002785117179
  35     0.000515583429
  36    -0.000772656945
  37     0.001254284220
  38     0.004360097893
  39     0.025919739272
  40    -0.256070575279
  41    -0.065169472406
  42     0.017683319632
  43     0.031625331601
  44    -0.002410209668
  45     0.136126041257
  46     0.050232583186
  47    -0.003828297171
  48     0.090930241173
  49     0.054365369682
  50    -0.004143254965
  51    -0.002602987854
  52     0.000784987016
  53     0.001818000838
  54    -0.000113263571
  55     0.000008631709
  56     0.000091437380
  57    -0.038341170642
  58     0.010525345320
  59     0.027815825322
  60    -0.009325188274
  61     0.000710684711
  62     0.001530468734
  63     0.006155882445
  64    -0.000258338891
  65     0.000021285056
  66    -0.004311666679
  67     0.000471390837
  68    -0.000035926613
  69    -0.003947316286
  70    -0.000124792843
  71     0.000007369714
  72     0.000032249228
  73    -0.003775691437
  74    -0.041333185827
  75    -0.033485688155
  76    -0.002900858694
  77    -0.000117912738
  78     0.000008986434
  79     0.439731400692
  80     0.890781115363
  81     0.328066930019
  82    -0.010481173203
  83     0.016729742860
  84    -0.001275000862
  85    -0.004788543558
  86    -0.008970739040
  87    -0.057966016389
  88    -0.002484254413
  89    -0.003993808636
  90     0.000304372405
  91    -0.002615606479
  92     0.010754620462
  93    -0.014723846586
  94    -0.003485034828
  95     0.001127713915
  96    -0.000085941663
 Sym=     1a
 Ene= 4.65818907462075E-02
Spin= Alpha
 Occup= 0
  1      0.001254293568
  2      0.004360078346
  3      0.025919746543
  4     -0.256069803124
  5     -0.065169274516
  6     -0.017682725996
  7      0.031625604385
  8     -0.002410224367
  9     -0.136124810662
  10     0.050235085276
  11    -0.003828469151
  12    -0.090929136719
  13     0.054366879180
  14    -0.004143369046
  15    -0.002602977198
  16     0.000784982296
  17     0.001817994902
  18     0.000113337692
  19    -0.000008638352
  20     0.000091438296
  21    -0.038340775347
  22     0.010525026715
  23     0.027815748632
  24     0.009326261372
  25    -0.000710766753
  26     0.001530491915
  27    -0.006155843576
  28    -0.000258501496
  29     0.000021297251
  30     0.004311631212
  31     0.000471688574
  32    -0.000035948235
  33     0.003947299605
  34    -0.000124872423
  35     0.000007374975
  36    -0.000032250861
  37     0.016205734913
  38     0.052959364206
  39    -0.101211914223
  40    -0.112074249764
  41    -0.000100338135
  42    -0.093673472524
  43    -0.157416606438
  44     0.011996888370
  45    -0.259607425881
  46    -0.246491983851
  47     0.018785418913
  48    -0.158775769643
  49    -0.200029589550
  50     0.015244460080
  51     0.002733433610
  52    -0.000043392840
  53    -0.002690040770
  54     0.001488745497
  55    -0.000113458682
  56    -0.000234269119
  57     0.035791801799
  58    -0.001952402612
  59    -0.033839399187
  60     0.018752840897
  61    -0.001429174972
  62    -0.002822477172
  63    -0.000188828295
  64    -0.000807309398
  65    -0.000480943889
  66    -0.004237870716
  67    -0.001701909107
  68     0.000129705004
  69     0.004491210458
  70     0.002785028323
  71     0.000515548934
  72     0.000772654370
  73    -0.002615622607
  74     0.010754455905
  75    -0.014723913887
  76     0.003485051890
  77     0.001127638308
  78    -0.000085937698
  79    -0.004788531333
  80    -0.008970814505
  81    -0.057965938107
  82     0.002484172303
  83    -0.003993844313
  84     0.000304378136
  85     0.439731408518
  86     0.890781149610
  87     0.328066816904
  88     0.010481457364
  89     0.016729533985
  90    -0.001274976201
  91    -0.003775674617
  92    -0.041332949484
  93    -0.033485587102
  94     0.002900817120
  95    -0.000117947772
  96     0.000008988083
 Sym=     1a
 Ene= 4.65820159834573E-02
Spin= Alpha
 Occup= 0
  1      0.016205717790
  2      0.052959406757
  3     -0.101212189360
  4     -0.112073716606
  5     -0.000100250954
  6      0.093673593393
  7      0.157416805798
  8     -0.011996874720
  9      0.259607553208
  10     0.246491980849
  11    -0.018785372133
  12     0.158775938534
  13     0.200030130639
  14    -0.015244483233
  15     0.002733440531
  16    -0.000043392469
  17    -0.002690048062
  18     0.001488749211
  19    -0.000113459095
  20    -0.000234267474
  21     0.035791873604
  22    -0.001952403889
  23    -0.033839469715
  24     0.018752878402
  25    -0.001429172453
  26    -0.002822481697
  27     0.000188843381
  28     0.000807314338
  29     0.000480943472
  30     0.004237860037
  31     0.001701909264
  32    -0.000129703311
  33    -0.004491220019
  34    -0.002785035108
  35    -0.000515550068
  36    -0.000772654164
  37     0.001254290183
  38     0.004360082044
  39     0.025919758935
  40    -0.256070086626
  41    -0.065169366573
  42     0.017682744048
  43    -0.031625612935
  44     0.002410212988
  45     0.136124907434
  46    -0.050235216587
  47     0.003828471532
  48     0.090929292708
  49    -0.054367234547
  50     0.004143364469
  51    -0.002602981212
  52     0.000784983066
  53     0.001817998146
  54     0.000113332749
  55    -0.000008636434
  56     0.000091436052
  57    -0.038340874248
  58     0.010525045865
  59     0.027815828383
  60     0.009326254779
  61    -0.000710759951
  62     0.001530488759
  63     0.006155865902
  64     0.000258494212
  65    -0.000021300876
  66    -0.004311649797
  67    -0.000471684500
  68     0.000035947193
  69    -0.003947310973
  70     0.000124878123
  71    -0.000007369069
  72     0.000032247361
  73     0.439731262085
  74     0.890782104557
  75     0.328066230364
  76    -0.010481478735
  77    -0.016729574302
  78     0.001274975269
  79    -0.003775690227
  80    -0.041333111159
  81    -0.033485807188
  82    -0.002900844446
  83     0.000117955912
  84    -0.000008990373
  85    -0.002615651452
  86     0.010754676500
  87    -0.014723923803
  88    -0.003485069707
  89    -0.001127658072
  90     0.000085940644
  91    -0.004788526540
  92    -0.008970851625
  93    -0.057966084304
  94    -0.002484177886
  95     0.003993846423
  96    -0.000304371571
 Sym=     1a
 Ene= 6.65594398069226E-01
Spin= Alpha
 Occup= 0
  1      0.000000006887
  2     -0.000000013972
  3      0.000000106518
  4     -0.000000042032
  5     -0.000000125071
  6     -0.000000038782
  7     -0.004031282137
  8      0.833727868718
  9      0.000000538488
  10     0.082829067706
  11    -0.250830401830
  12     0.000000484101
  13     0.188995467862
  14    -1.005130364607
  15     0.000000022169
  16    -0.000000032497
  17     0.000000010328
  18     0.001196445379
  19     0.003185475628
  20    -0.000000027875
  21     0.000000075377
  22    -0.000000094093
  23     0.000000018716
  24     0.001305582819
  25    -0.033254432328
  26     0.000000290951
  27    -0.000000034175
  28     0.000180086979
  29    -0.018526563126
  30     0.000000043819
  31     0.000287043453
  32     0.024499322030
  33     0.000000002031
  34    -0.000528655488
  35     0.000356670694
  36    -0.000000273557
  37     0.000000001658
  38     0.000000026482
  39    -0.000000312571
  40     0.000001229366
  41     0.000000655356
  42    -0.000000020907
  43     0.002631562091
  44    -0.031066229801
  45    -0.000000737156
  46    -0.081029555269
  47     0.239305612709
  48    -0.000002073994
  49    -0.128365750197
  50     0.343062045240
  51    -0.000000019748
  52     0.000000015772
  53     0.000000003976
  54    -0.000568723846
  55     0.003147722188
  56    -0.000000030743
  57    -0.000000278230
  58     0.000000242737
  59     0.000000035493
  60    -0.006851586845
  61     0.015582951030
  62    -0.000000137696
  63     0.000000044009
  64    -0.000738517067
  65     0.019715923949
  66     0.000000035755
  67    -0.001570807301
  68    -0.039612992573
  69    -0.000000094800
  70     0.002561631920
  71     0.013161304860
  72     0.000000560291
  73    -0.005677440870
  74     0.088072042159
  75     0.111277303841
  76    -0.000769872320
  77    -0.006736216346
  78    -0.009288106877
  79     0.005677559652
  80    -0.088072726453
  81    -0.111278834760
  82     0.000769896217
  83    -0.006736404298
  84    -0.009288053322
  85     0.001890088514
  86     0.064157163925
  87     0.045409443710
  88    -0.002684936608
  89    -0.003687937286
  90    -0.007265646045
  91    -0.001890161706
  92    -0.064157328407
  93    -0.045408753780
  94     0.002684956645
  95    -0.003688026511
  96    -0.007265639302
 Sym=     1a
 Ene= 6.65596442429071E-01
Spin= Alpha
 Occup= 0
  1      0.000000003250
  2     -0.000000018262
  3      0.000000199106
  4     -0.000000415819
  5     -0.000000482558
  6     -0.000000030895
  7      0.002631551379
  8     -0.031066159415
  9     -0.000000162922
  10    -0.081029340326
  11     0.239307108646
  12    -0.000001557397
  13    -0.128364580525
  14     0.343060665378
  15     0.000000036425
  16    -0.000000024629
  17    -0.000000011796
  18     0.000568724523
  19    -0.003147610223
  20     0.000000030098
  21     0.000000537245
  22    -0.000000394745
  23    -0.000000142500
  24     0.006851638936
  25    -0.015581653504
  26     0.000000189029
  27     0.000000086394
  28    -0.000738516473
  29     0.019715600103
  30    -0.000000003183
  31    -0.001570796431
  32    -0.039612375729
  33    -0.000000112727
  34     0.002561620253
  35     0.013161122501
  36     0.000000558996
  37    -0.000000027546
  38     0.000000051082
  39    -0.000000352698
  40    -0.000000172796
  41     0.000000358328
  42    -0.000000027935
  43    -0.004031251119
  44     0.833729903533
  45     0.000001215972
  46     0.082829026824
  47    -0.250835499892
  48     0.000001159081
  49     0.188993257573
  50    -1.005126801421
  51    -0.000000035809
  52     0.000000029925
  53     0.000000005884
  54    -0.001196405964
  55    -0.003185352353
  56     0.000000031820
  57    -0.000000283403
  58     0.000000222830
  59     0.000000060573
  60    -0.001305379975
  61     0.033255216391
  62    -0.000000343312
  63     0.000000006021
  64     0.000180096583
  65    -0.018526145693
  66    -0.000000009168
  67     0.000287049698
  68     0.024498750947
  69     0.000000001090
  70    -0.000528674619
  71     0.000356681731
  72    -0.000000272969
  73    -0.001890106986
  74    -0.064156907788
  75    -0.045408690289
  76    -0.002684933783
  77    -0.003687921786
  78    -0.007265561205
  79     0.001890184887
  80     0.064157349220
  81     0.045408547480
  82     0.002684938483
  83    -0.003688021343
  84    -0.007265576114
  85     0.005677347175
  86    -0.088072227236
  87    -0.111276321368
  88    -0.000769862988
  89    -0.006736127440
  90    -0.009287869177
  91    -0.005677454668
  92     0.088072118793
  93     0.111276621264
  94     0.000769799827
  95    -0.006736169602
  96    -0.009287881563
 Sym=     1a
 Ene= 7.29772796877702E-01
Spin= Alpha
 Occup= 0
  1      0.019889771850
  2     -0.041346140858
  3      0.268005448797
  4      0.223879159235
  5     -0.302599591057
  6      0.828204482924
  7      0.000000463714
  8     -0.000000031128
  9      0.011516084561
  10    -0.000011490463
  11     0.000000774550
  12    -2.073289230174
  13    -0.000011214891
  14     0.000000591353
  15     0.019376843652
  16    -0.019415040344
  17     0.000038196692
  18    -0.000000543837
  19     0.000000034213
  20     0.001721911559
  21     0.174631233564
  22    -0.159175408143
  23    -0.015455825421
  24    -0.000004159074
  25     0.000000257103
  26     0.012721341219
  27     0.029073494972
  28    -0.000000499941
  29    -0.000000094450
  30     0.026600132585
  31     0.000000293278
  32    -0.000000028284
  33    -0.065606319246
  34     0.000000377464
  35     0.000000155002
  36    -0.008161674521
  37    -0.002691789470
  38     0.034702683664
  39    -0.326387751189
  40     0.844593390822
  41     0.665162002859
  42    -0.073465236223
  43     0.000000170998
  44    -0.000000016466
  45     0.661872136199
  46     0.000005367792
  47    -0.000000389190
  48    -0.695414818452
  49     0.000023765530
  50    -0.000001659727
  51    -0.024622661171
  52     0.016860766077
  53     0.007761895094
  54     0.000000541947
  55    -0.000000046900
  56    -0.000805378108
  57    -0.410436588042
  58     0.322113899309
  59     0.088322688733
  60     0.000009155278
  61    -0.000000774426
  62    -0.020693992533
  63     0.042781538995
  64     0.000000199561
  65    -0.000000034638
  66     0.010652743497
  67    -0.000000610191
  68     0.000000054884
  69    -0.068050201122
  70     0.000000342451
  71    -0.000000008412
  72    -0.006966373365
  73     0.065063797124
  74    -0.240718466569
  75    -0.620445625122
  76     0.055363255514
  77     0.072723854418
  78    -0.005542344470
  79     0.065062092247
  80    -0.240698449126
  81    -0.620421160070
  82     0.055361799438
  83    -0.072723360421
  84     0.005542378708
  85    -0.065782868611
  86    -0.162800095649
  87     0.375412755639
  88     0.040584304385
  89     0.034449500940
  90    -0.002625436779
  91    -0.065782570538
  92    -0.162784333456
  93     0.375421428434
  94     0.040583313514
  95    -0.034449260855
  96     0.002625370675
 Sym=     1a
 Ene= 7.29773901391085E-01
Spin= Alpha
 Occup= 0
  1      0.002691524016
  2     -0.034701999779
  3      0.326388633448
  4     -0.844632108379
  5     -0.665165847750
  6     -0.073465436460
  7      0.000000158123
  8     -0.000000008791
  9      0.661841859985
  10     0.000004747217
  11    -0.000000381841
  12    -0.695416311460
  13     0.000023077231
  14    -0.000001912529
  15     0.024621964024
  16    -0.016860421646
  17    -0.007761542378
  18    -0.000000520556
  19     0.000000034231
  20     0.000805395102
  21     0.410426445674
  22    -0.322107902016
  23    -0.088318543658
  24    -0.000009000607
  25     0.000000611158
  26     0.020693884732
  27     0.042780787891
  28     0.000000139331
  29    -0.000000083563
  30     0.010652906141
  31    -0.000000530587
  32     0.000000032745
  33    -0.068049356054
  34     0.000000343655
  35     0.000000079367
  36    -0.006966342863
  37    -0.019889607556
  38     0.041345955504
  39    -0.268008346762
  40    -0.223842511892
  41     0.302604878793
  42     0.828206672461
  43     0.000000569514
  44    -0.000000047739
  45     0.011479977637
  46    -0.000010546055
  47     0.000000906427
  48    -2.073287618926
  49    -0.000009907957
  50     0.000001018223
  51    -0.019376057706
  52     0.019414478560
  53    -0.000038420854
  54     0.000000542874
  55    -0.000000048732
  56    -0.001721863712
  57    -0.174620743959
  58     0.159168376946
  59     0.015452367013
  60     0.000004434759
  61    -0.000000398998
  62    -0.012721009942
  63     0.029072375231
  64    -0.000000413774
  65    -0.000000038149
  66     0.026600185137
  67     0.000000168473
  68    -0.000000006469
  69    -0.065604869507
  70     0.000000386663
  71     0.000000057651
  72    -0.008161503351
  73     0.065782744943
  74     0.162797614451
  75    -0.375410329333
  76     0.040584066202
  77     0.034449156233
  78    -0.002625397546
  79     0.065781997083
  80     0.162783879330
  81    -0.375420307213
  82     0.040583042780
  83    -0.034449140364
  84     0.002625443801
  85    -0.065062686798
  86     0.240720933852
  87     0.620443019224
  88     0.055362730314
  89     0.072722922319
  90    -0.005542297138
  91    -0.065061868558
  92     0.240705007581
  93     0.620418049848
  94     0.055361258200
  95    -0.072722346533
  96     0.005542180815
 Sym=     1a
 Ene= 7.58671740638025E-01
Spin= Alpha
 Occup= 0
  1     -0.006543686524
  2      0.036042712897
  3     -0.585208696881
  4      2.946193701269
  5      0.857036646882
  6     -0.038224379761
  7     -0.005546843081
  8      0.000422724522
  9      1.418610571334
  10    -0.177765849279
  11     0.013547668678
  12     1.100441133965
  13    -0.636519421822
  14     0.048509951483
  15     0.038083357757
  16    -0.012406884723
  17    -0.025676473034
  18    -0.006822672130
  19     0.000519972840
  20    -0.001174571234
  21     0.514014037717
  22    -0.144476852352
  23    -0.369537185365
  24    -0.205177883137
  25     0.015636839953
  26    -0.019921205282
  27     0.088232133598
  28     0.008697460715
  29    -0.001221656897
  30    -0.078541670524
  31    -0.018799438450
  32     0.001432728295
  33    -0.039834158591
  34     0.007130570416
  35     0.000206296425
  36     0.003426221194
  37    -0.009763428271
  38     0.100598687960
  39    -0.187789027167
  40    -1.982793824889
  41    -0.140868251868
  42    -0.062235555090
  43    -0.165479236547
  44     0.012611353731
  45     1.442663337771
  46     0.232242049828
  47    -0.017699378913
  48     1.331782896543
  49     1.606762938084
  50    -0.122452961648
  51    -0.035068430886
  52     0.001539777940
  53     0.033528652946
  54    -0.022703675994
  55     0.001730269153
  56     0.002831506695
  57    -0.443997793855
  58     0.074617762532
  59     0.369380031323
  60    -0.276133318717
  61     0.021044439328
  62     0.026090808077
  63     0.058724075142
  64    -0.022619643068
  65    -0.002790166933
  66    -0.070774322693
  67     0.014284035865
  68    -0.001088612977
  69    -0.008012291667
  70     0.016063399851
  71     0.004832014736
  72     0.005555398998
  73    -0.008457952088
  74    -0.173224186861
  75     0.171611051843
  76    -0.055571914809
  77    -0.024714077883
  78     0.001883475422
  79    -0.045740493861
  80    -0.185460265549
  81     0.764217098868
  82    -0.019065854922
  83     0.045408714572
  84    -0.003460688087
  85     0.689470403427
  86     0.251731236020
  87    -3.295396217000
  88    -0.054940698933
  89    -0.117900809477
  90     0.008985354396
  91    -0.042934991152
  92     0.214679056083
  93     0.500578919323
  94    -0.074369908878
  95    -0.004997594215
  96     0.000380890456
 Sym=     1a
 Ene= 7.58676552205786E-01
Spin= Alpha
 Occup= 0
  1     -0.009763311261
  2      0.100598259852
  3     -0.187787144888
  4     -1.982792227869
  5     -0.140868405521
  6      0.062232297838
  7     -0.165479720284
  8      0.012611464786
  9     -1.442657698296
  10     0.232272303327
  11    -0.017701791773
  12    -1.331752436988
  13     1.606787138020
  14    -0.122455449776
  15    -0.035067675179
  16     0.001539071819
  17     0.033528603360
  18     0.022704441240
  19    -0.001730346713
  20     0.002831586178
  21    -0.443988455278
  22     0.074608364036
  23     0.369380091242
  24     0.276143935225
  25    -0.021045349424
  26     0.026091750144
  27    -0.058723578236
  28    -0.022622329095
  29    -0.002790130461
  30     0.070773460369
  31     0.014287956235
  32    -0.001088919449
  33     0.008012487322
  34     0.016063083164
  35     0.004832272275
  36    -0.005555337343
  37    -0.006543625733
  38     0.036042520588
  39    -0.585207324277
  40     2.946190452208
  41     0.857035966498
  42     0.038223998571
  43    -0.005547348389
  44     0.000422762502
  45    -1.418612556707
  46    -0.177739488138
  47     0.013545769965
  48    -1.100449800694
  49    -0.636499472857
  50     0.048508383869
  51     0.038083545550
  52    -0.012407099395
  53    -0.025676446155
  54     0.006821532444
  55    -0.000519877844
  56    -0.001174537339
  57     0.514020156339
  58    -0.144483624271
  59    -0.369536532068
  60     0.205162900369
  61    -0.015635784744
  62    -0.019920551453
  63    -0.088232773491
  64     0.008694298796
  65    -0.001221523548
  66     0.078542453538
  67    -0.018794388923
  68     0.001432361739
  69     0.039834234084
  70     0.007129763049
  71     0.000206484074
  72    -0.003426255619
  73    -0.042934704457
  74     0.214681933788
  75     0.500578420881
  76     0.074370250878
  77    -0.004998585395
  78     0.000380955612
  79     0.689475497710
  80     0.251720486822
  81    -3.295388051454
  82     0.054938459312
  83    -0.117901452768
  84     0.008985469825
  85    -0.045740143775
  86    -0.185459559285
  87     0.764215423759
  88     0.019066616125
  89     0.045408304116
  90    -0.003460613191
  91    -0.008457759138
  92    -0.173224180228
  93     0.171609341642
  94     0.055571326952
  95    -0.024715094940
  96     0.001883520292
 Sym=     1a
 Ene= 7.58713075422229E-01
Spin= Alpha
 Occup= 0
  1     -0.006543497605
  2      0.036041435238
  3     -0.585189979721
  4      2.946101055478
  5      0.857010431066
  6     -0.038222485961
  7      0.005547101192
  8     -0.000422756222
  9      1.418569944584
  10     0.177741077503
  11    -0.013545747254
  12     1.100416913048
  13     0.636485963645
  14    -0.048507081344
  15     0.038082396698
  16    -0.012406711631
  17    -0.025675685067
  18     0.006821332832
  19    -0.000519858106
  20    -0.001174501327
  21     0.514003787424
  22    -0.144478760604
  23    -0.369525026820
  24     0.205157477283
  25    -0.015635130288
  26    -0.019919959158
  27     0.088230157599
  28    -0.008694007891
  29     0.001221530093
  30    -0.078540390019
  31     0.018793911475
  32    -0.001432278883
  33    -0.039832788015
  34    -0.007129675891
  35    -0.000206575712
  36     0.003426203026
  37    -0.009762841043
  38     0.100595797592
  39    -0.187786963121
  40    -1.982700856887
  41    -0.140856397315
  42    -0.062230081965
  43     0.165475800209
  44    -0.012610979126
  45     1.442623129442
  46    -0.232286194356
  47     0.017702670702
  48     1.331719340400
  49    -1.606753268580
  50     0.122451613026
  51    -0.035066555411
  52     0.001539056939
  53     0.033527498472
  54     0.022703772344
  55    -0.001730257859
  56     0.002831421568
  57    -0.443974529455
  58     0.074607110807
  59     0.369367418648
  60     0.276136198696
  61    -0.021044462524
  62     0.026090657660
  63     0.058722580057
  64     0.022622021493
  65     0.002790117782
  66    -0.070773080416
  67    -0.014287272420
  68     0.001088826882
  69    -0.008011528076
  70    -0.016063354288
  71    -0.004832162697
  72     0.005555284176
  73    -0.045739451615
  74    -0.185448629835
  75     0.764191731895
  76    -0.019065818861
  77    -0.045406752698
  78     0.003460491719
  79    -0.008457758404
  80    -0.173220757371
  81     0.171603854862
  82    -0.055569934543
  83     0.024714652998
  84    -0.001883569264
  85    -0.042933455882
  86     0.214677709554
  87     0.500565280902
  88    -0.074368412670
  89     0.004998581256
  90    -0.000380938280
  91     0.689513313164
  92     0.251630485921
  93    -3.295299453990
  94    -0.054935690635
  95     0.117896445016
  96    -0.008984918461
 Sym=     1a
 Ene= 7.58716813887204E-01
Spin= Alpha
 Occup= 0
  1     -0.009762826330
  2      0.100595659588
  3     -0.187788540527
  4     -1.982685276667
  5     -0.140852955362
  6      0.062232732351
  7      0.165474462967
  8     -0.012610952400
  9     -1.442621525935
  10    -0.232259859319
  11     0.017700762282
  12    -1.331741247649
  13    -1.606723846985
  14     0.122450013528
  15    -0.035067093141
  16     0.001539703817
  17     0.033527389324
  18    -0.022702851621
  19     0.001730206661
  20     0.002831376505
  21    -0.443980314291
  22     0.074615484831
  23     0.369364829460
  24    -0.276122722482
  25     0.021043532601
  26     0.026089790319
  27    -0.058722921584
  28     0.022619196926
  29     0.002790172097
  30     0.070773952708
  31    -0.014283248246
  32     0.001088527566
  33     0.008011113991
  34    -0.016063588908
  35    -0.004831936252
  36    -0.005555430647
  37    -0.006543553206
  38     0.036041419244
  39    -0.585187777247
  40     2.946084594925
  41     0.857005329306
  42     0.038222632404
  43     0.005546577825
  44    -0.000422716098
  45    -1.418559493677
  46     0.177766923863
  47    -0.013547837133
  48    -1.100402347148
  49     0.636503161277
  50    -0.048508348466
  51     0.038081946288
  52    -0.012406435180
  53    -0.025675511108
  54    -0.006822446123
  55     0.000519935165
  56    -0.001174497471
  57     0.513994753197
  58    -0.144471446444
  59    -0.369523306753
  60    -0.205171048677
  61     0.015636256992
  62    -0.019920460957
  63    -0.088228954206
  64    -0.008697119859
  65     0.001221660330
  66     0.078539102608
  67     0.018798835091
  68    -0.001432673534
  69     0.039832460905
  70    -0.007130424362
  71    -0.000206355792
  72    -0.003426089846
  73     0.689517052731
  74     0.251620022555
  75    -3.295289438349
  76     0.054937276029
  77     0.117894703680
  78    -0.008984853127
  79    -0.042933382288
  80     0.214676526658
  81     0.500563727564
  82     0.074368078367
  83     0.004997279983
  84    -0.000380828670
  85    -0.008457815011
  86    -0.173219153064
  87     0.171604525178
  88     0.055570055772
  89     0.024713468740
  90    -0.001883446277
  91    -0.045739422838
  92    -0.185447100735
  93     0.764189024081
  94     0.019064927374
  95    -0.045406801117
  96     0.003460450853
 Sym=     1a
 Ene= 1.03210805522345E+00
Spin= Alpha
 Occup= 0
  1     -0.000000206428
  2      0.000000368102
  3     -0.000002535825
  4     -0.000001734857
  5      0.000002610757
  6      0.000000392186
  7      0.886316936610
  8     -0.004031277715
  9     -0.000012212277
  10    -1.331354577018
  11     0.082829089384
  12    -0.000011543922
  13    -3.470619624804
  14     0.188995477795
  15    -0.000000391765
  16     0.000000353675
  17     0.000000038090
  18    -0.012422394714
  19     0.001196451159
  20    -0.000000056761
  21    -0.000002381310
  22     0.000002608925
  23    -0.000000227615
  24    -0.050285826205
  25     0.001305534945
  26     0.000000007220
  27     0.000000159724
  28    -0.001791502230
  29     0.001743761024
  30    -0.000000651751
  31     0.020754787415
  32     0.000287046318
  33     0.000000437459
  34    -0.018351234954
  35    -0.002626547230
  36     0.000000111585
  37     0.000000019177
  38    -0.000000327299
  39     0.000003421984
  40    -0.000010293768
  41    -0.000007173306
  42     0.000000275253
  43    -0.065395618469
  44     0.002631567225
  45     0.000005244916
  46     1.296356576526
  47    -0.081029454118
  48     0.000023305846
  49     2.017624761645
  50    -0.128365491685
  51     0.000000368878
  52    -0.000000307929
  53    -0.000000060949
  54     0.010566891418
  55    -0.000568729723
  56     0.000000025650
  57     0.000005260846
  58    -0.000004388033
  59    -0.000000872813
  60     0.104964613779
  61    -0.006851541762
  62     0.000000051451
  63    -0.000000855447
  64     0.037872026608
  65     0.007034484775
  66     0.000000766557
  67    -0.019121388514
  68    -0.001570808540
  69     0.000000381145
  70    -0.031689267050
  71    -0.007866943146
  72    -0.000000004440
  73     0.074496431787
  74    -1.155635009419
  75    -1.460121622430
  76     0.010102124099
  77     0.078587720519
  78    -0.006736207441
  79    -0.074497394543
  80     1.155637767303
  81     1.460134312242
  82    -0.010101773814
  83     0.078589268526
  84    -0.006736400189
  85    -0.024800786607
  86    -0.841835766523
  87    -0.595836233456
  88     0.035230356621
  89     0.040844595781
  90    -0.003687947497
  91     0.024801773268
  92     0.841840191261
  93     0.595830979665
  94    -0.035230491882
  95     0.040845727368
  96    -0.003688011702
 Sym=     1a
 Ene= 1.03210927002828E+00
Spin= Alpha
 Occup= 0
  1     -0.000000001894
  2      0.000000259199
  3     -0.000003301694
  4      0.000011385011
  5      0.000007770960
  6      0.000000403007
  7     -0.065395443544
  8      0.002631546245
  9      0.000006613670
  10     1.296356239998
  11    -0.081029441478
  12     0.000024335662
  13     2.017611335295
  14    -0.128364839036
  15    -0.000000365726
  16     0.000000321639
  17     0.000000044087
  18    -0.010566748365
  19     0.000568718646
  20    -0.000000016612
  21    -0.000005406277
  22     0.000004455573
  23     0.000000950704
  24    -0.104962105747
  25     0.006851684019
  26    -0.000000545125
  27    -0.000000846140
  28     0.037871598647
  29     0.007034484199
  30     0.000000753260
  31    -0.019120948744
  32    -0.001570795192
  33     0.000000381957
  34    -0.031689132651
  35    -0.007866955721
  36     0.000000023699
  37     0.000000243456
  38    -0.000000482152
  39     0.000003468817
  40    -0.000000056445
  41    -0.000003710032
  42     0.000000483730
  43     0.886318661641
  44    -0.004031255541
  45    -0.000010735615
  46    -1.331363898375
  47     0.082829005146
  48    -0.000009995870
  49    -3.470597964427
  50     0.188993247640
  51     0.000000367135
  52    -0.000000352557
  53    -0.000000014578
  54     0.012422140300
  55    -0.001196400185
  56     0.000000005746
  57     0.000002301162
  58    -0.000002579620
  59     0.000000278458
  60     0.050284505626
  61    -0.001305427848
  62     0.000000467201
  63     0.000000212245
  64    -0.001791525323
  65     0.001743661768
  66    -0.000000737111
  67     0.020754092319
  68     0.000287046834
  69     0.000000452354
  70    -0.018350508875
  71    -0.002626414579
  72     0.000000048694
  73     0.024800932019
  74     0.841833314986
  75     0.595831090653
  76     0.035230230485
  77     0.040844178714
  78    -0.003687911305
  79    -0.024801926228
  80    -0.841836886628
  81    -0.595825415394
  82    -0.035230420508
  83     0.040845506481
  84    -0.003688036422
  85    -0.074495065218
  86     1.155636519979
  87     1.460108834694
  88     0.010101462803
  89     0.078586500040
  90    -0.006736136421
  91     0.074497074430
  92    -1.155641373228
  93    -1.460120207571
  94    -0.010101302066
  95     0.078588001459
  96    -0.006736173634
 Sym=     1a
 Ene= 1.06940228226852E+00
Spin= Alpha
 Occup= 0
  1     -0.000726594531
  2     -0.001591320795
  3      0.620956994175
  4     -4.164851472355
  5     -1.195555768158
  6     -0.079876510206
  7      0.000000688696
  8     -0.000000049685
  9     -1.828708086730
  10     0.000017543000
  11    -0.000001233130
  12    -1.096805336418
  13     0.000010783655
  14    -0.000000816295
  15    -0.033652387667
  16     0.008017901053
  17     0.025634486614
  18     0.000000449436
  19    -0.000000037840
  20     0.001559335979
  21    -0.339575241166
  22     0.060032925688
  23     0.279542315478
  24     0.000004096861
  25    -0.000000332338
  26     0.019429901447
  27    -0.012364559314
  28    -0.000000411724
  29    -0.000000020653
  30     0.023695738723
  31     0.000000541265
  32    -0.000000045817
  33    -0.007106941641
  34     0.000000011121
  35     0.000000073526
  36    -0.002726511956
  37     0.022542559909
  38     0.418312773782
  39    -2.772917684809
  40     5.908042902801
  41     2.578840913533
  42     0.007603468843
  43    -0.000000093448
  44     0.000000005472
  45    -1.581993727653
  46     0.000016716114
  47    -0.000001586067
  48    -0.868107941057
  49     0.000009326088
  50    -0.000000891477
  51     0.037161252754
  52    -0.005530035929
  53    -0.031631216825
  54    -0.000000472767
  55     0.000000029455
  56    -0.002310337256
  57     0.543837461566
  58    -0.062614609469
  59    -0.481222852097
  60    -0.000006793110
  61     0.000000448828
  62    -0.037053005455
  63    -0.076725403229
  64    -0.000001526999
  65     0.000000076462
  66     0.079782015673
  67     0.000002349206
  68    -0.000000179778
  69     0.023155914659
  70    -0.000000300522
  71     0.000000077194
  72    -0.005012238699
  73     0.043905331513
  74     0.175500171390
  75    -0.251705157459
  76     0.046330783196
  77     0.024898394360
  78    -0.001897525926
  79     0.043904984703
  80     0.175499615700
  81    -0.251706212047
  82     0.046330339465
  83    -0.024899188305
  84     0.001897617816
  85     0.003716089501
  86    -1.005821905516
  87    -0.153057866400
  88     0.038010339817
  89     0.036685217684
  90    -0.002795822434
  91     0.003716326201
  92    -1.005819796605
  93    -0.153056885644
  94     0.038009459261
  95    -0.036685798697
  96     0.002795828094
 Sym=     1a
 Ene= 1.06940322469674E+00
Spin= Alpha
 Occup= 0
  1      0.022542879627
  2      0.418312650944
  3     -2.772922422976
  4      5.908068686680
  5      2.578813227637
  6     -0.007603736358
  7     -0.000000050513
  8      0.000000002300
  9      1.582002220387
  10    -0.000015508307
  11     0.000000878321
  12     0.868104003765
  13    -0.000008373086
  14     0.000000462144
  15     0.037161634160
  16    -0.005529873387
  17    -0.031631760773
  18    -0.000000484801
  19     0.000000043684
  20    -0.002310415458
  21     0.543839935243
  22    -0.062615420084
  23    -0.481224515159
  24    -0.000006742456
  25     0.000000585357
  26    -0.037053257122
  27     0.076726216142
  28     0.000001610134
  29    -0.000000014623
  30    -0.079782908675
  31    -0.000002401646
  32     0.000000182751
  33    -0.023156112295
  34     0.000000241424
  35    -0.000000163132
  36     0.005012337447
  37    -0.000726336494
  38    -0.001591563907
  39     0.620958149903
  40    -4.164865314801
  41    -1.195539384409
  42     0.079876540799
  43    -0.000000747158
  44     0.000000060071
  45     1.828718683922
  46    -0.000018210090
  47     0.000001496723
  48     1.096799482644
  49    -0.000011201224
  50     0.000000861167
  51    -0.033652846614
  52     0.008018213984
  53     0.025634632630
  54     0.000000445340
  55    -0.000000030497
  56     0.001559312123
  57    -0.339578148107
  58     0.060034804298
  59     0.279543343809
  60     0.000004174947
  61    -0.000000299512
  62     0.019429754798
  63     0.012364728761
  64     0.000000354140
  65    -0.000000022454
  66    -0.023695713389
  67    -0.000000499700
  68     0.000000033463
  69     0.007106688970
  70     0.000000024571
  71    -0.000000003338
  72     0.002726459729
  73     0.003716141093
  74    -1.005823924284
  75    -0.153052714134
  76    -0.038010685365
  77    -0.036685761658
  78     0.002795851916
  79     0.003716067209
  80    -1.005822944270
  81    -0.153052570806
  82    -0.038010039443
  83     0.036686565703
  84    -0.002795951529
  85     0.043904964970
  86     0.175499858807
  87    -0.251705504515
  88    -0.046330721134
  89    -0.024898225538
  90     0.001897523342
  91     0.043905089737
  92     0.175497442644
  93    -0.251705533973
  94    -0.046330077028
  95     0.024898887955
  96    -0.001897542270
 Sym=     1a
 Ene= 1.34088107340308E+00
Spin= Alpha
 Occup= 0
  1     -0.002491864994
  2      0.005481307090
  3     -0.064265730776
  4      0.211715479709
  5      0.076444318927
  6     -0.005419501618
  7      0.000000007891
  8     -0.000000351764
  9      0.079498470823
  10     0.000000886331
  11    -0.000010201968
  12     0.056635686183
  13    -0.000000011502
  14    -0.000004109040
  15     0.003272428127
  16     0.000075595980
  17    -0.003348024107
  18     0.000000058753
  19    -0.000001071326
  20    -0.017523579387
  21     0.032446787508
  22     0.018188915117
  23    -0.050635702625
  24     0.000000955091
  25    -0.000010300129
  26    -0.149060170459
  27     0.009612610085
  28    -0.000000032632
  29     0.000002106416
  30    -0.008110251776
  31     0.000000139187
  32    -0.000005046227
  33    -0.004786417979
  34    -0.000000095407
  35     0.000002220173
  36    -0.068353478134
  37     0.006011010329
  38    -0.000051635128
  39     0.109036728958
  40    -0.600842576009
  41    -0.135650268446
  42     0.001509916773
  43     0.000000123738
  44    -0.000000436511
  45    -0.101281540267
  46     0.000000494070
  47     0.000008977381
  48    -0.014391854964
  49    -0.000000049825
  50     0.000003713604
  51     0.000221140077
  52    -0.015582150726
  53     0.015361010649
  54     0.000000041817
  55    -0.000000852195
  56     0.541815089407
  57     0.007943403631
  58    -0.116839784908
  59     0.108896381277
  60     0.000000395128
  61    -0.000006775875
  62     0.763131462060
  63     0.025252785882
  64     0.000000955266
  65    -0.000001403709
  66    -0.043588256293
  67    -0.000001134096
  68     0.000002986459
  69     0.009708088781
  70    -0.000000147528
  71    -0.000001103186
  72     0.018527368771
  73    -0.005234586550
  74    -0.044718703677
  75     0.016722098173
  76    -0.007404803355
  77    -0.003900329780
  78    -0.001177524237
  79    -0.005234380040
  80    -0.044719580774
  81     0.016721788117
  82    -0.007404834740
  83     0.003900338170
  84     0.001177173839
  85     0.036502690166
  86     0.318775677411
  87    -0.003933669641
  88    -0.050724721181
  89    -0.062584908704
  90    -0.105066757446
  91     0.036503287808
  92     0.318777459600
  93    -0.003933813555
  94    -0.050723644706
  95     0.062586416403
  96     0.105067325076
 Sym=     1a
 Ene= 1.34088230985465E+00
Spin= Alpha
 Occup= 0
  1      0.006011044973
  2     -0.000051598950
  3      0.109037277701
  4     -0.600846690665
  5     -0.135651107383
  6     -0.001509902532
  7      0.000000074147
  8      0.000000406272
  9      0.101282176807
  10    -0.000004947773
  11    -0.000008278901
  12     0.014391830356
  13    -0.000001376055
  14    -0.000003436755
  15     0.000221153520
  16    -0.015582279441
  17     0.015361125921
  18     0.000000218753
  19    -0.000000881603
  20     0.541815713718
  21     0.007943574043
  22    -0.116840647984
  23     0.108897073941
  24     0.000001686968
  25    -0.000006982649
  26     0.763131301530
  27    -0.025252973756
  28    -0.000001099383
  29     0.000001260773
  30     0.043588568189
  31     0.000001059091
  32    -0.000002997914
  33    -0.009708148617
  34     0.000000415886
  35     0.000001306409
  36    -0.018527509428
  37    -0.002491885251
  38     0.005481346108
  39    -0.064266163470
  40     0.211716834614
  41     0.076444722577
  42     0.005419518978
  43    -0.000000261917
  44     0.000000405341
  45    -0.079498991301
  46     0.000000529895
  47     0.000009953030
  48    -0.056636196899
  49     0.000000709148
  50     0.000003986451
  51     0.003272457263
  52     0.000075587574
  53    -0.003348044837
  54     0.000000059440
  55    -0.000001071128
  56    -0.017523558016
  57     0.032447078999
  58     0.018188893617
  59    -0.050635972616
  60     0.000000850559
  61    -0.000010297471
  62    -0.149060060038
  63    -0.009612675669
  64     0.000000041976
  65    -0.000002062403
  66     0.008110307728
  67    -0.000000093711
  68     0.000005033165
  69     0.004786450018
  70     0.000000037394
  71    -0.000002266161
  72     0.068353478145
  73     0.036502680250
  74     0.318773963439
  75    -0.003933626125
  76     0.050724604467
  77     0.062584668699
  78     0.105066728395
  79     0.036503887244
  80     0.318783511306
  81    -0.003934026841
  82     0.050724498034
  83    -0.062587646675
  84    -0.105067610695
  85    -0.005234614524
  86    -0.044719655814
  87     0.016722375294
  88     0.007404900396
  89     0.003900408457
  90     0.001177533233
  91    -0.005234341163
  92    -0.044719000782
  93     0.016721831242
  94     0.007404759361
  95    -0.003900323619
  96    -0.001177061433
 Sym=     1a
 Ene= 1.38535959235782E+00
Spin= Alpha
 Occup= 0
  1      0.000000066645
  2     -0.000000184596
  3     -0.000000838706
  4      0.000015734921
  5      0.000001699793
  6      0.000000080364
  7      0.002804236858
  8     -0.031485483535
  9      0.000011476967
  10    -0.077275183608
  11    -0.707196511372
  12    -0.000001887852
  13    -0.417999278461
  14     0.589159994399
  15     0.000000375250
  16    -0.000000163327
  17    -0.000000211923
  18     0.002038924689
  19    -0.055146003075
  20     0.000000517107
  21     0.000005579473
  22    -0.000002876651
  23    -0.000002702822
  24     0.039983754568
  25    -0.650054912499
  26     0.000006305583
  27     0.000000743967
  28    -0.001009480783
  29     0.152628756941
  30    -0.000000131263
  31    -0.005900350821
  32    -0.295801333632
  33    -0.000000866874
  34     0.007254711412
  35     0.091028368127
  36     0.000004118383
  37    -0.000000050570
  38     0.000000151930
  39     0.000001235562
  40    -0.000016761609
  41    -0.000002346350
  42    -0.000000149107
  43    -0.011190674355
  44    -0.993403776191
  45     0.000009486065
  46    -0.199096521930
  47     2.545857970876
  48     0.000006467819
  49     0.586919465166
  50    -1.645361139195
  51    -0.000000422687
  52     0.000000328673
  53     0.000000094014
  54    -0.013425060090
  55    -0.057051682032
  56     0.000000567322
  57    -0.000004702849
  58     0.000003494232
  59     0.000001208617
  60    -0.090246285577
  61    -0.397387122737
  62     0.000003868186
  63    -0.000000014299
  64    -0.004056657774
  65    -0.196079679178
  66    -0.000000180293
  67    -0.005762791819
  68     0.277283342258
  69     0.000000199477
  70     0.011205369345
  71    -0.014214847269
  72    -0.000003225686
  73     0.002042432391
  74    -0.107534641750
  75    -0.189149270013
  76    -0.003163843463
  77    -0.016869276848
  78    -0.034931532827
  79    -0.002042187362
  80     0.107535272830
  81     0.189149864988
  82     0.003163661494
  83    -0.016869485532
  84    -0.034931696341
  85     0.029813563697
  86     0.146662075103
  87    -0.446559918036
  88    -0.023223400397
  89    -0.053933899295
  90    -0.093759326474
  91    -0.029813857274
  92    -0.146662244399
  93     0.446560039460
  94     0.023222493758
  95    -0.053934299692
  96    -0.093759042983
 Sym=     1a
 Ene= 1.38536166856795E+00
Spin= Alpha
 Occup= 0
  1      0.000000067167
  2     -0.000000005968
  3     -0.000000951933
  4      0.000010100339
  5      0.000001879749
  6     -0.000000167587
  7     -0.011190734382
  8     -0.993405448307
  9      0.000008022743
  10    -0.199097993415
  11     2.545858615981
  12     0.000004114209
  13     0.586921900194
  14    -1.645359612744
  15     0.000000375299
  16    -0.000000414472
  17     0.000000039173
  18     0.013425170983
  19     0.057051699286
  20    -0.000000516497
  21     0.000004042095
  22    -0.000003843406
  23    -0.000000198689
  24     0.090247016817
  25     0.397386816582
  26    -0.000003687536
  27    -0.000000310315
  28    -0.004056712865
  29    -0.196079700568
  30     0.000000229955
  31    -0.005762776899
  32     0.277283196115
  33     0.000000186376
  34     0.011205428338
  35    -0.014214672429
  36    -0.000003288821
  37    -0.000000083447
  38     0.000000246032
  39    -0.000000204439
  40    -0.000010320041
  41    -0.000000357463
  42     0.000000133927
  43     0.002804236371
  44    -0.031485432795
  45     0.000009075067
  46    -0.077274789126
  47    -0.707196891123
  48    -0.000004247285
  49    -0.417999985096
  50     0.589159465110
  51    -0.000000300183
  52     0.000000145317
  53     0.000000154866
  54    -0.002038914628
  55     0.055145962506
  56    -0.000000534697
  57    -0.000004449167
  58     0.000002578655
  59     0.000001870512
  60    -0.039983210706
  61     0.650054608987
  62    -0.000006279154
  63     0.000000503999
  64    -0.001009499351
  65     0.152628700474
  66     0.000000084066
  67    -0.005900304543
  68    -0.295801193448
  69    -0.000000760252
  70     0.007254690047
  71     0.091028303702
  72     0.000004106503
  73    -0.029813628021
  74    -0.146661360166
  75     0.446560114651
  76    -0.023223108754
  77    -0.053933708069
  78    -0.093759427624
  79     0.029814155651
  80     0.146665705693
  81    -0.446564523116
  82     0.023223057802
  83    -0.053935249303
  84    -0.093759078200
  85    -0.002042532196
  86     0.107533594022
  87     0.189150822385
  88    -0.003163730730
  89    -0.016869109564
  90    -0.034931526300
  91     0.002042209851
  92    -0.107535184719
  93    -0.189149002323
  94     0.003163872730
  95    -0.016869371049
  96    -0.034931752775
 Sym=     1a
 Ene= 1.65661281659468E+00
Spin= Alpha
 Occup= 0
  1     -0.000000924463
  2      0.000002682615
  3      0.000004779122
  4     -0.000170640479
  5     -0.000012610096
  6     -0.000001395399
  7     -0.068067496234
  8      0.002804213778
  9     -0.000133285954
  10     0.300877382276
  11    -0.077275164524
  12     0.000041639008
  13     6.042074393272
  14    -0.418000253492
  15    -0.000004401893
  16     0.000002930182
  17     0.000001471711
  18    -0.081744280894
  19     0.002038885532
  20    -0.000000026094
  21    -0.000065840827
  22     0.000046115190
  23     0.000019725637
  24    -1.171649321494
  25     0.039983853915
  26    -0.000002544834
  27    -0.000008166241
  28     0.212964181561
  29     0.023453294048
  30     0.000007452385
  31    -0.218829969045
  32    -0.005900341639
  33     0.000003503778
  34    -0.066891463001
  35    -0.025565554233
  36     0.000000041483
  37     0.000000752250
  38    -0.000001139216
  39    -0.000013790347
  40     0.000175429526
  41     0.000026430059
  42     0.000001994791
  43    -0.847418211030
  44    -0.011190688629
  45    -0.000113965065
  46     5.143131185050
  47    -0.199096613238
  48    -0.000067178108
  49    -9.301892586209
  50     0.586919413039
  51     0.000005118193
  52    -0.000003815021
  53    -0.000001303172
  54     0.118082351790
  55    -0.013425025879
  56     0.000000038990
  57     0.000056412496
  58    -0.000040036998
  59    -0.000016375498
  60     0.779904565107
  61    -0.090246471755
  62     0.000002420601
  63     0.000002121768
  64     0.013001356422
  65     0.048997279878
  66    -0.000005994577
  67     0.352460517442
  68    -0.005762809789
  69     0.000003147926
  70    -0.369903667498
  71    -0.059973939323
  72     0.000000225093
  73    -0.026800277424
  74     1.411007286283
  75     2.481927463347
  76     0.041513634088
  77     0.185131486025
  78    -0.016869174955
  79     0.026796670998
  80    -1.411020370311
  81    -2.481918863069
  82    -0.041512993689
  83     0.185134559167
  84    -0.016869560910
  85    -0.391197535160
  86    -1.924417921695
  87     5.859523346395
  88     0.304723388773
  89     0.609821385944
  90    -0.053933942316
  91     0.391204010740
  92     1.924444081244
  93    -5.859551909343
  94    -0.304716917216
  95     0.609833678201
  96    -0.053934317771
 Sym=     1a
 Ene= 1.65661465762424E+00
Spin= Alpha
 Occup= 0
  1     -0.000000791218
  2      0.000000919756
  3      0.000014815418
  4     -0.000175781538
  5     -0.000028853836
  6      0.000002157008
  7     -0.847419763347
  8     -0.011190720108
  9     -0.000115088308
  10     5.143135566350
  11    -0.199097902105
  12    -0.000071442155
  13    -9.301891562258
  14     0.586921952322
  15    -0.000005336407
  16     0.000003972583
  17     0.000001363824
  18    -0.118082457096
  19     0.013425205194
  20    -0.000000498867
  21    -0.000058106872
  22     0.000042309674
  23     0.000015797198
  24    -0.779903182480
  25     0.090246830639
  26    -0.000002636139
  27     0.000002159596
  28     0.013001616936
  29     0.048997526121
  30    -0.000005895666
  31     0.352460037814
  32    -0.005762758929
  33     0.000002998264
  34    -0.369903537386
  35    -0.059974320552
  36     0.000000872109
  37     0.000001041888
  38    -0.000002960776
  39    -0.000003423459
  40     0.000170003412
  41     0.000014142311
  42    -0.000001413520
  43    -0.068067400041
  44     0.002804259451
  45    -0.000135634523
  46     0.300873474791
  47    -0.077274808212
  48     0.000039054657
  49     6.042071100392
  50    -0.417999010066
  51     0.000004437344
  52    -0.000002920246
  53    -0.000001517098
  54     0.081744150434
  55    -0.002038953785
  56     0.000000148730
  57     0.000065431630
  58    -0.000046769815
  59    -0.000018661815
  60     1.171649888996
  61    -0.039983111359
  62     0.000001316599
  63    -0.000008146461
  64     0.212964161984
  65     0.023453098634
  66     0.000007454706
  67    -0.218829964912
  68    -0.005900313725
  69     0.000003474918
  70    -0.066891440869
  71    -0.025565319973
  72    -0.000000109263
  73     0.391198801056
  74     1.924416331322
  75    -5.859523305156
  76     0.304723015812
  77     0.609820596246
  78    -0.053933664965
  79    -0.391203114763
  80    -1.924449587679
  81     5.859554385814
  82    -0.304716966065
  83     0.609834317134
  84    -0.053935231307
  85     0.026800454153
  86    -1.411003806316
  87    -2.481925498386
  88     0.041513430116
  89     0.185131391958
  90    -0.016869209726
  91    -0.026796624410
  92     1.411020034385
  93     2.481917912668
  94    -0.041513553930
  95     0.185134094804
  96    -0.016869297402
 Sym=     1a
 Ene= 1.72336849002927E+00
Spin= Alpha
 Occup= 0
  1     -0.000000093584
  2      0.000000265037
  3      0.000000241115
  4     -0.000012743367
  5     -0.000002358345
  6     -0.000000731915
  7     -0.004416070852
  8      0.040687146835
  9     -0.000007805130
  10     0.001980619605
  11     1.061678880188
  12    -0.000002525665
  13     0.012279201597
  14     0.427987984471
  15    -0.000000392543
  16     0.000000112374
  17     0.000000280169
  18    -0.000778978029
  19     0.095772270110
  20    -0.000001072053
  21    -0.000003766720
  22     0.000001323656
  23     0.000002443064
  24    -0.012569126541
  25     0.933780844750
  26    -0.000010262440
  27    -0.000001096033
  28     0.000408223164
  29    -0.221455880857
  30     0.000000396019
  31     0.000424274537
  32     0.413472655817
  33     0.000001074464
  34    -0.000971963385
  35    -0.116358413649
  36    -0.000006481350
  37     0.000000043076
  38    -0.000000003350
  39    -0.000001054341
  40     0.000009333621
  41     0.000002215036
  42    -0.000000102285
  43    -0.000711015273
  44     0.044075470819
  45    -0.000009909134
  46    -0.174069464494
  47    -0.904672281647
  48    -0.000003589460
  49    -0.060119659318
  50    -0.374010099397
  51     0.000000013142
  52    -0.000000069556
  53     0.000000056414
  54    -0.013338026848
  55     0.630918989477
  56    -0.000000852802
  57     0.000000598875
  58    -0.000000726175
  59     0.000000127300
  60    -0.102385403953
  61     1.469076501815
  62    -0.000006752839
  63     0.000000005367
  64    -0.002335999737
  65     0.136257858546
  66     0.000000085881
  67    -0.010153102823
  68    -0.287408363197
  69    -0.000000093082
  70     0.013287175347
  71     0.104599262691
  72     0.000004405875
  73     0.005578067612
  74     0.000834463527
  75    -0.012001112856
  76    -0.000070146746
  77     0.004660649638
  78     0.016903127436
  79    -0.005577940075
  80    -0.000833883166
  81     0.011999956625
  82     0.000070321622
  83     0.004660448331
  84     0.016903190306
  85     0.026931751607
  86     0.182905209840
  87    -0.005395665843
  88    -0.013625926378
  89    -0.045280131116
  90    -0.067436415774
  91    -0.026931183458
  92    -0.182901131949
  93     0.005397004347
  94     0.013624563932
  95    -0.045279413991
  96    -0.067434428588
 Sym=     1a
 Ene= 1.72336946805976E+00
Spin= Alpha
 Occup= 0
  1      0.000000018141
  2     -0.000000024020
  3     -0.000001530744
  4      0.000012518017
  5      0.000002968577
  6      0.000000093699
  7      0.000711010643
  8     -0.044075453080
  9      0.000009837516
  10     0.174070906989
  11     0.904671612321
  12     0.000003836545
  13     0.060120003480
  14     0.374009700064
  15     0.000000024592
  16    -0.000000010102
  17    -0.000000014490
  18    -0.013338102214
  19     0.630919605675
  20    -0.000000881177
  21     0.000000712242
  22    -0.000000295908
  23    -0.000000416334
  24    -0.102385884777
  25     1.469075443857
  26    -0.000006998830
  27     0.000000157185
  28     0.002336008303
  29    -0.136257712988
  30    -0.000000347673
  31     0.010153166959
  32     0.287408180040
  33     0.000000136787
  34    -0.013287250975
  35    -0.104599274820
  36    -0.000004369725
  37    -0.000000092963
  38     0.000000273383
  39     0.000000382662
  40    -0.000013903723
  41    -0.000002698771
  42     0.000000714819
  43     0.004416166134
  44    -0.040687226734
  45     0.000008585932
  46    -0.001981226502
  47    -1.061678059173
  48     0.000003139468
  49    -0.012279455570
  50    -0.427987744064
  51    -0.000000428965
  52     0.000000135158
  53     0.000000293807
  54    -0.000778984185
  55     0.095772150719
  56    -0.000001073808
  57    -0.000004056322
  58     0.000001386720
  59     0.000002669602
  60    -0.012569158109
  61     0.933780344313
  62    -0.000010205940
  63     0.000001170485
  64    -0.000408231133
  65     0.221455840481
  66    -0.000000470543
  67    -0.000424288606
  68    -0.413472570854
  69    -0.000001099827
  70     0.000971988144
  71     0.116358382857
  72     0.000006476208
  73     0.026931727485
  74     0.182905045287
  75    -0.005395584560
  76     0.013625859243
  77     0.045279975524
  78     0.067436408380
  79    -0.026931543361
  80    -0.182903723945
  81     0.005397253837
  82    -0.013624763712
  83     0.045280186236
  84     0.067434405999
  85     0.005578081857
  86     0.000834908063
  87    -0.012001433569
  88     0.000070098223
  89    -0.004660709060
  90    -0.016903120888
  91    -0.005577869738
  92    -0.000834359886
  93     0.011999663147
  94    -0.000070290939
  95    -0.004660394590
  96    -0.016903211499
 Sym=     1a
 Ene= 1.81954787999131E+00
Spin= Alpha
 Occup= 0
  1      0.017489916921
  2     -0.063284801856
  3     -0.630714733518
  4      6.957916461923
  5      1.603142746673
  6      0.223651689135
  7     -0.000002217778
  8      0.000000225918
  9      3.577138521223
  10    -0.000033193050
  11     0.000003697120
  12     1.473073773294
  13    -0.000013820338
  14     0.000001606888
  15     0.135507220776
  16    -0.035550625608
  17    -0.099956595168
  18    -0.000001904730
  19     0.000000294330
  20    -0.003414491322
  21     1.248887679206
  22    -0.245423734567
  23    -1.003463944639
  24    -0.000016167733
  25     0.000002649809
  26    -0.048115715840
  27     0.256678016035
  28     0.000003317788
  29    -0.000000543996
  30    -0.162100282372
  31    -0.000006268089
  32     0.000001148000
  33    -0.182269412938
  34     0.000001816809
  35    -0.000000418153
  36     0.007329280534
  37     0.032092676070
  38     0.007436571357
  39     1.319500600091
  40    -8.864660028576
  41    -2.040240380788
  42     0.028768850813
  43    -0.000000392723
  44     0.000000100391
  45     2.867851966263
  46    -0.000031182641
  47     0.000001798375
  48     1.295880462322
  49    -0.000014042715
  50     0.000000703414
  51    -0.401654201741
  52    -0.289732820471
  53     0.691387022212
  54     0.000001268193
  55     0.000000055633
  56     0.015269280313
  57    -1.559348708516
  58    -0.412474835838
  59     1.971823544354
  60     0.000012975150
  61     0.000000156918
  62     0.112375879018
  63     0.324695024037
  64     0.000007340821
  65    -0.000000077593
  66    -0.387023426130
  67    -0.000010668056
  68     0.000000438524
  69    -0.048600661292
  70     0.000000819311
  71    -0.000000334422
  72     0.028121818868
  73    -0.071014144461
  74    -0.457993635423
  75     0.411627830832
  76    -0.085244948850
  77    -0.072749094545
  78     0.005740081391
  79    -0.071013685223
  80    -0.457994520153
  81     0.411629419842
  82    -0.085243717441
  83     0.072750649031
  84    -0.005740246250
  85     0.195776743117
  86     1.826476073028
  87    -0.333396989272
  88    -0.262121608666
  89    -0.347811137253
  90     0.041090350449
  91     0.195777149986
  92     1.826470125351
  93    -0.333396973837
  94    -0.262114764418
  95     0.347814584815
  96    -0.041090284737
 Sym=     1a
 Ene= 1.81954897297166E+00
Spin= Alpha
 Occup= 0
  1      0.032092670076
  2      0.007436708573
  3      1.319499551461
  4     -8.864658826073
  5     -2.040239177556
  6     -0.028768717996
  7      0.000000341403
  8     -0.000000067572
  9     -2.867850498427
  10     0.000029668330
  11    -0.000000504447
  12    -1.295879607390
  13     0.000012973973
  14    -0.000000396115
  15    -0.401654423507
  16    -0.289733284841
  17     0.691387708348
  18     0.000001212611
  19    -0.000000017150
  20     0.015269396858
  21    -1.559346827386
  22    -0.412475712320
  23     1.971822539706
  24     0.000012776747
  25    -0.000000315426
  26     0.112376518442
  27    -0.324694977012
  28    -0.000007718611
  29    -0.000000191800
  30     0.387023460607
  31     0.000011073380
  32    -0.000000446327
  33     0.048600563724
  34    -0.000000717776
  35     0.000000703654
  36    -0.028122002540
  37     0.017489878573
  38    -0.063284742762
  39    -0.630714654288
  40     6.957912413831
  41     1.603142042135
  42    -0.223651702861
  43     0.000002308693
  44    -0.000000218198
  45    -3.577137197230
  46     0.000034399164
  47    -0.000004142859
  48    -1.473073739437
  49     0.000014596291
  50    -0.000001645882
  51     0.135507099184
  52    -0.035550628136
  53    -0.099956471048
  54    -0.000001870726
  55     0.000000277791
  56    -0.003414458766
  57     1.248887728811
  58    -0.245424323832
  59    -1.003463404979
  60    -0.000016053896
  61     0.000002533246
  62    -0.048115540608
  63    -0.256677937086
  64    -0.000003151466
  65     0.000000643723
  66     0.162100146482
  67     0.000006125349
  68    -0.000001136391
  69     0.182269442907
  70    -0.000001897215
  71     0.000000272746
  72    -0.007329208023
  73     0.195777661691
  74     1.826474782570
  75    -0.333396142029
  76     0.262121577821
  77     0.347810930546
  78    -0.041090182857
  79     0.195776903860
  80     1.826472311749
  81    -0.333397479306
  82     0.262115125888
  83    -0.347815440036
  84     0.041091089874
  85    -0.071013649996
  86    -0.457994390595
  87     0.411628502047
  88     0.085244929668
  89     0.072749181541
  90    -0.005740105478
  91    -0.071013765828
  92    -0.457992216520
  93     0.411628643602
  94     0.085243331459
  95    -0.072750241519
  96     0.005740028910
 Sym=     1a
 Ene= 2.02291359455614E+00
Spin= Alpha
 Occup= 0
  1     -0.016951909669
  2      0.089056335220
  3      0.038727744912
  4     -3.628170155164
  5     -0.504111834607
  6      0.079207628575
  7      0.137440291912
  8     -0.010474441621
  9     -1.372923775504
  10     0.546115228493
  11    -0.041619904514
  12    -1.388903708277
  13    -1.440526532893
  14     0.109783991747
  15    -0.044850157553
  16     0.001420713757
  17     0.043429443796
  18    -0.027025561239
  19     0.002059644989
  20     0.003718384103
  21    -0.576319170929
  22     0.067772195067
  23     0.508546975862
  24    -0.333322138752
  25     0.025402750352
  26     0.039015203424
  27    -0.043689366123
  28     0.010528473007
  29    -0.001431286694
  30     0.020688468011
  31    -0.022481218914
  32     0.001713300336
  33     0.037926967516
  34     0.008355790108
  35     0.000206972269
  36     0.001525879107
  37    -0.003843609283
  38     0.039122030113
  39    -0.675056442069
  40     3.589841915852
  41     1.034986999761
  42     0.052407224761
  43     0.006494490389
  44    -0.000494958444
  45    -1.669472935448
  46     0.003205649581
  47    -0.000244411388
  48    -1.292222507275
  49     0.623258592318
  50    -0.047498950239
  51     0.046089861874
  52    -0.014564114131
  53    -0.031525747743
  54    -0.005730095243
  55     0.000436683381
  56    -0.001501339189
  57     0.645044990383
  58    -0.179505055347
  59    -0.465539935036
  60    -0.214685924079
  61     0.016361381316
  62    -0.025318339403
  63    -0.107678329448
  64    -0.008120843734
  65     0.001033267205
  66     0.087490085668
  67     0.016930043253
  68    -0.001290249758
  69     0.056975552943
  70    -0.006034788078
  71    -0.000096023667
  72    -0.002700958324
  73    -1.372263282411
  74     3.329460634276
  75    -3.417851747327
  76     0.114641671646
  77     0.204760216830
  78    -0.015604949771
  79    -0.045080922161
  80     0.144053039483
  81     0.558549222566
  82     0.074383401202
  83     0.002758483546
  84    -0.000210207086
  85     0.008331938317
  86    -0.233871557850
  87     0.224736830325
  88     0.065012859894
  89     0.025890222415
  90    -0.001973130559
  91    -0.041615818024
  92    -0.389225358522
  93     0.922060722692
  94     0.031528676606
  95    -0.061327620333
  96     0.004673780720
 Sym=     1a
 Ene= 2.02291710692585E+00
Spin= Alpha
 Occup= 0
  1     -0.003843555993
  2      0.039121889477
  3     -0.675055612010
  4      3.589840805973
  5      1.034987319838
  6     -0.052407054514
  7      0.006495352235
  8     -0.000495033015
  9      1.669472346561
  10     0.003173911870
  11    -0.000241881145
  12     1.292230393619
  13     0.623234274201
  14    -0.047497172953
  15     0.046090061183
  16    -0.014564268024
  17    -0.031525793159
  18     0.005728740180
  19    -0.000436592703
  20    -0.001501346503
  21     0.645051234581
  22    -0.179511565486
  23    -0.465539669095
  24     0.214667603829
  25    -0.016359917804
  26    -0.025317746758
  27     0.107678997543
  28    -0.008117427265
  29     0.001033061386
  30    -0.087490878685
  31     0.016924325916
  32    -0.001289791771
  33    -0.056975656268
  34    -0.006033654416
  35    -0.000096205519
  36     0.002701063495
  37    -0.016951843598
  38     0.089056006964
  39     0.038729552192
  40    -3.628169714567
  41    -0.504113479679
  42    -0.079204980557
  43     0.137441207986
  44    -0.010474443745
  45     1.372931402145
  46     0.546087869767
  47    -0.041617564744
  48     1.388877407554
  49    -1.440549575998
  50     0.109785189777
  51    -0.044849278317
  52     0.001419948264
  53     0.043429330053
  54     0.027026557010
  55    -0.002059697904
  56     0.003718413141
  57    -0.576309104325
  58     0.067761916060
  59     0.508547188265
  60     0.333336771925
  61    -0.025403742485
  62     0.039015965925
  63     0.043688486987
  64     0.010529336987
  65    -0.001431414443
  66    -0.020687417710
  67    -0.022483184570
  68     0.001713438605
  69    -0.037926838332
  70     0.008356596613
  71     0.000207005394
  72    -0.001525950417
  73    -0.041615657265
  74    -0.389225773624
  75     0.922058849709
  76    -0.031529783094
  77    -0.061327095990
  78     0.004673794862
  79     0.008331965582
  80    -0.233871623878
  81     0.224735044137
  82    -0.065012418911
  83     0.025891496933
  84    -0.001973264218
  85    -0.045080773998
  86     0.144053532757
  87     0.558548151263
  88    -0.074383410476
  89     0.002759715261
  90    -0.000210315868
  91    -1.372265098720
  92     3.329459510242
  93    -3.417843713911
  94    -0.114637922166
  95     0.204761867473
  96    -0.015604963669
 Sym=     1a
 Ene= 2.02295409459082E+00
Spin= Alpha
 Occup= 0
  1     -0.016951574938
  2      0.089053275092
  3      0.038732839533
  4     -3.628102612888
  5     -0.504106988112
  6      0.079203535932
  7     -0.137436999812
  8      0.010474293358
  9     -1.372887784841
  10    -0.546092995756
  11     0.041618601770
  12    -1.388834094757
  13     1.440496310547
  14    -0.109782141155
  15    -0.044848144337
  16     0.001419872330
  17     0.043428272007
  18     0.027025833921
  19    -0.002059687940
  20     0.003718417432
  21    -0.576294091690
  22     0.067758945998
  23     0.508535145692
  24     0.333327313157
  25    -0.025403383182
  26     0.039015416553
  27    -0.043686569093
  28    -0.010528630347
  29     0.001431504637
  30     0.020685244922
  31     0.022482677567
  32    -0.001713454041
  33     0.037926437995
  34    -0.008357037668
  35    -0.000207110966
  36     0.001526099943
  37    -0.003843391199
  38     0.039120874901
  39    -0.675037543508
  40     3.589746464223
  41     1.034959512365
  42     0.052405986640
  43    -0.006495280535
  44     0.000494995718
  45    -1.669428392975
  46    -0.003167096612
  47     0.000241367670
  48    -1.292195929519
  49    -0.623211420065
  50     0.047495672501
  51     0.046088840432
  52    -0.014563907802
  53    -0.031524932630
  54     0.005728601617
  55    -0.000436582344
  56    -0.001501307071
  57     0.645034905990
  58    -0.179507441485
  59    -0.465527464505
  60     0.214661220692
  61    -0.016359649113
  62    -0.025317071096
  63    -0.107676032769
  64     0.008117246186
  65    -0.001032994346
  66     0.087488214475
  67    -0.016923773291
  68     0.001289804304
  69     0.056974342816
  70     0.006033344734
  71     0.000096103042
  72    -0.002700924677
  73    -0.045079544611
  74     0.144047494513
  75     0.558530960360
  76     0.074381091034
  77    -0.002759518092
  78     0.000210310370
  79    -1.372284330079
  80     3.329451215630
  81    -3.417745354841
  82     0.114636020419
  83    -0.204757977131
  84     0.015604944112
  85    -0.041613885541
  86    -0.389220329864
  87     0.922034762073
  88     0.031529134312
  89     0.061325636933
  90    -0.004673690609
  91     0.008331881904
  92    -0.233862954161
  93     0.224729504088
  94     0.065010336120
  95    -0.025890445408
  96     0.001973088398
 Sym=     1a
 Ene= 2.02295945055059E+00
Spin= Alpha
 Occup= 0
  1     -0.003843392628
  2      0.039120750908
  3     -0.675033709793
  4      3.589723559001
  5      1.034952459554
  6     -0.052405836581
  7     -0.006494389705
  8      0.000494936947
  9      1.669416934422
  10    -0.003197983217
  11     0.000243621394
  12     1.292177943148
  13    -0.623229802928
  14     0.047497153248
  15     0.046088338568
  16    -0.014563625956
  17    -0.031524712612
  18    -0.005729908808
  19     0.000436694948
  20    -0.001501328894
  21     0.645023685117
  22    -0.179499164966
  23    -0.465524520151
  24    -0.214678232945
  25     0.016360885031
  26    -0.025317553271
  27     0.107674618396
  28     0.008120630039
  29    -0.001033169701
  30    -0.087486818404
  31    -0.016929417729
  32     0.001290213651
  33    -0.056973841307
  34     0.006034449257
  35     0.000095928959
  36     0.002700889413
  37    -0.016951595602
  38     0.089052992872
  39     0.038731305505
  40    -3.628080924487
  41    -0.504104326989
  42    -0.079205863661
  43    -0.137435157734
  44     0.010474086027
  45     1.372868419782
  46    -0.546120546441
  47     0.041620460919
  48     1.388850615161
  49     1.440458135067
  50    -0.109778670144
  51    -0.044848696913
  52     0.001420679722
  53     0.043428017191
  54    -0.027024642992
  55     0.002059573837
  56     0.003718295428
  57    -0.576300963259
  58     0.067769488117
  59     0.508531475142
  60    -0.333311316798
  61     0.025402035597
  62     0.039013991466
  63     0.043686923565
  64    -0.010527773235
  65     0.001431353212
  66    -0.020685668380
  67     0.022480709161
  68    -0.001713291997
  69    -0.037926490111
  70    -0.008356219198
  71    -0.000207069852
  72    -0.001526056699
  73     0.008331709329
  74    -0.233861565478
  75     0.224729713463
  76    -0.065010464759
  77    -0.025888993694
  78     0.001973014158
  79    -0.041613907657
  80    -0.389218406674
  81     0.922029572780
  82    -0.031527829205
  83     0.061325824673
  84    -0.004673757920
  85    -1.372287131580
  86     3.329448483276
  87    -3.417727612855
  88    -0.114639118024
  89    -0.204754948898
  90     0.015604602879
  91    -0.045079375088
  92     0.144043451588
  93     0.558526959379
  94    -0.074380023140
  95    -0.002758523704
  96     0.000210249382
 Sym=     1a
 Ene= 2.10500767987486E+00
Spin= Alpha
 Occup= 0
  1     -0.062800557404
  2      0.181117764213
  3      0.254064582449
  4     -9.289574519868
  5     -1.779486497923
  6     -0.458075067425
  7      0.000005900093
  8     -0.000000363222
  9     -5.158705356427
  10     0.000071212186
  11    -0.000004755130
  12    -1.812608694176
  13     0.000024199029
  14    -0.000001729499
  15    -0.192015564801
  16     0.092388475102
  17     0.099627089699
  18     0.000005143538
  19    -0.000000324884
  20     0.001960794614
  21    -1.739858890039
  22     0.909993937991
  23     0.829864952048
  24     0.000050263332
  25    -0.000003173387
  26     0.003866838577
  27    -0.319179967415
  28    -0.000011167356
  29     0.000000241406
  30     0.293866487703
  31     0.000017437289
  32    -0.000000963528
  33     0.134358374815
  34    -0.000002454708
  35     0.000000639648
  36    -0.008856597021
  37     0.022829262730
  38    -0.013554058232
  39    -0.863025852126
  40     7.515872208868
  41     1.764201974743
  42    -0.030131679864
  43     0.000001478548
  44    -0.000000111235
  45    -6.288514257633
  46     0.000077864123
  47    -0.000006146337
  48    -2.432276748163
  49     0.000027849424
  50    -0.000002091088
  51     0.698570329390
  52    -0.635149126685
  53    -0.063421202705
  54     0.000000407297
  55     0.000000048752
  56     0.009282914375
  57     2.804495514866
  58    -2.096956971311
  59    -0.707538543555
  60    -0.000001992869
  61     0.000000726840
  62     0.066016994743
  63    -0.232958117715
  64     0.000002618054
  65     0.000000905348
  66     0.077802949548
  67     0.000001571309
  68    -0.000000331750
  69     0.234743162725
  70    -0.000005083798
  71    -0.000000882902
  72     0.012832902576
  73     0.054713302011
  74     0.209895371652
  75    -0.494814511442
  76     0.051050415027
  77     0.076615912944
  78    -0.005725905791
  79     0.054715605618
  80     0.209894145480
  81    -0.494822943072
  82     0.051048717090
  83    -0.076618370423
  84     0.005726175345
  85     0.137091017227
  86     0.994951242092
  87     0.526145325450
  88    -0.207708421709
  89    -0.102888661826
  90     0.016260923535
  91     0.137102504196
  92     0.995031382056
  93     0.526141603342
  94    -0.207711766654
  95     0.102909463861
  96    -0.016262402545
 Sym=     1a
 Ene= 2.10500900845184E+00
Spin= Alpha
 Occup= 0
  1      0.022829269071
  2     -0.013553933458
  3     -0.863024823802
  4      7.515862378727
  5      1.764199511316
  6      0.030131990873
  7     -0.000001275992
  8      0.000000034918
  9      6.288509767688
  10    -0.000080906035
  11     0.000007318547
  12     2.432273973198
  13    -0.000028971668
  14     0.000002797526
  15     0.698570857750
  16    -0.635149796504
  17    -0.063421061246
  18     0.000000433648
  19     0.000000019488
  20     0.009282997099
  21     2.804493328351
  22    -2.096956389199
  23    -0.707536939152
  24    -0.000001657808
  25     0.000000602653
  26     0.066017575395
  27     0.232957695892
  28    -0.000002826876
  29    -0.000001119025
  30    -0.077802531644
  31    -0.000001606227
  32     0.000000357758
  33    -0.234743014694
  34     0.000005398879
  35     0.000001143572
  36    -0.012833007076
  37    -0.062800533108
  38     0.181117756471
  39     0.254063492931
  40    -9.289564360257
  41    -1.779484676607
  42     0.458074953455
  43    -0.000006219141
  44     0.000000505509
  45     5.158700773463
  46    -0.000070739883
  47     0.000004539799
  48     1.812607551870
  49    -0.000023848745
  50     0.000001313314
  51    -0.192015288810
  52     0.092388391138
  53     0.099626897672
  54     0.000005090853
  55    -0.000000292754
  56     0.001960767756
  57    -1.739857794975
  58     0.909993747497
  59     0.829864047478
  60     0.000049752708
  61    -0.000002891888
  62     0.003866653612
  63     0.319179814037
  64     0.000011040187
  65    -0.000000261332
  66    -0.293866311840
  67    -0.000017221218
  68     0.000000909828
  69    -0.134358344899
  70     0.000002409253
  71    -0.000000559214
  72     0.008856556960
  73     0.137090733491
  74     0.994951604847
  75     0.526143366785
  76     0.207708343044
  77     0.102888511329
  78    -0.016260839324
  79     0.137103425542
  80     0.995034230864
  81     0.526142247014
  82     0.207712640522
  83    -0.102910687644
  84     0.016262771962
  85     0.054712627692
  86     0.209895909766
  87    -0.494815478938
  88    -0.051050309262
  89    -0.076615869667
  90     0.005725936625
  91     0.054715985141
  92     0.209892104076
  93    -0.494821232079
  94    -0.051048540519
  95     0.076618107802
  96    -0.005726088006
 Sym=     1a
 Ene= 2.14576946757625E+00
Spin= Alpha
 Occup= 0
  1     -0.000180659008
  2     -0.000473603228
  3     -0.013551187570
  4      0.098395092120
  5      0.029563347694
  6      0.002316817825
  7     -0.004416802591
  8     -0.024768840672
  9      0.035801875567
  10     0.000926729724
  11    -0.044556147363
  12     0.031697280823
  13     0.021960681450
  14     0.021864596366
  15     0.002475836481
  16    -0.001273641623
  17    -0.001202194858
  18    -0.001020130795
  19    -0.005213733175
  20    -0.002416960216
  21     0.019827253484
  22     0.017965404602
  23    -0.037792658086
  24    -0.029016048987
  25    -0.047807690434
  26     0.108787111642
  27     0.007113191949
  28     0.003829523801
  29    -0.005077163058
  30    -0.009177091919
  31     0.001505586935
  32    -0.014764316382
  33    -0.000366256522
  34    -0.006643432260
  35     0.021576045420
  36    -0.002712783945
  37     0.001375070385
  38     0.009426861224
  39     0.009894083317
  40    -0.287746404429
  41    -0.054977355961
  42    -0.011088734095
  43    -0.019881203932
  44     0.017404729689
  45    -0.063128120460
  46    -0.182001588414
  47    -0.286588881296
  48     0.003635846952
  49    -0.043478792780
  50    -0.075110213604
  51    -0.001881409462
  52    -0.010417897420
  53     0.012299306882
  54    -0.013489387999
  55    -0.017436295493
  56    -0.027274899020
  57    -0.022528319421
  58    -0.107909991568
  59     0.130438310989
  60    -0.146166481816
  61    -0.318346798784
  62    -0.491855968499
  63     0.014852753678
  64    -0.040443557209
  65     0.174463876576
  66    -0.062047481699
  67    -0.020118249597
  68    -0.004405437041
  69     0.042120421572
  70     0.074378975500
  71    -0.229662415545
  72    -0.222643227845
  73    -0.001919024386
  74     0.005757860013
  75     0.010275421265
  76    -0.002586197804
  77     0.002362116201
  78     0.021110878090
  79    -0.003402259893
  80    -0.043300052181
  81     0.012012951098
  82    -0.003253896085
  83     0.006528801577
  84    -0.035638816079
  85     0.013119102314
  86     0.325690900618
  87    -0.003672365619
  88    -0.034471324360
  89    -0.058542388980
  90     1.383435744680
  91    -0.004591361877
  92    -0.020284418804
  93    -0.000958123150
  94    -0.004063727316
  95    -0.003506649630
  96    -0.035896753044
 Sym=     1a
 Ene= 2.14576961752488E+00
Spin= Alpha
 Occup= 0
  1      0.001375102683
  2      0.009427002025
  3      0.009894628177
  4     -0.287753198704
  5     -0.054978798049
  6      0.011088546928
  7     -0.019881615629
  8      0.017404762848
  9      0.063125568919
  10    -0.182006406360
  11    -0.286587995773
  12    -0.003637090198
  13    -0.043480069705
  14    -0.075109832553
  15    -0.001881049081
  16    -0.010418498950
  17     0.012299548031
  18     0.013489438484
  19     0.017435790238
  20    -0.027275152174
  21    -0.022524256961
  22    -0.107916641188
  23     0.130440898149
  24     0.146166533053
  25     0.318338243505
  26    -0.491861071077
  27    -0.014853895580
  28    -0.040446576744
  29     0.174463538610
  30     0.062048327625
  31    -0.020116167630
  32    -0.004398468900
  33    -0.042119735478
  34     0.074380944664
  35    -0.229668930256
  36     0.222638488278
  37    -0.000180699719
  38    -0.000473542022
  39    -0.013552147786
  40     0.098398821199
  41     0.029564513188
  42    -0.002316809816
  43    -0.004416927060
  44    -0.024768771997
  45    -0.035802876405
  46     0.000928382576
  47    -0.044556892005
  48    -0.031697903722
  49     0.021962180717
  50     0.021864317180
  51     0.002475907087
  52    -0.001273679733
  53    -0.001202227354
  54     0.001020061774
  55     0.005213686682
  56    -0.002417065131
  57     0.019828537229
  58     0.017964919693
  59    -0.037793456922
  60     0.029015673278
  61     0.047810331100
  62     0.108786011909
  63    -0.007113282825
  64     0.003829150555
  65    -0.005077101536
  66     0.009177297653
  67     0.001506204709
  68    -0.014764361478
  69     0.000366172711
  70    -0.006643549272
  71     0.021576007976
  72     0.002713738616
  73    -0.004591174958
  74    -0.020284387047
  75    -0.000958657783
  76     0.004063911485
  77    -0.003506678377
  78    -0.035896886861
  79     0.013119292674
  80     0.325696980654
  81    -0.003672327550
  82     0.034471059378
  83    -0.058543986157
  84     1.383435934414
  85    -0.003402378578
  86    -0.043301463520
  87     0.012013115821
  88     0.003254304217
  89     0.006528944348
  90    -0.035638836755
  91    -0.001919131267
  92     0.005757531061
  93     0.010275980985
  94     0.002586307373
  95     0.002361977622
  96     0.021110870555
 Sym=     1a
 Ene= 2.14577014085346E+00
Spin= Alpha
 Occup= 0
  1     -0.001375056732
  2     -0.009426847611
  3     -0.009893915483
  4      0.287745355689
  5      0.054977063196
  6     -0.011088746164
  7     -0.019881168085
  8      0.017404623064
  9     -0.063128012766
  10    -0.182001423241
  11    -0.286589140390
  12     0.003635804352
  13    -0.043478896097
  14    -0.075109993605
  15     0.001881409588
  16     0.010417882603
  17    -0.012299292191
  18     0.013489392320
  19     0.017436339860
  20     0.027274966577
  21     0.022528390910
  22     0.107909549725
  23    -0.130437940635
  24     0.146166370961
  25     0.318347332579
  26     0.491856610797
  27     0.014852667700
  28    -0.040443483213
  29     0.174464171239
  30    -0.062047312715
  31    -0.020118221416
  32    -0.004405514321
  33     0.042120367940
  34     0.074378848042
  35    -0.229662733596
  36    -0.222643715016
  37     0.000180655710
  38     0.000473615492
  39     0.013551069917
  40    -0.098394750683
  41    -0.029563202529
  42     0.002316837739
  43    -0.004416808560
  44    -0.024768821922
  45     0.035801622015
  46     0.000927017894
  47    -0.044556382737
  48     0.031697077242
  49     0.021960848883
  50     0.021864496401
  51    -0.002475824756
  52     0.001273634092
  53     0.001202190664
  54     0.001020147015
  55     0.005213733480
  56     0.002416962477
  57    -0.019827169370
  58    -0.017965356162
  59     0.037792525532
  60     0.029016247194
  61     0.047807854632
  62    -0.108787223528
  63     0.007113174250
  64     0.003829521280
  65    -0.005077171840
  66    -0.009177092520
  67     0.001505601067
  68    -0.014764321341
  69    -0.000366232175
  70    -0.006643443008
  71     0.021576062162
  72    -0.002712839699
  73    -0.013119105748
  74    -0.325690333912
  75     0.003672301361
  76    -0.034471220142
  77    -0.058542247407
  78     1.383436286256
  79     0.004591486300
  80     0.020284826860
  81     0.000958118490
  82    -0.004063574051
  83    -0.003506734660
  84    -0.035896917857
  85     0.001918996373
  86    -0.005758188133
  87    -0.010275348310
  88    -0.002586151306
  89     0.002362176432
  90     0.021110908566
  91     0.003402332705
  92     0.043300354098
  93    -0.012012872134
  94    -0.003253949442
  95     0.006528882847
  96    -0.035638801462
 Sym=     1a
 Ene= 2.14577038766327E+00
Spin= Alpha
 Occup= 0
  1      0.000180678214
  2      0.000473554082
  3      0.013551608524
  4     -0.098396051136
  5     -0.029563731319
  6     -0.002316781352
  7     -0.004416838837
  8     -0.024768725048
  9     -0.035802361881
  10     0.000928298363
  11    -0.044557628081
  12    -0.031697194502
  13     0.021961883794
  14     0.021864114041
  15    -0.002475862190
  16     0.001273684258
  17     0.001202177932
  18    -0.001020055296
  19    -0.005213717738
  20     0.002417117658
  21    -0.019828230559
  22    -0.017964399840
  23     0.037792630399
  24    -0.029015524504
  25    -0.047810896102
  26    -0.108786320008
  27    -0.007113098307
  28     0.003829106710
  29    -0.005077090567
  30     0.009177093102
  31     0.001506193627
  32    -0.014764462392
  33     0.000366129705
  34    -0.006643479365
  35     0.021576094174
  36     0.002713917567
  37    -0.001375076074
  38    -0.009426865493
  39    -0.009894304011
  40     0.287747998698
  41     0.054977687181
  42     0.011088373578
  43    -0.019881274875
  44     0.017404778976
  45     0.063124977401
  46    -0.182003777506
  47    -0.286588134500
  48    -0.003636770859
  49    -0.043479359187
  50    -0.075109511754
  51     0.001881029736
  52     0.010418321704
  53    -0.012299351440
  54    -0.013489262478
  55    -0.017435856468
  56     0.027275173056
  57     0.022524135363
  58     0.107914699854
  59    -0.130438835217
  60    -0.146164880394
  61    -0.318339782232
  62     0.491861923838
  63    -0.014853581547
  64    -0.040445975005
  65     0.174464095179
  66     0.062047441226
  67    -0.020115980494
  68    -0.004398742128
  69    -0.042119270396
  70     0.074379950211
  71    -0.229669403744
  72     0.222639433736
  73     0.003402257947
  74     0.043300446962
  75    -0.012012807822
  76     0.003254153593
  77     0.006528766529
  78    -0.035638939205
  79     0.001918999926
  80    -0.005758188540
  81    -0.010275634647
  82     0.002586135832
  83     0.002362140296
  84     0.021110970377
  85     0.004591300625
  86     0.020284596353
  87     0.000958403041
  88     0.004063653202
  89    -0.003506721676
  90    -0.035896943605
  91    -0.013119120350
  92    -0.325692148101
  93     0.003672250413
  94     0.034470547706
  95    -0.058543102482
  96     1.383436095442
 Sym=     1a
 Ene= 2.33862290056402E+00
Spin= Alpha
 Occup= 0
  1      0.000001210149
  2     -0.000003463198
  3     -0.000004176898
  4      0.000172942292
  5      0.000032912990
  6      0.000009464081
  7      0.098296534421
  8     -0.004416082246
  9      0.000106307930
  10     1.035837678924
  11     0.001980829630
  12     0.000036435015
  13     0.267801304320
  14     0.012279224787
  15     0.000005351596
  16    -0.000003471924
  17    -0.000001879672
  18     0.105934284357
  19    -0.000778984288
  20     0.000000052319
  21     0.000050832671
  22    -0.000035118032
  23    -0.000015714639
  24     1.097748633061
  25    -0.012569194900
  26     0.000001120666
  27     0.000014829190
  28    -0.264234592503
  29    -0.007915474184
  30    -0.000016865127
  31     0.407937768600
  32     0.000424282433
  33    -0.000003030319
  34    -0.053429862093
  35     0.010195440577
  36     0.000000687734
  37    -0.000000401416
  38     0.000000186827
  39     0.000016744870
  40    -0.000142053505
  41    -0.000033621697
  42     0.000001338896
  43     0.053350638053
  44    -0.000710997496
  45     0.000127371687
  46     1.366117649513
  47    -0.174069546726
  48     0.000047699274
  49     0.410268323508
  50    -0.060119627010
  51    -0.000000272100
  52    -0.000000975196
  53     0.000001247296
  54     0.804917422902
  55    -0.013338027097
  56     0.000000041753
  57    -0.000008564972
  58    -0.000005202848
  59     0.000013767820
  60     2.804724100174
  61    -0.102385394536
  62     0.000000397539
  63     0.000000901621
  64     0.257322314235
  65     0.043599667821
  66     0.000004738285
  67    -0.154957992928
  68    -0.010153104224
  69    -0.000005947937
  70    -0.190276119127
  71    -0.048341988402
  72    -0.000000855469
  73    -0.073192704885
  74    -0.010951836918
  75     0.157473819758
  76     0.000920113217
  77    -0.043896588958
  78     0.004660705852
  79     0.073190239683
  80     0.010944683515
  81    -0.157455788431
  82    -0.000922751426
  83    -0.043893373216
  84     0.004660447820
  85    -0.353383763094
  86    -2.399983233964
  87     0.070799133014
  88     0.178791624454
  89     0.523253676140
  90    -0.045280108816
  91     0.353379316723
  92     2.399948827447
  93    -0.070818235920
  94    -0.178775934260
  95     0.523251691773
  96    -0.045279430498
 Sym=     1a
 Ene= 2.33862382673557E+00
Spin= Alpha
 Occup= 0
  1     -0.000000400975
  2      0.000000173524
  3      0.000017086723
  4     -0.000144021881
  5     -0.000034241835
  6     -0.000001228406
  7     -0.053350980717
  8      0.000711028420
  9     -0.000131297320
  10    -1.366119403254
  11     0.174070824757
  12    -0.000049574411
  13    -0.410269293347
  14     0.060120035788
  15    -0.000000212158
  16    -0.000000977185
  17     0.000001189343
  18     0.804918156825
  19    -0.013338101966
  20     0.000000213428
  21    -0.000008529464
  22    -0.000005129872
  23     0.000013659336
  24     2.804722126519
  25    -0.102385894194
  26     0.000001888953
  27    -0.000001094896
  28    -0.257322328287
  29    -0.043599932441
  30    -0.000004702180
  31     0.154958023126
  32     0.010153165557
  33     0.000006171137
  34     0.190276107781
  35     0.048342282094
  36     0.000000382605
  37     0.000001232904
  38    -0.000003587876
  39    -0.000003987898
  40     0.000176003375
  41     0.000033303562
  42    -0.000009485320
  43    -0.098296648852
  44     0.004416154740
  45    -0.000108314693
  46    -1.035835956028
  47    -0.001981016478
  48    -0.000037735703
  49    -0.267800406712
  50    -0.012279432379
  51     0.000005406545
  52    -0.000003492836
  53    -0.000001913709
  54     0.105934155424
  55    -0.000778977926
  56     0.000000063046
  57     0.000051622574
  58    -0.000035795502
  59    -0.000015827072
  60     1.097747963528
  61    -0.012569089749
  62     0.000000792239
  63    -0.000014851149
  64     0.264234591679
  65     0.007915446237
  66     0.000016865312
  67    -0.407937732990
  68    -0.000424280710
  69     0.000003059595
  70     0.053429827589
  71    -0.010195404804
  72    -0.000000764769
  73    -0.353384193576
  74    -2.399984626396
  75     0.070797961491
  76    -0.178791833072
  77    -0.523253436261
  78     0.045279998385
  79     0.353378789735
  80     2.399948255512
  81    -0.070818249695
  82     0.178775272238
  83    -0.523252831901
  84     0.045280169168
  85    -0.073192355250
  86    -0.010952767241
  87     0.157474803764
  88    -0.000920111176
  89     0.043896685471
  90    -0.004660652953
  91     0.073190380509
  92     0.010945119137
  93    -0.157454520066
  94     0.000922287517
  95     0.043893030983
  96    -0.004660394993
 Sym=     1a
 Ene= 2.41346098191307E+00
Spin= Alpha
 Occup= 0
  1      0.112958795039
  2     -0.300151552167
  3     -0.513464892812
  4      18.635324248993
  5      1.830578198564
  6      0.098107017346
  7     -0.000001333232
  8      0.000000084382
  9      14.520912206349
  10    -0.000136680717
  11     0.000010610085
  12     0.924846040717
  13     0.000038372176
  14    -0.000003269730
  15     0.335761448162
  16    -0.165320404616
  17    -0.170441043546
  18    -0.000006133771
  19     0.000000455368
  20    -0.000453221459
  21     4.924587211051
  22    -2.909081107460
  23    -2.015506103591
  24    -0.000097266219
  25     0.000007209051
  26     0.079094804916
  27     0.360905435837
  28     0.000003557718
  29    -0.000000667701
  30    -0.078749390059
  31    -0.000008050782
  32     0.000000604175
  33    -0.405456062730
  34     0.000003277602
  35     0.000000291640
  36    -0.028918492705
  37    -0.076940321665
  38     0.092967653706
  39     1.542921692126
  40    -18.263233401293
  41    -2.810746600766
  42    -1.072848506561
  43     0.000001983501
  44    -0.000000166812
  45     17.197892803130
  46    -0.000113970024
  47     0.000008117003
  48    -1.159342272932
  49    -0.000067177262
  50     0.000005617590
  51    -0.368302364843
  52     0.255374752339
  53     0.112927612504
  54     0.000007727876
  55    -0.000000633675
  56    -0.012608642238
  57    -4.997748993113
  58     3.251395670249
  59     1.746353322864
  60     0.000096177581
  61    -0.000007758701
  62    -0.133218457095
  63     0.548041108305
  64     0.000001703560
  65    -0.000000300786
  66    -0.042863464124
  67    -0.000005284011
  68     0.000000398677
  69    -0.692410839457
  70     0.000002998445
  71     0.000000004870
  72    -0.057494501852
  73     0.205813335846
  74     0.631836673004
  75    -0.777104951072
  76     0.099417567147
  77     0.112828921578
  78    -0.008598791283
  79     0.205813298942
  80     0.631813207398
  81    -0.777141708816
  82     0.099416381342
  83    -0.112826953913
  84     0.008598825946
  85    -0.282585885848
  86    -1.766961296307
  87     1.535180587956
  88     0.257444386078
  89     0.437958479859
  90    -0.033377317054
  91    -0.282579766588
  92    -1.766923865221
  93     1.535081430618
  94     0.257432645714
  95    -0.437951231435
  96     0.033376360741
 Sym=     1a
 Ene= 2.41346204469524E+00
Spin= Alpha
 Occup= 0
  1      0.076940103964
  2     -0.092967331934
  3     -1.542922042154
  4      18.263226458749
  5      2.810744635499
  6     -1.072850120958
  7      0.000001887892
  8     -0.000000128616
  9      17.197888393246
  10    -0.000112841416
  11     0.000009202351
  12    -1.159337535720
  13    -0.000069942507
  14     0.000004838490
  15     0.368302404444
  16    -0.255374800303
  17    -0.112927604141
  18    -0.000007919357
  19     0.000000560745
  20     0.012608769680
  21     4.997747577759
  22    -3.251395280751
  23    -1.746352297008
  24    -0.000096564516
  25     0.000006955940
  26     0.133219137879
  27     0.548040857773
  28     0.000001434839
  29    -0.000000699784
  30    -0.042863496938
  31    -0.000004737862
  32     0.000000370232
  33    -0.692410470519
  34     0.000002812824
  35     0.000000568627
  36    -0.057494787783
  37    -0.112958972201
  38     0.300151756599
  39     0.513464014425
  40    -18.635317878934
  41    -1.830579740903
  42     0.098107257175
  43    -0.000001355770
  44     0.000000121120
  45     14.520907156653
  46    -0.000136910070
  47     0.000010280173
  48     0.924846527122
  49     0.000039358034
  50    -0.000002650757
  51    -0.335761228916
  52     0.165320364425
  53     0.170440864491
  54     0.000006147167
  55    -0.000000482544
  56     0.000453272592
  57    -4.924585054714
  58     2.909080078396
  59     2.015504976318
  60     0.000097409589
  61    -0.000007653295
  62    -0.079094722524
  63     0.360905124708
  64     0.000003565368
  65    -0.000000477032
  66    -0.078749211597
  67    -0.000008170583
  68     0.000000636638
  69    -0.405455823768
  70     0.000003387139
  71     0.000000003367
  72    -0.028918360735
  73     0.282586476712
  74     1.766962404810
  75    -1.535179905701
  76     0.257444392285
  77     0.437958266326
  78    -0.033377157741
  79     0.282579077362
  80     1.766925062452
  81    -1.535077762626
  82     0.257431581250
  83    -0.437951452199
  84     0.033377039232
  85    -0.205813037328
  86    -0.631837253269
  87     0.777104802352
  88     0.099417482722
  89     0.112829250700
  90    -0.008598839965
  91    -0.205813139311
  92    -0.631813384944
  93     0.777141039770
  94     0.099417318088
  95    -0.112826597509
  96     0.008598451359
 Sym=     1a
 Ene= 2.53515180641118E+00
Spin= Alpha
 Occup= 0
  1      0.013028315875
  2      0.072417186586
  3      0.241831555709
  4     -3.318213977948
  5     -0.707507689697
  6      0.082534205031
  7     -0.089065063816
  8      0.006787823603
  9      0.049930820007
  10    -1.931986739778
  11     0.147239673865
  12    -0.300339740997
  13    -0.819098767106
  14     0.062424630765
  15     0.007492617063
  16    -0.089534935982
  17     0.082042318919
  18     0.065663161749
  19    -0.005004297991
  20     0.015187266461
  21     0.425163955416
  22    -1.121246200924
  23     0.696082245508
  24     0.106584676861
  25    -0.008123066758
  26     0.160861868558
  27    -0.184774728976
  28    -0.261239062083
  29    -0.035683433879
  30     0.279464953249
  31     0.144908509699
  32    -0.011043721800
  33    -0.031563640540
  34     0.205580471019
  35     0.058918072094
  36    -0.027530859129
  37    -0.030466977979
  38     0.059475704288
  39    -0.628345674589
  40     1.756668223356
  41     0.629593449650
  42     0.055853016532
  43    -0.107722661634
  44     0.008209693438
  45    -0.584150370178
  46     0.685226623847
  47    -0.052222057066
  48    -0.501850768927
  49     0.515127137817
  50    -0.039258425516
  51     0.026680379430
  52    -0.005266248697
  53    -0.021414130733
  54     0.007575266425
  55    -0.000577322916
  56    -0.001429330969
  57     0.249478198745
  58     0.176692799076
  59    -0.426170997821
  60    -0.300749597858
  61     0.022920558416
  62    -0.053362674868
  63    -0.081447908630
  64    -0.009943976331
  65     0.007683707954
  66     0.041102246507
  67     0.057954837748
  68    -0.004416830573
  69     0.068171589686
  70    -0.044613593523
  71    -0.005891945410
  72     0.002396113715
  73     0.144647255648
  74     0.101492613677
  75    -0.358858647789
  76     0.095911971653
  77     0.053321140080
  78    -0.004063570542
  79     0.069984712962
  80     2.919945380587
  81     0.095310387288
  82     1.775035958724
  83    -0.452307226412
  84     0.034471059378
  85    -0.022061821589
  86    -0.565301646952
  87     0.024253309766
  88     0.122075174944
  89     0.042696228914
  90    -0.003253897972
  91    -0.046688103760
  92    -0.111342741503
  93     0.267991990639
  94     0.010701752817
  95    -0.033934935485
  96     0.002586123604
 Sym=     1a
 Ene= 2.53515306724708E+00
Spin= Alpha
 Occup= 0
  1      0.030467030219
  2     -0.059475835564
  3      0.628346317923
  4     -1.756667344025
  5     -0.629593808043
  6      0.055853231273
  7     -0.107722825846
  8      0.008209618105
  9     -0.584148249984
  10     0.685225702089
  11    -0.052221458489
  12    -0.501851086433
  13     0.515127393454
  14    -0.039258281970
  15    -0.026680445050
  16     0.005266303623
  17     0.021414141427
  18    -0.007575434942
  19     0.000577326756
  20     0.001429323544
  21    -0.249478050657
  22    -0.176693905662
  23     0.426171956319
  24     0.300748901009
  25    -0.022920231702
  26     0.053362443571
  27    -0.081448308972
  28    -0.009943889629
  29     0.007683620800
  30     0.041102700184
  31     0.057954825672
  32    -0.004416758741
  33     0.068171673124
  34    -0.044613697770
  35    -0.005891900312
  36     0.002395937208
  37    -0.013028322438
  38    -0.072417412232
  39    -0.241831021055
  40     3.318215689925
  41     0.707507944094
  42     0.082534138542
  43    -0.089065081183
  44     0.006787648620
  45     0.049936248596
  46    -1.931988370741
  47     0.147237647051
  48    -0.300338953555
  49    -0.819098530674
  50     0.062423987647
  51    -0.007492459218
  52     0.089534966249
  53    -0.082042507031
  54    -0.065663540496
  55     0.005004238595
  56    -0.015187061490
  57    -0.425164548269
  58     1.121248100857
  59    -0.696083552588
  60    -0.106588740504
  61     0.008123088852
  62    -0.160859933614
  63    -0.184775608538
  64    -0.261239261897
  65    -0.035682918442
  66     0.279466612781
  67     0.144908084477
  68    -0.011043484432
  69    -0.031564120015
  70     0.205581164319
  71     0.058917143195
  72    -0.027530699472
  73     0.022061987680
  74     0.565303365573
  75    -0.024253533676
  76     0.122075480648
  77     0.042696448422
  78    -0.003253962019
  79     0.046688231582
  80     0.111343906521
  81    -0.267992581083
  82     0.010701803420
  83    -0.033935122633
  84     0.002586319602
  85    -0.144647003273
  86    -0.101493747948
  87     0.358859062084
  88     0.095912480961
  89     0.053321217230
  90    -0.004063748889
  91    -0.069985187243
  92    -2.919950872551
  93    -0.095309896051
  94     1.775037071770
  95    -0.452307942140
  96     0.034470547706
 Sym=     1a
 Ene= 2.53516143954630E+00
Spin= Alpha
 Occup= 0
  1      0.030466978314
  2     -0.059475514727
  3      0.628348800505
  4     -1.756694989479
  5     -0.629601044712
  6      0.055854314532
  7      0.107722140648
  8     -0.008209624301
  9     -0.584174851220
  10    -0.685218540685
  11     0.052221360883
  12    -0.501867678671
  13    -0.515122269294
  14     0.039258036349
  15    -0.026680754713
  16     0.005266277997
  17     0.021414476716
  18     0.007576114654
  19    -0.000577391691
  20     0.001429369934
  21    -0.249493471516
  22    -0.176682411602
  23     0.426175883118
  24    -0.300742993982
  25     0.022919889519
  26     0.053362161822
  27    -0.081451769147
  28     0.009942560294
  29    -0.007683583062
  30     0.041106225716
  31    -0.057952233609
  32     0.004416594388
  33     0.068172789904
  34     0.044612889195
  35     0.005892014034
  36     0.002395787414
  37    -0.013028647346
  38    -0.072419278306
  39    -0.241834804913
  40     3.318284252998
  41     0.707521578891
  42     0.082538665941
  43     0.089068501208
  44    -0.006788024957
  45     0.049976784491
  46     1.932025312891
  47    -0.147241802908
  48    -0.300327377808
  49     0.819114736329
  50    -0.062425534607
  51    -0.007490194164
  52     0.089534414637
  53    -0.082044220473
  54     0.065667753894
  55    -0.005004618747
  56    -0.015187292298
  57    -0.425154896761
  58     1.121252675186
  59    -0.696097778425
  60     0.106643082580
  61    -0.008127412240
  62    -0.160862905961
  63    -0.184783676362
  64     0.261228250850
  65     0.035683969202
  66     0.279483327498
  67    -0.144889582519
  68     0.011042204202
  69    -0.031570010612
  70    -0.205584893407
  71    -0.058917272707
  72    -0.027532867611
  73     0.046688293347
  74     0.111340123344
  75    -0.267993784323
  76     0.010702394843
  77     0.033934321351
  78    -0.002586147572
  79     0.022062198723
  80     0.565310817519
  81    -0.024256237672
  82     0.122075104123
  83    -0.042700298622
  84     0.003254302329
  85    -0.069987675232
  86    -2.920021309844
  87    -0.095309893443
  88     1.775052136004
  89     0.452313641031
  90    -0.034471324360
  91    -0.144646131084
  92    -0.101486975881
  93     0.358859770582
  94     0.095911971803
  95    -0.053322454443
  96     0.004063631629
 Sym=     1a
 Ene= 2.53516231420496E+00
Spin= Alpha
 Occup= 0
  1      0.013028574833
  2      0.072419530767
  3      0.241833845293
  4     -3.318287591423
  5     -0.707521478460
  6      0.082538733487
  7      0.089068924274
  8     -0.006788003353
  9      0.049978434465
  10     1.932026016989
  11    -0.147241341301
  12    -0.300326865024
  13     0.819114563894
  14    -0.062425527488
  15     0.007490192968
  16    -0.089534641459
  17     0.082044448491
  18    -0.065668019025
  19     0.005004609194
  20     0.015187301900
  21     0.425155579725
  22    -1.121254070794
  23     0.696098491069
  24    -0.106643275784
  25     0.008127349401
  26     0.160862706932
  27    -0.184783922762
  28     0.261228491775
  29     0.035683787631
  30     0.279483693479
  31    -0.144889819886
  32     0.011042168217
  33    -0.031570046012
  34    -0.205584979276
  35    -0.058916993120
  36    -0.027532918366
  37    -0.030467002988
  38     0.059475569619
  39    -0.628349142867
  40     1.756694600867
  41     0.629601209517
  42     0.055854405772
  43     0.107722157237
  44    -0.008209596783
  45    -0.584174787859
  46    -0.685217644118
  47     0.052220921845
  48    -0.501868024578
  49    -0.515122139354
  50     0.039257898769
  51     0.026680790260
  52    -0.005266297051
  53    -0.021414493209
  54    -0.007576106173
  55     0.000577374021
  56    -0.001429344266
  57     0.249494012923
  58     0.176682195212
  59    -0.426176208135
  60     0.300743133818
  61    -0.022919957163
  62    -0.053361807414
  63    -0.081451902959
  64     0.009942630196
  65    -0.007683472222
  66     0.041106268850
  67    -0.057952246773
  68     0.004416599274
  69     0.068172926298
  70     0.044612808577
  71     0.005891860441
  72     0.002395812938
  73     0.069988125133
  74     2.920024587335
  75     0.095309863003
  76     1.775052993878
  77     0.452313800514
  78    -0.034471220142
  79     0.144646047280
  80     0.101489393188
  81    -0.358860635283
  82     0.095912054469
  83    -0.053322908032
  84     0.004063914994
  85    -0.046688204626
  86    -0.111340948295
  87     0.267994273638
  88     0.010702410293
  89     0.033934491412
  90    -0.002586201537
  91    -0.022061987673
  92    -0.565310191045
  93     0.024256221121
  94     0.122075008830
  95    -0.042700043767
  96     0.003254141016
 Sym=     1a
 Ene= 2.60435569915963E+00
Spin= Alpha
 Occup= 0
  1      0.003787717916
  2     -0.015866054952
  3      0.117714021181
  4     -0.204503361270
  5     -0.144870518286
  6     -0.015265022177
  7      0.000000378179
  8      0.000000843136
  9      0.103314653986
  10    -0.000001937210
  11    -0.000004967734
  12     0.059122084580
  13    -0.000002843997
  14    -0.000004253762
  15    -0.001980697800
  16     0.011006445024
  17    -0.009025747224
  18    -0.000000072907
  19     0.000000450237
  20    -1.064194929828
  21     0.049667272412
  22    -0.111460220962
  23     0.061792948550
  24     0.000001722310
  25    -0.000005534030
  26     1.243985260870
  27    -0.006811560249
  28    -0.000000003863
  29     0.000000459319
  30    -0.000618635287
  31     0.000000114767
  32    -0.000001780532
  33     0.009757302337
  34    -0.000000109584
  35     0.000001164291
  36    -0.021345190062
  37    -0.004285119330
  38     0.005873118978
  39    -0.060265240041
  40     0.131363283779
  41     0.039448270819
  42     0.004215741784
  43    -0.000000079335
  44     0.000000071878
  45     0.085048111711
  46    -0.000001696567
  47     0.000008316874
  48    -0.009297443800
  49     0.000000650239
  50     0.000004116271
  51    -0.000255710583
  52     0.002731087033
  53    -0.002475376450
  54     0.000000056598
  55     0.000000206559
  56     0.012373233679
  57    -0.031662833717
  58     0.082956483597
  59    -0.051293649880
  60     0.000003545956
  61    -0.000009598134
  62    -0.329112797631
  63    -0.009214969091
  64    -0.000000229012
  65     0.000000655456
  66     0.008672134462
  67     0.000000357516
  68    -0.000001070006
  69     0.003691043917
  70    -0.000000050264
  71     0.000000190620
  72    -0.004673156633
  73     0.005021056929
  74     0.191032268448
  75     0.026331321610
  76     0.011356915754
  77    -0.015521898627
  78     0.146765704471
  79     0.005021689547
  80     0.191038836635
  81     0.026332662441
  82     0.011356610775
  83     0.015521252210
  84    -0.146767523099
  85    -0.014914769729
  86    -0.114167657218
  87     0.012811833694
  88     0.024867183579
  89     0.021527883375
  90     0.081865898501
  91    -0.014914376757
  92    -0.114165853098
  93     0.012811108835
  94     0.024867498236
  95    -0.021527491141
  96    -0.081865891582
 Sym=     1a
 Ene= 2.60435669782623E+00
Spin= Alpha
 Occup= 0
  1     -0.004285111694
  2      0.005873070194
  3     -0.060265116474
  4      0.131364430684
  5      0.039448183303
  6     -0.004215642213
  7     -0.000000117505
  8     -0.000000018285
  9     -0.085048195527
  10     0.000003429384
  11    -0.000008604424
  12     0.009297751458
  13     0.000002245004
  14    -0.000004455181
  15    -0.000255694763
  16     0.002731096006
  17    -0.002475401243
  18    -0.000000024100
  19     0.000000224523
  20     0.012373300560
  21    -0.031662847583
  22     0.082956575330
  23    -0.051293727747
  24     0.000002724921
  25    -0.000009619248
  26    -0.329112903894
  27     0.009215057374
  28     0.000000318090
  29    -0.000000605462
  30    -0.008672298660
  31    -0.000000363268
  32     0.000001105018
  33    -0.003690998162
  34    -0.000000063495
  35    -0.000000292705
  36     0.004673286850
  37     0.003787706229
  38    -0.015865989331
  39     0.117713538340
  40    -0.204502454720
  41    -0.144869983095
  42     0.015264903769
  43    -0.000000040568
  44    -0.000000929102
  45    -0.103313861572
  46    -0.000000120162
  47     0.000005418354
  48    -0.059121316580
  49    -0.000001565152
  50     0.000004782898
  51    -0.001980697940
  52     0.011006383148
  53    -0.009025685208
  54    -0.000000011998
  55     0.000000442416
  56    -1.064195220224
  57     0.049666776644
  58    -0.111459526652
  59     0.061792750008
  60     0.000000504327
  61    -0.000005422435
  62     1.243984656931
  63     0.006811585346
  64    -0.000000065711
  65    -0.000000567110
  66     0.000618582835
  67    -0.000000068936
  68     0.000001724180
  69    -0.009757283556
  70     0.000000157097
  71    -0.000000963322
  72     0.021345195494
  73    -0.014914773481
  74    -0.114166277503
  75     0.012812866701
  76    -0.024867094092
  77    -0.021527689203
  78    -0.081865986508
  79    -0.014914600604
  80    -0.114168115440
  81     0.012810749708
  82    -0.024867733413
  83     0.021527999555
  84     0.081865903030
  85     0.005021086897
  86     0.191033864906
  87     0.026332765354
  88    -0.011356982524
  89     0.015521701445
  90    -0.146765833583
  91     0.005021600605
  92     0.191034900421
  93     0.026330510411
  94    -0.011356421115
  95    -0.015521227643
  96     0.146767160118
 Sym=     1a
 Ene= 2.67609519200397E+00
Spin= Alpha
 Occup= 0
  1      0.002370493462
  2      0.006214447858
  3      0.177810756146
  4     -1.291085923725
  5     -0.387913610833
  6     -0.030400139938
  7      0.032849572771
  8     -0.004416814197
  9     -0.469771543858
  10    -0.056647793413
  11     0.000927041150
  12    -0.415913631434
  13    -0.264619252480
  14     0.021960762540
  15    -0.032486534360
  16     0.012563211336
  17     0.019923323024
  18     0.008094255456
  19    -0.001020147719
  20     0.000466805552
  21    -0.260161924564
  22    -0.041033959156
  23     0.301195883720
  24     0.330715242361
  25    -0.029016222159
  26     0.038959581063
  27    -0.093335396174
  28    -0.000137373419
  29    -0.006438835851
  30     0.114437224625
  31    -0.034405107416
  32     0.001505600838
  33     0.010785349705
  34     0.034589413198
  35     0.007133003957
  36    -0.009440979157
  37    -0.018042908945
  38    -0.123694028040
  39    -0.129824564128
  40     3.775647556413
  41     0.721382095076
  42     0.145500336946
  43     0.276759629103
  44    -0.019881215468
  45     0.828332243489
  46     2.087666672411
  47    -0.182001625672
  48    -0.047707380220
  49     0.492082454877
  50    -0.043478862642
  51     0.024686820587
  52     0.086559350838
  53    -0.111246171425
  54     0.158536060356
  55    -0.013489396599
  56    -0.019740668811
  57     0.295604721053
  58     0.537734095733
  59    -0.833338816786
  60     1.588431046897
  61    -0.146166479575
  62    -0.160453554192
  63    -0.194889437199
  64    -0.001115688652
  65     0.058510723863
  66     0.417191080348
  67     0.258041789647
  68    -0.020118226027
  69    -0.155719462544
  70    -0.256544936246
  71    -0.058382147555
  72    -0.068381873478
  73     0.025180202015
  74    -0.075553585347
  75    -0.134828311131
  76     0.033934442424
  77    -0.009703905908
  78     0.002362173022
  79     0.044643070807
  80     0.568162465029
  81    -0.157627131699
  82     0.042696204144
  83    -0.120809323432
  84     0.006528940561
  85    -0.172141574227
  86    -4.273537319139
  87     0.048186355010
  88     0.452313641031
  89     2.147135311459
  90    -0.058542388980
  91     0.060246259664
  92     0.266163642725
  93     0.012571760719
  94     0.053320934171
  95     0.009848818606
  96    -0.003506703060
 Sym=     1a
 Ene= 2.67609580727917E+00
Spin= Alpha
 Occup= 0
  1      0.018042797529
  2      0.123694322619
  3      0.129823036435
  4     -3.775649540002
  5     -0.721381366148
  6      0.145500775536
  7      0.276760112209
  8     -0.019881156750
  9      0.828333658723
  10     2.087668437132
  11    -0.182001389604
  12    -0.047707356999
  13     0.492082821971
  14    -0.043478828332
  15    -0.024686891562
  16    -0.086559538472
  17     0.111246430034
  18    -0.158536446443
  19     0.013489383581
  20     0.019740659233
  21    -0.295605493567
  22    -0.537733656949
  23     0.833339150516
  24    -1.588432214513
  25     0.146166370324
  26     0.160452781132
  27    -0.194889317068
  28    -0.001116096081
  29     0.058510638256
  30     0.417191111667
  31     0.258042395322
  32    -0.020118245308
  33    -0.155719655035
  34    -0.256544995297
  35    -0.058382013420
  36    -0.068381608273
  37    -0.002370486559
  38    -0.006214451548
  39    -0.177810668334
  40     1.291085799911
  41     0.387913560213
  42    -0.030400222966
  43     0.032849501062
  44    -0.004416797318
  45    -0.469771517688
  46    -0.056647346369
  47     0.000926703057
  48    -0.415913451443
  49    -0.264619350969
  50     0.021960767821
  51     0.032486532818
  52    -0.012563230479
  53    -0.019923302339
  54    -0.008094226915
  55     0.001020130115
  56    -0.000466788919
  57     0.260162341917
  58     0.041033546316
  59    -0.301195888233
  60    -0.330715428339
  61     0.029016071512
  62    -0.038959127585
  63    -0.093335417744
  64    -0.000137275029
  65    -0.006438751142
  66     0.114437278007
  67    -0.034405254195
  68     0.001505586772
  69     0.010785325264
  70     0.034589427973
  71     0.007132904374
  72    -0.009440876510
  73     0.172142249111
  74     4.273541166534
  75    -0.048186450184
  76     0.452313800514
  77     2.147135975383
  78    -0.058542247407
  79    -0.060246200986
  80    -0.266164465149
  81    -0.012572148049
  82     0.053321186121
  83     0.009848918753
  84    -0.003506681405
  85    -0.025180268647
  86     0.075553874913
  87     0.134827975370
  88     0.033934370339
  89    -0.009703919916
  90     0.002362119611
  91    -0.044643166298
  92    -0.568162004695
  93     0.157626939301
  94     0.042696283402
  95    -0.120809138826
  96     0.006528741296
 Sym=     1a
 Ene= 2.67610484388906E+00
Spin= Alpha
 Occup= 0
  1     -0.018043176073
  2     -0.123695250366
  3     -0.129829544797
  4      3.775709300426
  5      0.721394948270
  6     -0.145496902225
  7      0.276763533199
  8     -0.019881639640
  9     -0.828295088854
  10     2.087715565691
  11    -0.182006441176
  12     0.047721672693
  13     0.492095591903
  14    -0.043480061926
  15     0.024681862498
  16     0.086565864431
  17    -0.111247726929
  18    -0.158536138436
  19     0.013489445700
  20    -0.019741534503
  21     0.295548928605
  22     0.537802180501
  23    -0.833351109106
  24    -1.588428553356
  25     0.146166507306
  26    -0.160462060443
  27     0.194902978897
  28    -0.001094872779
  29     0.058512168390
  30    -0.417205088843
  31     0.258019995652
  32    -0.020116149195
  33     0.155715302945
  34    -0.256551069676
  35    -0.058386162423
  36     0.068382803114
  37     0.002370941990
  38     0.006213586395
  39     0.177820802352
  40    -1.291118026761
  41    -0.387924480342
  42     0.030399675339
  43     0.032850832742
  44    -0.004416934353
  45     0.469782898857
  46    -0.056668648194
  47     0.000928367711
  48     0.415918334100
  49    -0.264636567772
  50     0.021962085331
  51    -0.032487214365
  52     0.012563539951
  53     0.019923674414
  54    -0.008093262968
  55     0.001020063747
  56     0.000466780559
  57    -0.260177412732
  58    -0.041026033460
  59     0.301203446192
  60    -0.330704722583
  61     0.029015605864
  62     0.038959517673
  63     0.093335447497
  64    -0.000132287224
  65    -0.006439002402
  66    -0.114436686628
  67    -0.034413057958
  68     0.001506192576
  69    -0.010785956560
  70     0.034590539893
  71     0.007132635671
  72     0.009440939331
  73     0.060243523477
  74     0.266162382624
  75     0.012577944313
  76    -0.053322861990
  77     0.009848910249
  78    -0.003506731632
  79    -0.172142947558
  80    -4.273589958012
  81     0.048184922028
  82    -0.452307226412
  83     2.147151494547
  84    -0.058543986157
  85     0.044643276318
  86     0.568171989974
  87    -0.157627596637
  88    -0.042700323394
  89    -0.120809393519
  90     0.006528805364
  91     0.025180866505
  92    -0.075551724924
  93    -0.134833814500
  94    -0.033934962173
  95    -0.009702726755
  96     0.002362129127
 Sym=     1a
 Ene= 2.67610543129340E+00
Spin= Alpha
 Occup= 0
  1     -0.002370867145
  2     -0.006213707280
  3     -0.177820298688
  4      1.291119858161
  5      0.387924962741
  6      0.030399851767
  7      0.032850424558
  8     -0.004416831179
  9      0.469783016894
  10    -0.056666759771
  11     0.000928316637
  12     0.415918493594
  13    -0.264635748742
  14     0.021961979150
  15     0.032487274193
  16    -0.012563604860
  17    -0.019923669333
  18     0.008093187300
  19    -0.001020053298
  20    -0.000466795297
  21     0.260177644091
  22     0.041026114092
  23    -0.301203758183
  24     0.330706051103
  25    -0.029015594429
  26    -0.038959038335
  27     0.093335578487
  28    -0.000132166169
  29    -0.006438963156
  30    -0.114437007149
  31    -0.034413279547
  32     0.001506206151
  33    -0.010785811781
  34     0.034590599070
  35     0.007132569441
  36     0.009440905379
  37     0.018043210040
  38     0.123695190282
  39     0.129830324713
  40    -3.775711926631
  41    -0.721395688402
  42    -0.145496876555
  43     0.276763182725
  44    -0.019881250663
  45    -0.828297557604
  46     2.087715095019
  47    -0.182003739067
  48     0.047722078528
  49     0.492093241875
  50    -0.043479364867
  51    -0.024682138863
  52    -0.086565698856
  53     0.111247837719
  54     0.158536334041
  55    -0.013489255401
  56     0.019741220399
  57    -0.295552161161
  58    -0.537800362468
  59     0.833352523629
  60     1.588432191739
  61    -0.146164909020
  62     0.160459362740
  63     0.194902768224
  64    -0.001095647393
  65     0.058511429983
  66    -0.417205520302
  67     0.258021550065
  68    -0.020115998608
  69     0.155716017050
  70    -0.256551584835
  71    -0.058385322334
  72     0.068381805076
  73    -0.044643563591
  74    -0.568172357181
  75     0.157627835726
  76    -0.042700208802
  77    -0.120809605751
  78     0.006528908081
  79    -0.025181052144
  80     0.075551439521
  81     0.134833569182
  82    -0.033935095945
  83    -0.009702772633
  84     0.002361988790
  85    -0.060244040863
  86    -0.266162260637
  87    -0.012576706077
  88    -0.053322737510
  89     0.009848870889
  90    -0.003506668245
  91     0.172143581902
  92     4.273592392783
  93    -0.048186743823
  94    -0.452307942140
  95     2.147151835564
  96    -0.058543102482
 Sym=     1a
 Ene= 2.77741846677242E+00
Spin= Alpha
 Occup= 0
  1     -0.000000035454
  2      0.000000155450
  3     -0.000001854436
  4      0.000008105298
  5      0.000002124008
  6     -0.000000742025
  7     -0.010477491244
  8     -0.095536258822
  9      0.000006954398
  10     0.035757766190
  11     0.546187843942
  12     0.000003372431
  13     0.052263335382
  14     0.476389344372
  15     0.000000087474
  16    -0.000000053509
  17    -0.000000033965
  18     0.008702424799
  19    -1.110061367726
  20     0.000000454096
  21     0.000000667559
  22    -0.000000559496
  23    -0.000000108063
  24    -0.123214931335
  25     1.800406525090
  26    -0.000005497791
  27     0.000000175457
  28    -0.009012939233
  29    -0.047783116015
  30    -0.000000302857
  31     0.007195979631
  32     0.154907458939
  33     0.000000067456
  34     0.004896147251
  35    -0.090799681588
  36    -0.000002773601
  37    -0.000000208242
  38     0.000000251281
  39    -0.000000787634
  40    -0.000008572434
  41    -0.000001547221
  42     0.000000372360
  43    -0.002654804075
  44    -0.006798912955
  45     0.000007138425
  46     0.050876771369
  47    -0.874553723710
  48     0.000002188060
  49     0.017498646445
  50    -0.447923338970
  51     0.000000072434
  52    -0.000000015965
  53    -0.000000056469
  54     0.000270220533
  55    -0.009750940138
  56     0.000000202060
  57    -0.000003190095
  58     0.000002081232
  59     0.000001108863
  60    -0.057774697411
  61     0.680983938159
  62    -0.000009830175
  63    -0.000000709649
  64     0.005572221632
  65    -0.065160130528
  66     0.000000500800
  67    -0.003737341832
  68     0.111843980314
  69     0.000000451294
  70    -0.003738577981
  71    -0.024422491544
  72    -0.000001648738
  73     0.015017312167
  74     0.113836461783
  75     0.000254577417
  76    -0.024201758866
  77     0.012134351291
  78     0.096260870763
  79    -0.015017076205
  80    -0.113834185855
  81    -0.000253220467
  82     0.024202626637
  83     0.012134083844
  84     0.096258508432
  85     0.005541214675
  86     0.002363477805
  87    -0.033705689223
  88     0.017646582708
  89    -0.012101464934
  90     0.000718473220
  91    -0.005541660334
  92    -0.002365092352
  93     0.033704409262
  94    -0.017646322409
  95    -0.012101561931
  96     0.000716383215
 Sym=     1a
 Ene= 2.77741966736835E+00
Spin= Alpha
 Occup= 0
  1     -0.000000200662
  2      0.000000237632
  3     -0.000000578558
  4     -0.000009383833
  5     -0.000001829274
  6     -0.000000392526
  7      0.002654851991
  8      0.006798851110
  9     -0.000007045994
  10    -0.050877091649
  11     0.874553087055
  12    -0.000001984782
  13    -0.017499869260
  14     0.447923234069
  15     0.000000060077
  16    -0.000000007403
  17    -0.000000052674
  18     0.000270229352
  19    -0.009751126103
  20     0.000000198206
  21    -0.000003055161
  22     0.000001739756
  23     0.000001315405
  24    -0.057774555950
  25     0.680983287818
  26    -0.000009676593
  27     0.000000671604
  28    -0.005572294951
  29     0.065160319401
  30    -0.000000465990
  31     0.003737414733
  32    -0.111844397938
  33    -0.000000435062
  34     0.003738603448
  35     0.024422655768
  36     0.000001571959
  37    -0.000000037088
  38     0.000000121141
  39    -0.000001729701
  40     0.000008218705
  41     0.000001992058
  42     0.000000832826
  43     0.010477365677
  44     0.095536196497
  45    -0.000007141873
  46    -0.035757088735
  47    -0.546187129004
  48    -0.000003435159
  49    -0.052262081640
  50    -0.476389373797
  51     0.000000081580
  52    -0.000000000763
  53    -0.000000080817
  54     0.008702406123
  55    -1.110061749673
  56     0.000000436923
  57     0.000000666130
  58    -0.000000425240
  59    -0.000000240890
  60    -0.123214441903
  61     1.800405576312
  62    -0.000005474024
  63    -0.000000197201
  64     0.009012876147
  65     0.047782935163
  66     0.000000338723
  67    -0.007195906298
  68    -0.154907136773
  69    -0.000000074151
  70    -0.004896135944
  71     0.090799602060
  72     0.000002726851
  73     0.005541269028
  74     0.002363460856
  75    -0.033706067816
  76    -0.017646523149
  77     0.012101461795
  78    -0.000718421916
  79    -0.005541639021
  80    -0.002364199670
  81     0.033705133377
  82     0.017646613927
  83     0.012101570376
  84    -0.000716606989
  85     0.015017278584
  86     0.113835731678
  87     0.000254106109
  88     0.024201887557
  89    -0.012134248033
  90    -0.096260890001
  91    -0.015016992946
  92    -0.113833176906
  93    -0.000252857076
  94    -0.024202228173
  95    -0.012134031337
  96    -0.096258577300
 Sym=     1a
 Ene= 2.94600719259665E+00
Spin= Alpha
 Occup= 0
  1      0.040640491426
  2     -0.171729238503
  3      1.572499519178
  4     -4.720920191829
  5     -1.911523287921
  6      0.196749675395
  7     -0.000002071747
  8     -0.000000003227
  9     -2.158663676281
  10     0.000020683227
  11    -0.000000756415
  12    -0.916999827075
  13     0.000011473968
  14    -0.000000057246
  15     0.557622356968
  16     0.573676395081
  17    -1.131298752049
  18     0.000000252876
  19    -0.000000058029
  20    -0.009855503145
  21    -1.581106519910
  22    -0.435971160916
  23     2.017077680826
  24     0.000012934893
  25    -0.000000334045
  26     0.054000796712
  27    -0.166782261244
  28    -0.000001281598
  29     0.000000220475
  30     0.063480129649
  31     0.000003213543
  32    -0.000000026747
  33     0.160281754500
  34    -0.000001494098
  35    -0.000000269052
  36     0.011524404948
  37     0.047142556625
  38    -0.050405547579
  39    -0.222585928552
  40     4.718465324905
  41     1.010540552247
  42    -0.132290860562
  43     0.000001271893
  44    -0.000000094874
  45    -1.725180226303
  46     0.000016493239
  47    -0.000002565831
  48    -0.729156669908
  49     0.000005549351
  50    -0.000001050107
  51    -0.021881488605
  52     0.018692994471
  53     0.003188494134
  54     0.000000441233
  55    -0.000000074180
  56    -0.003076387583
  57     0.294790601106
  58     0.412154248731
  59    -0.706944849837
  60     0.000000786351
  61     0.000001113443
  62    -0.056937540484
  63     0.101961935457
  64     0.000001606769
  65    -0.000000157704
  66    -0.056293193680
  67    -0.000002821028
  68     0.000000377022
  69    -0.080503097600
  70     0.000000665322
  71    -0.000000165439
  72    -0.001580968268
  73    -0.026423816607
  74     0.860397139059
  75    -0.066488563788
  76    -0.046306253359
  77    -0.131601204670
  78    -0.009299902554
  79    -0.026423575332
  80     0.860396480654
  81    -0.066492161290
  82    -0.046303956603
  83     0.131601455542
  84     0.009300256111
  85    -0.052299030491
  86    -0.676041724324
  87     0.320804491274
  88     0.140137749976
  89     0.071040576516
  90    -0.016501480773
  91    -0.052298782506
  92    -0.676041830134
  93     0.320802914852
  94     0.140136521559
  95    -0.071043077361
  96     0.016501474898
 Sym=     1a
 Ene= 2.94600837272750E+00
Spin= Alpha
 Occup= 0
  1      0.047142543794
  2     -0.050405504371
  3     -0.222585294881
  4      4.718459945143
  5      1.010538565936
  6      0.132290725424
  7     -0.000001323431
  8      0.000000115869
  9      1.725176842804
  10    -0.000015279682
  11     0.000002062085
  12     0.729155376538
  13    -0.000005863135
  14     0.000000944724
  15    -0.021881730233
  16     0.018693056448
  17     0.003188673785
  18     0.000000453558
  19    -0.000000051749
  20    -0.003076397207
  21     0.294789091222
  22     0.412155024132
  23    -0.706944115354
  24     0.000002193388
  25     0.000001153188
  26    -0.056937770325
  27    -0.101962202911
  28    -0.000001579156
  29     0.000000252582
  30     0.056293357652
  31     0.000002875911
  32    -0.000000340107
  33     0.080503292455
  34    -0.000000757251
  35     0.000000001232
  36     0.001581043343
  37     0.040640476899
  38    -0.171729273676
  39     1.572498472552
  40    -4.720911732330
  41    -1.911521833821
  42    -0.196749696269
  43     0.000001983189
  44    -0.000000073158
  45     2.158660923921
  46    -0.000022151321
  47     0.000001115680
  48     0.916998514003
  49    -0.000011520970
  50     0.000000485007
  51     0.557622694591
  52     0.573676488347
  53    -1.131299182938
  54     0.000000114375
  55    -0.000000087880
  56    -0.009855453687
  57    -1.581105678156
  58    -0.435970470620
  59     2.017076148776
  60     0.000014246663
  61    -0.000000307219
  62     0.054000467641
  63     0.166781918551
  64     0.000001253401
  65    -0.000000190910
  66    -0.063479704944
  67    -0.000003338675
  68     0.000000009702
  69    -0.160281719436
  70     0.000001657061
  71     0.000000246430
  72    -0.011524403579
  73    -0.052299261334
  74    -0.676041649215
  75     0.320803674278
  76    -0.140137623038
  77    -0.071040496471
  78     0.016501407821
  79    -0.052298749555
  80    -0.676041934379
  81     0.320803422784
  82    -0.140136619367
  83     0.071043088070
  84    -0.016501787450
  85    -0.026424081570
  86     0.860395797021
  87    -0.066488620637
  88     0.046306263398
  89     0.131601303873
  90     0.009299955770
  91    -0.026423562214
  92     0.860394308208
  93    -0.066491307762
  94     0.046304856419
  95    -0.131601813885
  96    -0.009299972268
 Sym=     1a
 Ene= 3.06723306944964E+00
Spin= Alpha
 Occup= 0
  1     -0.020979702364
  2      0.090467421205
  3     -1.188041614041
  4      5.509075225090
  5      1.420984699109
  6     -0.539915859017
  7      0.000005520775
  8     -0.000000550170
  9      5.086676349071
  10    -0.000044662470
  11     0.000004180676
  12     2.359547164544
  13    -0.000024375285
  14     0.000002609422
  15    -0.991669015207
  16     0.990113357065
  17     0.001555658142
  18    -0.000001355915
  19     0.000000076486
  20    -0.006060938085
  21     3.386476332761
  22    -2.826983519587
  23    -0.559492813174
  24    -0.000003842555
  25     0.000000662315
  26     0.106523525768
  27     0.200016535190
  28     0.000000181109
  29    -0.000000568511
  30    -0.079458798520
  31    -0.000002803310
  32     0.000000310267
  33    -0.188891543066
  34     0.000002560327
  35     0.000000452470
  36    -0.007979818967
  37    -0.137553750975
  38     0.163921068020
  39    -0.400645412513
  40    -6.458944623483
  41    -1.235693818365
  42     0.284129364127
  43    -0.000002150391
  44     0.000000201515
  45     4.097573763069
  46    -0.000068821464
  47     0.000004391234
  48     1.141646262278
  49    -0.000024080345
  50     0.000001239964
  51     0.034564174804
  52    -0.018978714231
  53    -0.015585460573
  54    -0.000000822227
  55     0.000000027742
  56    -0.000683451333
  57    -0.923641495783
  58     0.917774756322
  59     0.005866739461
  60     0.000047325918
  61    -0.000002873693
  62    -0.056399833054
  63    -0.296815512510
  64    -0.000006852378
  65     0.000000283018
  66     0.217964497057
  67     0.000010797038
  68    -0.000000752632
  69     0.180255300593
  70    -0.000001603609
  71     0.000000372924
  72    -0.003013337858
  73     0.111268677444
  74     1.001825634848
  75     0.458669449706
  76     0.228359070083
  77    -0.121829748187
  78    -0.001875023971
  79     0.111275880018
  80     1.001877865086
  81     0.458669687246
  82     0.228350271634
  83     0.121823219402
  84     0.001875763190
  85    -0.103982307991
  86    -0.318398534397
  87    -0.388509185059
  88     0.081672615825
  89     0.073307404423
  90    -0.011988145286
  91    -0.103979073540
  92    -0.318399017009
  93    -0.388525128647
  94     0.081680898585
  95    -0.073302370402
  96     0.011987599943
 Sym=     1a
 Ene= 3.06723404996959E+00
Spin= Alpha
 Occup= 0
  1     -0.137553707688
  2      0.163920863535
  3     -0.400645001246
  4     -6.458938607340
  5     -1.235693305589
  6     -0.284128964607
  7      0.000001948865
  8     -0.000000104429
  9     -4.097570188178
  10     0.000069797174
  11    -0.000004919278
  12    -1.141645176841
  13     0.000024758712
  14    -0.000001838492
  15     0.034564529065
  16    -0.018978929546
  17    -0.015585599519
  18    -0.000000740587
  19     0.000000058393
  20    -0.000683464164
  21    -0.923640333479
  22     0.917774259425
  23     0.005866074054
  24     0.000048171355
  25    -0.000002974327
  26    -0.056399941538
  27     0.296815905175
  28     0.000006763885
  29    -0.000000150047
  30    -0.217964890816
  31    -0.000010604252
  32     0.000000718378
  33    -0.180255433649
  34     0.000001529548
  35    -0.000000517069
  36     0.003013475678
  37    -0.020979702462
  38     0.090467469423
  39    -1.188041456272
  40     5.509071013978
  41     1.420984114062
  42     0.539915804434
  43    -0.000005161687
  44     0.000000402906
  45    -5.086671495337
  46     0.000042738292
  47    -0.000003295840
  48    -2.359546811560
  49     0.000023231335
  50    -0.000001720238
  51    -0.991669506224
  52     0.990113705883
  53     0.001555800341
  54    -0.000001285841
  55     0.000000056645
  56    -0.006060906506
  57     3.386474151162
  58    -2.826981600352
  59    -0.559492550810
  60    -0.000003267710
  61     0.000000715603
  62     0.106522822338
  63    -0.200016123496
  64    -0.000000182269
  65     0.000000356691
  66     0.079458489082
  67     0.000002615734
  68    -0.000000372338
  69     0.188891300159
  70    -0.000002371195
  71    -0.000000106213
  72     0.007979769188
  73    -0.103982202947
  74    -0.318399415705
  75    -0.388508073450
  76    -0.081672684479
  77    -0.073307395505
  78     0.011988110977
  79    -0.103979409226
  80    -0.318398750401
  81    -0.388525749320
  82    -0.081680701501
  83     0.073302686019
  84    -0.011987904729
  85     0.111268927108
  86     1.001824690121
  87     0.458670237983
  88    -0.228359164666
  89     0.121829582123
  90     0.001875116452
  91     0.111275354564
  92     1.001875654619
  93     0.458669262574
  94    -0.228350269078
  95    -0.121823454391
  96    -0.001875588896
 Sym=     1a
 Ene= 3.08772033553485E+00
Spin= Alpha
 Occup= 0
  1      0.000000454093
  2     -0.000001732717
  3      0.000022638423
  4     -0.000103723516
  5     -0.000026060752
  6      0.000010422639
  7      0.041144527975
  8     -0.010477490112
  9     -0.000092094885
  10     0.079722275136
  11     0.035757758963
  12    -0.000045004748
  13    -0.205391458833
  14     0.052262958935
  15    -0.000001132479
  16     0.000001090077
  17     0.000000042402
  18    -1.223586576099
  19     0.008702427044
  20    -0.000000121075
  21    -0.000008215496
  22    -0.000002742854
  23     0.000010958350
  24     3.407773580659
  25    -0.123214910245
  26     0.000001269969
  27    -0.000002473660
  28    -0.084883086695
  29    -0.012765668647
  30    -0.000000533316
  31     0.061034355240
  32     0.007195998528
  33     0.000003852079
  34     0.052848255954
  35     0.009930943196
  36    -0.000000016093
  37     0.000002702725
  38    -0.000003251523
  39     0.000009594088
  40     0.000114871270
  41     0.000021569899
  42    -0.000005037225
  43     0.027833964661
  44    -0.002654812066
  45    -0.000092424703
  46    -1.538255550753
  47     0.050876895807
  48    -0.000027014758
  49    -0.676205789999
  50     0.017499069040
  51    -0.000000870379
  52     0.000000498062
  53     0.000000372317
  54    -0.013276066857
  55     0.000270219475
  56     0.000000014736
  57     0.000040599876
  58    -0.000042030350
  59     0.000001430474
  60     1.434668593308
  61    -0.057774570601
  62     0.000003089623
  63     0.000009055793
  64    -0.125457275357
  65    -0.006459524519
  66    -0.000009133554
  67     0.160599084702
  68    -0.003737324707
  69    -0.000003016068
  70     0.007719512879
  71     0.012403686263
  72     0.000000352075
  73    -0.197048937116
  74    -1.493698197878
  75    -0.003337815910
  76     0.317563447535
  77    -0.062034090511
  78     0.012134300589
  79     0.197045413796
  80     1.493664318596
  81     0.003320418343
  82    -0.317571806398
  83    -0.062033665465
  84     0.012134142067
  85    -0.072709112048
  86    -0.031011836626
  87     0.442270897844
  88    -0.231548663043
  89     0.158585069888
  90    -0.012101456068
  91     0.072715000894
  92     0.031028566807
  93    -0.442256161992
  94     0.231547137436
  95     0.158584750836
  96    -0.012101506714
 Sym=     1a
 Ene= 3.08772164858149E+00
Spin= Alpha
 Occup= 0
  1      0.000002654123
  2     -0.000003152801
  3      0.000008322129
  4      0.000120193392
  5      0.000022638205
  6      0.000004980051
  7     -0.027834104245
  8      0.002654844000
  9      0.000093359425
  10     1.538256649883
  11    -0.050876967211
  12     0.000027606613
  13     0.676205448057
  14    -0.017499446664
  15    -0.000000865588
  16     0.000000505257
  17     0.000000360331
  18    -0.013276307544
  19     0.000270230411
  20    -0.000000007815
  21     0.000041222460
  22    -0.000041249057
  23     0.000000026597
  24     1.434668448010
  25    -0.057774682760
  26     0.000002941061
  27    -0.000009041651
  28     0.125457639554
  29     0.006459556933
  30     0.000009042223
  31    -0.160599421013
  32     0.003737431858
  33     0.000003088425
  34    -0.007719665190
  35    -0.012403836902
  36    -0.000000471318
  37     0.000000496054
  38    -0.000001888586
  39     0.000024278499
  40    -0.000109954426
  41    -0.000027791446
  42    -0.000010207777
  43    -0.041144530428
  44     0.010477366810
  45     0.000092517977
  46    -0.079722968480
  47    -0.035757095962
  48     0.000044161127
  49     0.205390849772
  50    -0.052262458088
  51    -0.000001086930
  52     0.000001161586
  53    -0.000000074656
  54    -1.223587050145
  55     0.008702403877
  56    -0.000000012573
  57    -0.000009166025
  58    -0.000003305467
  59     0.000012471492
  60     3.407773259621
  61    -0.123214462993
  62     0.000000498925
  63     0.000002408817
  64     0.084883171262
  65     0.012765564130
  66     0.000000594638
  67    -0.061034376237
  68    -0.007195887400
  69    -0.000003826405
  70    -0.052848348416
  71    -0.009930914099
  72    -0.000000372813
  73    -0.072709352729
  74    -0.031012542966
  75     0.442270325635
  76     0.231548722009
  77    -0.158585241665
  78     0.012101472369
  79     0.072714167889
  80     0.031026690654
  81    -0.442256108483
  82    -0.231548036593
  83    -0.158584349133
  84     0.012101623885
  85    -0.197049003038
  86    -1.493695396697
  87    -0.003336827616
  88    -0.317563486709
  89     0.062034287375
  90    -0.012134299714
  91     0.197045700245
  92     1.493665923496
  93     0.003320093992
  94     0.317570999831
  95     0.062033070626
  96    -0.012133972134
 Sym=     1a
 Ene= 3.15618219051852E+00
Spin= Alpha
 Occup= 0
  1     -0.000000082956
  2      0.000000193445
  3     -0.000000400850
  4     -0.000005434744
  5     -0.000000913329
  6     -0.000000589075
  7      0.013318091662
  8      0.092641189638
  9     -0.000003368833
  10    -0.051357674888
  11     0.573921390355
  12    -0.000001336806
  13    -0.064542126315
  14     0.145978400219
  15    -0.000000180458
  16    -0.000000023844
  17     0.000000204302
  18     0.002666586427
  19     0.070657236642
  20    -0.000000659687
  21    -0.000001170972
  22    -0.000000492667
  23     0.000001663639
  24     0.014599386544
  25     0.558199108388
  26    -0.000005135464
  27    -0.000000671139
  28    -0.002867177437
  29    -0.197161091662
  30    -0.000000135867
  31    -0.001065813131
  32     0.287101591549
  33     0.000001036294
  34     0.004912535323
  35    -0.022582229465
  36    -0.000003340507
  37    -0.000000028250
  38     0.000000022739
  39    -0.000000962885
  40     0.000005429381
  41     0.000001355410
  42     0.000000058271
  43    -0.008019105661
  44     0.023828588774
  45    -0.000000634009
  46     0.260026136648
  47    -0.661803828328
  48    -0.000000060979
  49     0.107472345994
  50    -0.190251149544
  51     0.000000240453
  52    -0.000000222998
  53    -0.000000017455
  54     0.013036491954
  55     0.040472242000
  56    -0.000000414382
  57     0.000002911744
  58    -0.000002439206
  59    -0.000000472538
  60     0.143060898991
  61     0.457315435519
  62    -0.000004808195
  63     0.000000145223
  64     0.008821598453
  65     1.213394294144
  66     0.000000058405
  67     0.008980147519
  68    -0.923574814734
  69    -0.000000253243
  70    -0.020815563806
  71    -0.704364460396
  72     0.000002407921
  73    -0.002615284564
  74    -0.045546672588
  75    -0.012316144594
  76    -0.007733548267
  77    -0.006480714877
  78    -0.005110261657
  79     0.002615291078
  80     0.045548011248
  81     0.012315488889
  82     0.007733792213
  83    -0.006480973371
  84    -0.005110195306
  85    -0.064457288448
  86    -0.221251438090
  87    -0.018394323554
  88     0.035916586745
  89     0.058892145020
  90     0.175601176020
  91     0.064457345520
  92     0.221250475245
  93     0.018394663808
  94    -0.035915338475
  95     0.058892543107
  96     0.175600463857
 Sym=     1a
 Ene= 3.15618242775573E+00
Spin= Alpha
 Occup= 0
  1     -0.000000018677
  2     -0.000000023881
  3      0.000000234831
  4     -0.000001763239
  5     -0.000000406376
  6      0.000000097229
  7     -0.008019124385
  8      0.023828597683
  9     -0.000001362390
  10     0.260027988117
  11    -0.661804241485
  12    -0.000000058001
  13     0.107473169818
  14    -0.190251253825
  15    -0.000000249241
  16     0.000000316040
  17    -0.000000066799
  18    -0.013036587232
  19    -0.040472243514
  20     0.000000373897
  21    -0.000003314714
  22     0.000003585604
  23    -0.000000270890
  24    -0.143061788390
  25    -0.457315216091
  26     0.000004253744
  27     0.000000425516
  28     0.008821676714
  29     1.213394422843
  30    -0.000000368705
  31     0.008980158999
  32    -0.923574755505
  33    -0.000000202184
  34    -0.020815680284
  35    -0.704364692292
  36     0.000002486111
  37     0.000000112219
  38    -0.000000246868
  39     0.000000962572
  40     0.000003970170
  41     0.000000351267
  42    -0.000000636019
  43     0.013318190641
  44     0.092641175101
  45    -0.000003102392
  46    -0.051357911234
  47     0.573921350481
  48    -0.000000928049
  49    -0.064542543042
  50     0.145978451580
  51     0.000000157404
  52     0.000000019322
  53    -0.000000176726
  54    -0.002666591866
  55    -0.070657146105
  56     0.000000671578
  57     0.000001063949
  58     0.000000187359
  59    -0.000001251308
  60    -0.014599439354
  61    -0.558199163548
  62     0.000005327965
  63    -0.000000569734
  64    -0.002867170865
  65    -0.197161076197
  66    -0.000000231815
  67    -0.001065838184
  68     0.287101579126
  69     0.000000996193
  70     0.004912551559
  71    -0.022582237790
  72    -0.000003358231
  73     0.064457088985
  74     0.221251324064
  75     0.018394417502
  76     0.035916349324
  77     0.058891969219
  78     0.175601205331
  79    -0.064458376681
  80    -0.221253758211
  81    -0.018394926268
  82    -0.035916024279
  83     0.058893560178
  84     0.175600720204
  85     0.002615331970
  86     0.045547339639
  87     0.012316082670
  88    -0.007733670387
  89    -0.006480808986
  90    -0.005110259794
  91    -0.002615176976
  92    -0.045547822468
  93    -0.012315608022
  94     0.007733667316
  95    -0.006480902716
  96    -0.005110159703
 Sym=     1a
 Ene= 3.21993435262106E+00
Spin= Alpha
 Occup= 0
  1      0.000000120059
  2     -0.000000300609
  3      0.000000871957
  4      0.000006202568
  5      0.000000974710
  6      0.000001053750
  7      0.009310909746
  8     -0.134087931136
  9      0.000003542115
  10    -0.026554176663
  11    -0.780983721234
  12     0.000001414590
  13    -0.033304468266
  14    -0.177327353724
  15     0.000000377245
  16    -0.000000115149
  17    -0.000000262096
  18     0.002061560698
  19    -0.097212064217
  20     0.000001327100
  21     0.000002379753
  22    -0.000000424729
  23    -0.000001955024
  24     0.004295093193
  25    -0.785727508122
  26     0.000011286080
  27     0.000000980180
  28     0.000139426965
  29     0.178796049084
  30    -0.000000456879
  31    -0.001430136181
  32    -0.383522323475
  33    -0.000000858171
  34     0.001243075278
  35     0.143642251559
  36     0.000010122825
  37     0.000000091872
  38     0.000000072483
  39     0.000001612716
  40    -0.000010616817
  41    -0.000002487326
  42    -0.000000018173
  43    -0.003956530147
  44    -0.009607055136
  45     0.000002797302
  46     0.149105906408
  47     0.658917468553
  48     0.000001487113
  49     0.057612734809
  50     0.216356154240
  51     0.000000018417
  52    -0.000000160983
  53     0.000000142566
  54     0.006759139788
  55    -0.065090095421
  56     0.000000676608
  57     0.000000068321
  58    -0.000001186204
  59     0.000001117883
  60     0.066027149484
  61    -0.840579296263
  62     0.000008862278
  63     0.000000314362
  64     0.015459656765
  65    -0.126561157086
  66    -0.000000799065
  67    -0.009158330411
  68     1.191580117716
  69     0.000000377304
  70    -0.011582975650
  71    -1.021780507382
  72    -0.000001555741
  73    -0.004140379516
  74    -0.020509742676
  75     0.000749547777
  76    -0.000857293554
  77    -0.003270107839
  78    -0.021117872024
  79     0.004139874759
  80     0.020509313790
  81    -0.000748222978
  82     0.000857209260
  83    -0.003269602474
  84    -0.021117882094
  85    -0.040245435943
  86    -0.120572580341
  87    -0.000574542381
  88     0.040654425479
  89     0.022235697221
  90     0.130899964533
  91     0.040248099716
  92     0.120577642314
  93     0.000574198785
  94    -0.040654878357
  95     0.022238718457
  96     0.130907221046
 Sym=     1a
 Ene= 3.21993455742468E+00
Spin= Alpha
 Occup= 0
  1     -0.000000119317
  2     -0.000000091083
  3     -0.000002157203
  4      0.000014119951
  5      0.000003350824
  6      0.000000004810
  7     -0.003956559110
  8     -0.009607070557
  9      0.000002856695
  10     0.149107253579
  11     0.658917133243
  12     0.000001920901
  13     0.057613263786
  14     0.216356040483
  15    -0.000000014012
  16     0.000000223953
  17    -0.000000209941
  18    -0.006759191933
  19     0.065090138883
  20    -0.000000709833
  21    -0.000000359595
  22     0.000002104982
  23    -0.000001745387
  24    -0.066027462882
  25     0.840579354063
  26    -0.000009414448
  27     0.000000544192
  28     0.015459769907
  29    -0.126560989005
  30    -0.000001110070
  31    -0.009158403586
  32     1.191580103093
  33     0.000000379960
  34    -0.011583054271
  35    -1.021780718264
  36    -0.000001441014
  37    -0.000000094389
  38     0.000000243949
  39    -0.000000254944
  40    -0.000008106302
  41    -0.000001647000
  42     0.000000987052
  43     0.009310994161
  44    -0.134087973076
  45     0.000004302829
  46    -0.026554569200
  47    -0.780983597975
  48     0.000002132949
  49    -0.033304886160
  50    -0.177327313982
  51    -0.000000411867
  52     0.000000125726
  53     0.000000286141
  54    -0.002061568343
  55     0.097211946213
  56    -0.000001323927
  57    -0.000002709936
  58     0.000000341387
  59     0.000002368549
  60    -0.004294975356
  61     0.785727499474
  62    -0.000011128358
  63     0.000001080138
  64     0.000139415430
  65     0.178796023402
  66    -0.000000525798
  67    -0.001430149389
  68    -0.383522285573
  69    -0.000000923358
  70     0.001243103961
  71     0.143642248113
  72     0.000010090598
  73     0.040245228572
  74     0.120572275181
  75     0.000574823890
  76     0.040654180218
  77     0.022235574225
  78     0.130899905213
  79    -0.040248919676
  80    -0.120579830823
  81    -0.000574040005
  82    -0.040655745137
  83     0.022239222546
  84     0.130907713393
  85     0.004140405688
  86     0.020510252084
  87    -0.000749715161
  88    -0.000857386819
  89    -0.003270161999
  90    -0.021117888243
  91    -0.004139753193
  92    -0.020509246822
  93     0.000747803102
  94     0.000857220675
  95    -0.003269540382
  96    -0.021117889316
 Sym=     1a
 Ene= 3.23280246369279E+00
Spin= Alpha
 Occup= 0
  1     -0.001361921217
  2      0.002184667309
  3     -0.027924710810
  4      0.084400371529
  5      0.034000917307
  6     -0.002024483187
  7     -0.000000306720
  8      0.000002584619
  9      0.035839620194
  10    -0.000001263435
  11     0.000014616125
  12     0.057354366977
  13    -0.000000553777
  14     0.000003379085
  15     0.003564612184
  16    -0.001353844684
  17    -0.002210767500
  18    -0.000000248346
  19     0.000002057513
  20     0.021281318412
  21     0.030534138081
  22    -0.007217309521
  23    -0.023316828560
  24    -0.000001763038
  25     0.000016656599
  26     0.192296187191
  27     0.010252142292
  28     0.000000517843
  29    -0.000003358231
  30    -0.012960590945
  31    -0.000001176914
  32     0.000010991485
  33    -0.000794101304
  34     0.000000482155
  35    -0.000006485945
  36     0.226784483744
  37     0.003895903300
  38     0.004591475325
  39     0.048720856516
  40    -0.346120611548
  41    -0.080063770488
  42     0.007509117123
  43    -0.000000098346
  44     0.000000192823
  45    -0.099178620178
  46    -0.000000335967
  47    -0.000012410692
  48     0.003381666957
  49    -0.000000442190
  50    -0.000004013142
  51    -0.001343642064
  52    -0.007739853770
  53     0.009083495834
  54    -0.000000251610
  55     0.000001268292
  56     0.004995911424
  57     0.007868510324
  58    -0.074540875527
  59     0.066672365203
  60    -0.000002965522
  61     0.000016318551
  62     0.081422045224
  63     0.030087920027
  64     0.000000509790
  65     0.000002407921
  66    -0.051692555955
  67    -0.000000765774
  68    -0.000002962594
  69     0.011325375267
  70     0.000000081819
  71    -0.000000267971
  72     1.205235493440
  73    -0.011057105117
  74     0.001068622949
  75     0.017067124700
  76     0.002411427342
  77    -0.009502406212
  78    -0.002730520284
  79    -0.011057367638
  80     0.001068342885
  81     0.017067565618
  82     0.002411732161
  83     0.009502477648
  84     0.002731427418
  85     0.080697132045
  86     0.155239781529
  87    -0.003172730463
  88    -0.027712349551
  89    -0.068827642930
  90    -0.224094600039
  91     0.080695669821
  92     0.155236128282
  93    -0.003172470862
  94    -0.027710020177
  95     0.068827208707
  96     0.224089591596
 Sym=     1a
 Ene= 3.23280259051840E+00
Spin= Alpha
 Occup= 0
  1     -0.003895933550
  2     -0.004591499044
  3     -0.048721264212
  4      0.346123273547
  5      0.080064372242
  6      0.007509111360
  7     -0.000000104721
  8      0.000000204407
  9     -0.099179054854
  10     0.000001943838
  11    -0.000012800279
  12     0.003381757719
  13     0.000000220388
  14    -0.000004186172
  15     0.001343646339
  16     0.007739919082
  17    -0.009083565421
  18     0.000000118777
  19    -0.000001255527
  20    -0.004995960907
  21    -0.007868584918
  22     0.074541442021
  23    -0.066672857103
  24     0.000001089410
  25    -0.000016274230
  26    -0.081422464882
  27     0.030088122111
  28     0.000000543079
  29     0.000002486111
  30    -0.051692862068
  31    -0.000000643773
  32    -0.000002915689
  33     0.011325410255
  34    -0.000000084843
  35    -0.000000419779
  36     1.205235599051
  37     0.001361934323
  38    -0.002184701274
  39     0.027925089033
  40    -0.084401639589
  41    -0.034001366493
  42    -0.002024484608
  43    -0.000000256711
  44     0.000002558319
  45     0.035839881488
  46    -0.000001084036
  47     0.000014685170
  48     0.057354685615
  49    -0.000000637459
  50     0.000003417414
  51    -0.003564631443
  52     0.001353847370
  53     0.002210784073
  54     0.000000228615
  55    -0.000002056476
  56    -0.021281290534
  57    -0.030534244664
  58     0.007217108861
  59     0.023317135803
  60     0.000001384983
  61    -0.000016771014
  62    -0.192296047986
  63     0.010252208273
  64     0.000000527635
  65    -0.000003340507
  66    -0.012960657523
  67    -0.000001196019
  68     0.000011007503
  69    -0.000794123248
  70     0.000000488123
  71    -0.000006525743
  72     0.226784465956
  73    -0.080696902594
  74    -0.155238755425
  75     0.003172841919
  76    -0.027712358458
  77    -0.068827271238
  78    -0.224094749304
  79    -0.080696945814
  80    -0.155239379556
  81     0.003172432415
  82    -0.027710309727
  83     0.068828533298
  84     0.224089681995
  85     0.011057154383
  86    -0.001068094955
  87    -0.017067346530
  88     0.002411404943
  89    -0.009502522500
  90    -0.002730467894
  91     0.011057313433
  92    -0.001068024405
  93    -0.017067574825
  94     0.002411542912
  95     0.009502397797
  96     0.002731594405
 Sym=     1a
 Ene= 3.23863381301027E+00
Spin= Alpha
 Occup= 0
  1      0.000000507124
  2     -0.000001159093
  3      0.000003388406
  4      0.000025971436
  5      0.000003643811
  6      0.000003263122
  7     -0.032119004890
  8      0.003832606955
  9      0.000017608593
  10     0.503787455711
  11    -0.026439536655
  12     0.000006214496
  13     0.398648997818
  14    -0.025717740594
  15     0.000000909827
  16    -0.000000353907
  17    -0.000000555920
  18     0.014830930861
  19     0.000390765893
  20     0.000000012116
  21     0.000006003750
  22    -0.000001764991
  23    -0.000004238759
  24     0.150667546440
  25    -0.001847439047
  26     0.000000039603
  27     0.000003337621
  28    -0.006180624806
  29     0.004484525858
  30    -0.000001384689
  31     0.122690327689
  32    -0.002025551351
  33    -0.000003093200
  34    -0.114398149364
  35    -0.003991071448
  36     0.000000445593
  37     0.000000047611
  38    -0.000000158038
  39     0.000003644912
  40    -0.000020711057
  41    -0.000005178364
  42    -0.000000419711
  43     0.051984869245
  44    -0.000778745195
  45     0.000005809104
  46    -1.636485844945
  47     0.085303296668
  48     0.000000540998
  49    -0.642224264219
  50     0.041527215848
  51    -0.000001267609
  52     0.000001088169
  53     0.000000179440
  54    -0.052025595538
  55     0.003900765109
  56    -0.000000046514
  57    -0.000016157075
  58     0.000012026624
  59     0.000004130451
  60    -0.566556846259
  61     0.029406440513
  62    -0.000000204978
  63    -0.000001429633
  64    -0.685380422359
  65    -0.019001923073
  66     0.000002464668
  67    -0.424779103878
  68     0.003589731224
  69    -0.000000546614
  70     1.344313432783
  71     0.021904023792
  72     0.000000074690
  73     0.013707239975
  74     0.240795016799
  75     0.065365434797
  76     0.040991160781
  77     0.031781473720
  78    -0.006104131284
  79    -0.013706871156
  80    -0.240800202568
  81    -0.065362309597
  82    -0.040991917401
  83     0.031782522819
  84    -0.006104234192
  85     0.340316778202
  86     1.168855308533
  87     0.097556478106
  88    -0.188895876637
  89    -0.235719073643
  90     0.068341022279
  91    -0.340320219479
  92    -1.168858420148
  93    -0.097558426146
  94     0.188891447521
  95    -0.235723931150
  96     0.068341555067
 Sym=     1a
 Ene= 3.23863393369190E+00
Spin= Alpha
 Occup= 0
  1     -0.000000010409
  2      0.000000082671
  3     -0.000002830994
  4      0.000018268839
  5      0.000004360614
  6     -0.000000404237
  7      0.051984759961
  8     -0.000778729342
  9      0.000004964806
  10    -1.636487428963
  11     0.085303840515
  12     0.000000207987
  13    -0.642225043648
  14     0.041527471085
  15     0.000001327694
  16    -0.000001171814
  17    -0.000000155880
  18     0.052025663497
  19    -0.003900792264
  20     0.000000120732
  21     0.000016842789
  22    -0.000013174068
  23    -0.000003668721
  24     0.566556647377
  25    -0.029406611292
  26     0.000000972064
  27    -0.000001568764
  28    -0.685380687737
  29    -0.019002029402
  30     0.000002577559
  31    -0.424778888069
  32     0.003589740397
  33    -0.000000472840
  34     1.344313573016
  35     0.021904157275
  36    -0.000000077451
  37    -0.000000535251
  38     0.000001195111
  39    -0.000003885878
  40    -0.000024370151
  41    -0.000003145243
  42     0.000003303279
  43    -0.032119096557
  44     0.003832628489
  45     0.000016969219
  46     0.503787750781
  47    -0.026439506570
  48     0.000005918846
  49     0.398649310308
  50    -0.025717755306
  51    -0.000000909023
  52     0.000000372918
  53     0.000000536105
  54    -0.014830913765
  55    -0.000390758965
  56    -0.000000024932
  57    -0.000006023034
  58     0.000002106008
  59     0.000003917026
  60    -0.150667821048
  61     0.001847528546
  62    -0.000000327839
  63     0.000003313121
  64    -0.006180671876
  65     0.004484510333
  66    -0.000001414874
  67     0.122690381868
  68    -0.002025563767
  69    -0.000003030144
  70    -0.114398140391
  71    -0.003991038203
  72     0.000000440145
  73    -0.340316832652
  74    -1.168855808281
  75    -0.097556452045
  76    -0.188895668028
  77    -0.235718769126
  78     0.068340801149
  79     0.340320291801
  80     1.168860069339
  81     0.097559045620
  82     0.188891688851
  83    -0.235724553929
  84     0.068342786580
  85    -0.013707199422
  86    -0.240795300151
  87    -0.065365449512
  88     0.040991290815
  89     0.031781503532
  90    -0.006104129741
  91     0.013706828383
  92     0.240799798804
  93     0.065362470280
  94    -0.040991816142
  95     0.031782424417
  96    -0.006104140618
 Sym=     1a
 Ene= 3.42234105666649E+00
Spin= Alpha
 Occup= 0
  1      0.001832892058
  2     -0.017472068730
  3      0.297136808777
  4     -1.644580148288
  5     -0.407256773137
  6      0.087552713753
  7     -0.000000393920
  8     -0.000000006915
  9     -2.104376813568
  10     0.000004271237
  11     0.000001092519
  12    -0.598899600039
  13    -0.000000429843
  14     0.000000484477
  15    -0.056599976721
  16     0.047888823823
  17     0.008711152898
  18     0.000001620650
  19     0.000000036482
  20    -0.003042778614
  21    -0.891194588092
  22     0.572858650636
  23     0.318335937456
  24     0.000020903936
  25     0.000000442143
  26    -0.014175408068
  27    -0.764680455622
  28     0.000001171593
  29    -0.000000184568
  30    -0.366786497198
  31    -0.000001099017
  32     0.000000424196
  33     1.392712985099
  34    -0.000000472840
  35    -0.000000176572
  36     0.010338637783
  37     0.059944431838
  38    -0.135923889933
  39     0.488684735083
  40     2.405216963228
  41     0.262806320453
  42    -0.383536121075
  43     0.000003383407
  44    -0.000000574474
  45    -1.244123217243
  46     0.000017362923
  47    -0.000003155913
  48    -0.206084085190
  49     0.000005892740
  50    -0.000000836709
  51     0.064653275810
  52    -0.010727792997
  53    -0.053925482813
  54    -0.000000951110
  55     0.000000316655
  56    -0.001235065808
  57     0.317385679730
  58     0.070223880198
  59    -0.387609559928
  60    -0.000004374162
  61     0.000002331651
  62    -0.017045253333
  63    -0.071327498404
  64     0.000002294106
  65     0.000000946003
  66    -0.102588553757
  67     0.000000015333
  68    -0.000001313042
  69     0.198284434814
  70    -0.000003093200
  71     0.000000043845
  72    -0.000724911938
  73    -0.228274690819
  74    -0.360786004463
  75    -0.100120818867
  76    -0.029007201558
  77    -0.143078392042
  78     0.038701052323
  79    -0.228268332039
  80    -0.360764042299
  81    -0.100119473243
  82    -0.029001341121
  83     0.143074516793
  84    -0.038700504619
  85     0.014815683991
  86    -0.232053616351
  87     0.159496222538
  88     0.062638638900
  89     0.009909813381
  90    -0.000336524442
  91     0.014816206485
  92    -0.232048322808
  93     0.159497249532
  94     0.062637280263
  95    -0.009910185336
  96     0.000336406133
 Sym=     1a
 Ene= 3.42234121041571E+00
Spin= Alpha
 Occup= 0
  1     -0.059944437996
  2      0.135923917839
  3     -0.488684683731
  4     -2.405217965472
  5     -0.262806450704
  6     -0.383536142674
  7      0.000003332809
  8     -0.000000557887
  9     -1.244123351283
  10     0.000017097752
  11    -0.000003012176
  12    -0.206084115105
  13     0.000005775731
  14    -0.000000867792
  15    -0.064653371437
  16     0.010727801674
  17     0.053925569763
  18     0.000000957114
  19    -0.000000324316
  20     0.001235075137
  21    -0.317385531285
  22    -0.070224158572
  23     0.387609689857
  24     0.000004537294
  25    -0.000002379636
  26     0.017045396814
  27    -0.071327540581
  28     0.000002235813
  29     0.000000909396
  30    -0.102588512722
  31     0.000000030486
  32    -0.000001340020
  33     0.198284450366
  34    -0.000003030144
  35     0.000000119937
  36    -0.000724932083
  37    -0.001832880140
  38     0.017472021721
  39    -0.297136649469
  40     1.644580301045
  41     0.407256812989
  42     0.087552771801
  43    -0.000000364867
  44     0.000000018578
  45    -2.104377320324
  46     0.000004807331
  47     0.000001259512
  48    -0.598899959410
  49    -0.000000266347
  50     0.000000565871
  51     0.056599966827
  52    -0.047888790765
  53    -0.008711176062
  54    -0.000001558488
  55    -0.000000023945
  56     0.003042756649
  57     0.891194605452
  58    -0.572858641565
  59    -0.318335963887
  60    -0.000020282305
  61    -0.000000334286
  62     0.014175292268
  63    -0.764680514560
  64     0.000001063799
  65    -0.000000231178
  66    -0.366786498235
  67    -0.000000880622
  68     0.000000453364
  69     1.392713065210
  70    -0.000000546614
  71    -0.000000143206
  72     0.010338605843
  73    -0.014815552936
  74     0.232053359860
  75    -0.159495880358
  76     0.062638678710
  77     0.009909777395
  78    -0.000336501611
  79    -0.014816118720
  80     0.232049157952
  81    -0.159497686575
  82     0.062637504689
  83    -0.009910366000
  84     0.000336447265
  85     0.228274477362
  86     0.360785291050
  87     0.100121296689
  88    -0.029007213181
  89    -0.143078432949
  90     0.038701160506
  91     0.228268601581
  92     0.360764932029
  93     0.100119283998
  94    -0.029001646815
  95     0.143074507630
  96    -0.038699897338
 Sym=     1a
 Ene= 3.53360660536711E+00
Spin= Alpha
 Occup= 0
  1     -0.000001818624
  2      0.000004428447
  3     -0.000010922131
  4     -0.000107492407
  5     -0.000017979913
  6     -0.000015177222
  7     -0.165659646826
  8      0.000168801710
  9     -0.000063389956
  10    -1.011461703641
  11     0.003973415117
  12    -0.000026174411
  13    -0.311949250813
  14     0.006986751866
  15    -0.000005348888
  16     0.000003617045
  17     0.000001731843
  18    -0.120189308478
  19     0.000097653495
  20    -0.000000035687
  21    -0.000034485742
  22     0.000022268246
  23     0.000012217496
  24    -0.880972766506
  25    -0.006203583109
  26     0.000000190606
  27    -0.000015249806
  28     0.267902663990
  29     0.000153017642
  30     0.000021242586
  31    -0.456605757129
  32    -0.001016611979
  33    -0.000000782825
  34     0.097176616308
  35     0.000811317270
  36    -0.000001012566
  37    -0.000001151847
  38    -0.000000675535
  39    -0.000024029376
  40     0.000154477645
  41     0.000036717414
  42     0.000000580209
  43    -0.033511560478
  44     0.001640161598
  45    -0.000036758014
  46     1.091196987431
  47    -0.020685269071
  48    -0.000018137110
  49     0.404207307336
  50    -0.010208604550
  51     0.000001496412
  52     0.000001457695
  53    -0.000002954107
  54    -0.056611743233
  55    -0.001719012691
  56    -0.000000340190
  57     0.000018951343
  58     0.000013247541
  59    -0.000032198884
  60    -0.644795762676
  61    -0.028976024143
  62    -0.000003239905
  63    -0.000002548550
  64    -1.138452666243
  65     0.003560288835
  66     0.000004469876
  67     1.619004266750
  68    -0.012230424828
  69    -0.000001050638
  70    -0.091609736219
  71     0.007453796115
  72    -0.000000702694
  73     0.026194051994
  74    -0.096073718636
  75    -0.093361963154
  76    -0.044410125556
  77    -0.024443051304
  78    -0.000147334250
  79    -0.026188418652
  80     0.096087698617
  81     0.093341360636
  82     0.044412436401
  83    -0.024450214035
  84    -0.000146786758
  85    -0.015870473190
  86    -0.242542315181
  87    -0.121304682023
  88    -0.186266406437
  89     0.184007655912
  90    -0.001445738447
  91     0.015841887137
  92     0.242481340536
  93     0.121313067546
  94     0.186282090383
  95     0.183985895450
  96    -0.001443346269
 Sym=     1a
 Ene= 3.53360668700976E+00
Spin= Alpha
 Occup= 0
  1      0.000001172982
  2      0.000000753478
  3      0.000024556016
  4     -0.000159758317
  5     -0.000037887606
  6      0.000000631214
  7     -0.033511517196
  8      0.001640157199
  9     -0.000037371832
  10     1.091195696671
  11    -0.020685240173
  12    -0.000019096567
  13     0.404206772783
  14    -0.010208614169
  15    -0.000001545536
  16    -0.000001536773
  17     0.000003082309
  18     0.056611826163
  19     0.001719025396
  20     0.000000336026
  21    -0.000019533504
  22    -0.000013740646
  23     0.000033274150
  24     0.644795744336
  25     0.028976248160
  26     0.000003288749
  27    -0.000002686887
  28    -1.138452871222
  29     0.003560272205
  30     0.000004861984
  31     1.619004282664
  32    -0.012230489467
  33    -0.000001257147
  34    -0.091609477125
  35     0.007453883066
  36    -0.000000626953
  37     0.000001820106
  38    -0.000004430297
  39     0.000010510818
  40     0.000110478660
  41     0.000018804836
  42    -0.000015090702
  43    -0.165659770294
  44     0.000168810346
  45    -0.000065190056
  46    -1.011460638500
  47     0.003973205886
  48    -0.000027433860
  49    -0.311948761157
  50     0.006986663288
  51     0.000005419901
  52    -0.000003639592
  53    -0.000001780309
  54     0.120189140361
  55    -0.000097658005
  56     0.000000045812
  57     0.000035358435
  58    -0.000022734390
  59    -0.000012624045
  60     0.880972766030
  61     0.006203650790
  62    -0.000000147639
  63    -0.000015348021
  64     0.267902679813
  65     0.000153037411
  66     0.000021342425
  67    -0.456605704841
  68    -0.001016620168
  69    -0.000000750894
  70     0.097176542791
  71     0.000811298935
  72    -0.000000995960
  73     0.015870747864
  74     0.242543258935
  75     0.121303897298
  76    -0.186266368554
  77     0.184007936593
  78    -0.001445739741
  79    -0.015840625620
  80    -0.242479396837
  81    -0.121313448127
  82     0.186283195637
  83     0.183985398135
  84    -0.001443294641
  85    -0.026194072880
  86     0.096073025152
  87     0.093362577699
  88    -0.044410154566
  89    -0.024442948891
  90    -0.000147345311
  91     0.026188355212
  92    -0.096086972624
  93    -0.093340763266
  94     0.044412186726
  95    -0.024450292744
  96    -0.000146779983
 Sym=     1a
 Ene= 4.03225689806498E+00
Spin= Alpha
 Occup= 0
  1      0.062881501817
  2     -0.152207079854
  3      0.333450016398
  4      4.004111303980
  5      0.701441404210
  6      0.473579434152
  7     -0.000009427207
  8      0.000000477142
  9      1.987899605138
  10    -0.000046511157
  11     0.000002110972
  12     0.876959557876
  13    -0.000016510905
  14     0.000001035407
  15     0.121435381927
  16    -0.058473502952
  17    -0.062961878975
  18    -0.000005454732
  19     0.000000236952
  20    -0.002402403643
  21     0.734974911148
  22    -0.260177605766
  23    -0.474797305382
  24    -0.000036155046
  25     0.000001289963
  26    -0.037184432264
  27     0.201283532469
  28     0.000014513543
  29    -0.000000016248
  30    -0.324806382906
  31    -0.000021715618
  32     0.000000628692
  33     0.054756186094
  34     0.000002243657
  35    -0.000000606893
  36     0.012406602716
  37     0.043863261649
  38     0.026349452032
  39     0.902549789206
  40    -5.809828372996
  41    -1.378561269379
  42    -0.033047384774
  43    -0.000000687192
  44     0.000000062224
  45     1.660344523475
  46     0.000012100911
  47     0.000000693027
  48     0.809196212118
  49     0.000001998989
  50     0.000000266230
  51    -0.087381962150
  52    -0.025575810590
  53     0.112957772740
  54    -0.000000958872
  55    -0.000000007929
  56     0.011933021532
  57    -1.066716364200
  58    -0.151882039831
  59     1.218598404031
  60    -0.000008453007
  61    -0.000000562456
  62     0.114836957285
  63     1.307678004078
  64     0.000004479954
  65     0.000000004625
  66    -1.773652645180
  67    -0.000003606126
  68     0.000000572314
  69     0.019218499301
  70    -0.000002404363
  71    -0.000000578519
  72     0.046066792587
  73    -0.098647278288
  74    -0.288199988626
  75     0.387698337367
  76    -0.055181182338
  77    -0.111154369457
  78     0.008795520049
  79    -0.098648588242
  80    -0.288196295888
  81     0.387704140332
  82    -0.055177095868
  83     0.111154054011
  84    -0.008795708197
  85     0.564835412714
  86     1.187744650927
  87    -0.163049845389
  88    -0.257727484373
  89    -0.358952889367
  90     0.048887674333
  91     0.564835931125
  92     1.187754544186
  93    -0.163044992923
  94    -0.257711652250
  95     0.358965504037
  96    -0.048887649504
 Sym=     1a
 Ene= 4.03225691553170E+00
Spin= Alpha
 Occup= 0
  1     -0.043863267224
  2     -0.026349532508
  3     -0.902549780242
  4      5.809831915842
  5      1.378561510683
  6     -0.033047538373
  7     -0.000000812137
  8      0.000000016408
  9      1.660345071880
  10     0.000014075440
  11    -0.000000323795
  12     0.809196368977
  13     0.000003346467
  14     0.000000100309
  15     0.087381943134
  16     0.025575967133
  17    -0.112957910267
  18     0.000000934280
  19     0.000000082116
  20    -0.011933125643
  21     1.066715959995
  22     0.151882861766
  23    -1.218598821761
  24     0.000008118806
  25     0.000001207024
  26    -0.114837684131
  27     1.307678125765
  28     0.000004809559
  29     0.000000395274
  30    -1.773652828053
  31    -0.000003912696
  32     0.000000563652
  33     0.019218518914
  34    -0.000002540004
  35    -0.000001093968
  36     0.046067072946
  37    -0.062881465528
  38     0.152207001182
  39    -0.333449444394
  40    -4.004112662482
  41    -0.701441869814
  42     0.473579390107
  43    -0.000009444064
  44     0.000000484519
  45     1.987900556031
  46    -0.000047002867
  47     0.000002291223
  48     0.876960279451
  49    -0.000016807150
  50     0.000000875559
  51    -0.121435268085
  52     0.058473443002
  53     0.062961825083
  54     0.000005450179
  55    -0.000000212142
  56     0.002402376854
  57    -0.734975490060
  58     0.260177906564
  59     0.474797583496
  60     0.000036224014
  61    -0.000001116211
  62     0.037184430916
  63     0.201283545017
  64     0.000014441502
  65    -0.000000116160
  66    -0.324806344756
  67    -0.000021604069
  68     0.000000626136
  69     0.054756131110
  70     0.000002228761
  71    -0.000000470291
  72     0.012406532826
  73    -0.564835904984
  74    -1.187744459390
  75     0.163050893966
  76    -0.257727431002
  77    -0.358952327080
  78     0.048887452289
  79    -0.564836135736
  80    -1.187757104327
  81     0.163044291747
  82    -0.257711389543
  83     0.358966933209
  84    -0.048888607650
  85     0.098646966931
  86     0.288200518913
  87    -0.387698889489
  88    -0.055181184379
  89    -0.111154476344
  90     0.008795537262
  91     0.098648750749
  92     0.288195621842
  93    -0.387703881178
  94    -0.055177280951
  95     0.111153789521
  96    -0.008795461607
 Sym=     1a
 Ene= 5.93699595757743E+00
Spin= Alpha
 Occup= 0
  1     -0.149242385513
  2      0.131150092857
  3     -0.428939349059
  4      7.103191889085
  5     -8.303249277519
  6     -0.104048723514
  7      0.000001004573
  8     -0.000000091067
  9      6.299931345707
  10    -0.000058057730
  11     0.000004786450
  12    -3.686329414159
  13     0.000040604495
  14    -0.000002946310
  15     0.172471762411
  16    -0.144530875879
  17    -0.027940886532
  18    -0.000003597898
  19     0.000000238880
  20     0.010319954352
  21     1.744806828203
  22    -1.164521470788
  23    -0.580285357415
  24    -0.000031135796
  25     0.000002242385
  26     0.051713920728
  27     0.070774864241
  28    -0.000001275848
  29    -0.000000337755
  30     0.073844261812
  31     0.000000322859
  32    -0.000000031656
  33    -0.168798706337
  34     0.000001388871
  35     0.000000484802
  36    -0.021477634205
  37     0.631304794521
  38    -0.915725848730
  39     3.228279939666
  40    -14.269464344041
  41     16.092293574739
  42    -0.125757030887
  43     0.000001228198
  44    -0.000000120599
  45     4.864488933641
  46    -0.000047955746
  47     0.000004202939
  48    -2.174952400334
  49     0.000020613362
  50    -0.000002693188
  51    -0.188031835407
  52    -0.071193808949
  53     0.259225644356
  54     0.000001067731
  55    -0.000000046470
  56     0.029247000346
  57    -1.579456730308
  58     0.821486356816
  59     0.757970373492
  60     0.000028649366
  61    -0.000002051827
  62    -0.005622217308
  63     0.375316640379
  64     0.000007164616
  65    -0.000000314500
  66    -0.371494467175
  67    -0.000010960728
  68     0.000000845991
  69    -0.132045645409
  70     0.000001348387
  71    -0.000000424045
  72     0.021194734494
  73     0.052607000677
  74     0.918191305910
  75    -0.572436411934
  76     0.135288516649
  77     0.191403908878
  78    -0.014587028865
  79     0.052607226191
  80     0.918188864338
  81    -0.572442798711
  82     0.135285088589
  83    -0.191406151112
  84     0.014587324269
  85    -0.028122640519
  86     1.055317726634
  87    -2.847612294303
  88    -0.148527086281
  89    -0.250884717008
  90     0.019120204674
  91    -0.028122339782
  92     1.055318247946
  93    -2.847611352205
  94    -0.148521545861
  95     0.250887712889
  96    -0.019120312204
 Sym=     1a
 Ene= 5.93713356971773E+00
Spin= Alpha
 Occup= 0
  1      0.631315302612
  2     -0.915737319787
  3      3.228271737943
  4     -14.269391115837
  5      16.092214309285
  6      0.125756208073
  7     -0.000001151228
  8      0.000000061459
  9     -4.864462947006
  10     0.000047748075
  11    -0.000003110438
  12     2.174937237511
  13    -0.000014106388
  14    -0.000000026693
  15    -0.188030301287
  16    -0.071193465031
  17     0.259223766318
  18     0.000001009890
  19    -0.000000112811
  20     0.029246935061
  21    -1.579446953525
  22     0.821483432701
  23     0.757963520824
  24     0.000027360210
  25    -0.000002222242
  26    -0.005622360395
  27    -0.375313411816
  28    -0.000007342073
  29     0.000000150280
  30     0.371490640788
  31     0.000011261652
  32    -0.000000849841
  33     0.132045140225
  34    -0.000001411227
  35     0.000000648219
  36    -0.021194579246
  37    -0.149240709657
  38     0.131148210947
  39    -0.428931392609
  40     7.103131992918
  41    -8.303178425677
  42     0.104049344875
  43    -0.000001104757
  44     0.000000069949
  45    -6.299899925162
  46     0.000059115600
  47    -0.000004157705
  48     3.686309350689
  49    -0.000047172051
  50     0.000003748484
  51     0.172469155778
  52    -0.144529637974
  53    -0.027939517804
  54    -0.000003398847
  55     0.000000294919
  56     0.010319974666
  57     1.744799251327
  58    -1.164517692835
  59    -0.580281558492
  60    -0.000031534653
  61     0.000002544840
  62     0.051713358312
  63    -0.070773616454
  64     0.000001136006
  65     0.000000149114
  66    -0.073845395692
  67    -0.000000099718
  68    -0.000000000575
  69     0.168798166134
  70    -0.000001424394
  71    -0.000000199482
  72     0.021477485566
  73    -0.028123335521
  74     1.055310767692
  75    -2.847599318614
  76     0.148525208145
  77     0.250881859784
  78    -0.019119917927
  79    -0.028123248027
  80     1.055308843872
  81    -2.847604177909
  82     0.148519811726
  83    -0.250884631186
  84     0.019120249384
  85     0.052606849065
  86     0.918191983669
  87    -0.572437517719
  88    -0.135288850612
  89    -0.191404130297
  90     0.014587147182
  91     0.052607556607
  92     0.918188796028
  93    -0.572451892636
  94    -0.135285962996
  95     0.191406147636
  96    -0.014587175611
 Sym=     1a
 Ene= 1.66844843258680E+01
Spin= Alpha
 Occup= 0
  1     -1.216898730022
  2      1.389102740199
  3      0.380945337672
  4     -5.401207461100
  5      9.054612638386
  6      0.060803867728
  7     -0.000000410368
  8      0.000000024492
  9     -0.865954660310
  10     0.000008833355
  11    -0.000000130813
  12     1.766872870681
  13    -0.000012981691
  14     0.000000425457
  15    -0.132378878903
  16    -0.078295782956
  17     0.210674661859
  18     0.000000408418
  19    -0.000000087716
  20     0.025578289439
  21    -0.357607851343
  22    -0.140633297853
  23     0.498241149196
  24     0.000003136397
  25    -0.000000407274
  26     0.056550119197
  27    -0.317910872704
  28    -0.000008365438
  29    -0.000000134140
  30     0.422260518046
  31     0.000011406775
  32    -0.000000843164
  33     0.004261675245
  34    -0.000000183362
  35     0.000001023131
  36    -0.036999264344
  37    -0.072564668891
  38     0.055500278712
  39    -0.316036730691
  40     3.149244814354
  41    -6.776626486595
  42    -0.091215781900
  43     0.000000731808
  44    -0.000000049282
  45    -1.579919838309
  46     0.000015708451
  47    -0.000001264534
  48     2.365731461247
  49    -0.000030115489
  50     0.000002549851
  51     0.243121094758
  52    -0.126910725580
  53    -0.116210369178
  54    -0.000004086353
  55     0.000000312141
  56     0.000947172158
  57     0.230411532581
  58    -0.030880764664
  59    -0.199530767917
  60    -0.000002920968
  61     0.000000234838
  62    -0.014928115330
  63    -0.072591439324
  64    -0.000001675230
  65     0.000000067552
  66     0.077192069679
  67     0.000002497863
  68    -0.000000200700
  69     0.020199566069
  70    -0.000000250306
  71     0.000000110070
  72    -0.005044703351
  73     0.129143228142
  74     1.050687284466
  75    -1.333213515759
  76     0.252736926385
  77     0.376806963450
  78    -0.028716777296
  79     0.129143065025
  80     1.050686614866
  81    -1.333216429964
  82     0.252729948865
  83    -0.376811591989
  84     0.028717405512
  85    -0.030238744179
  86    -0.048606935899
  87     0.240120557273
  88     0.046862670941
  89     0.017308015601
  90    -0.001319050275
  91    -0.030238240538
  92    -0.048607727719
  93     0.240111008550
  94     0.046862450124
  95    -0.017308601947
  96     0.001319043428
 Sym=     1a
 Ene= 1.66846292407234E+01
Spin= Alpha
 Occup= 0
  1     -0.072563663058
  2      0.055499416068
  3     -0.316032338083
  4      3.149179417166
  5     -6.776544990686
  6      0.091216864244
  7     -0.000000917417
  8      0.000000076667
  9      1.579863527746
  10    -0.000014619813
  11     0.000001051929
  12    -2.365696850072
  13     0.000024982341
  14    -0.000001655702
  15     0.243119452144
  16    -0.126909459019
  17    -0.116209993125
  18    -0.000004192610
  19     0.000000319760
  20     0.000947032344
  21     0.230395572822
  22    -0.030870240403
  23    -0.199525332419
  24    -0.000002348935
  25     0.000000168661
  26    -0.014928433065
  27     0.072590572082
  28     0.000001681787
  29    -0.000000012769
  30    -0.077192509099
  31    -0.000002489118
  32     0.000000179569
  33    -0.020197963122
  34     0.000000232765
  35    -0.000000162438
  36     0.005044856250
  37    -1.216904289636
  38     1.389110295991
  39     0.380919763369
  40    -5.401083099978
  41     9.054464158109
  42    -0.060802653216
  43     0.000000621574
  44    -0.000000054358
  45     0.865909706578
  46    -0.000009375073
  47     0.000001265616
  48    -1.766850196408
  49     0.000017713473
  50    -0.000001925186
  51    -0.132377179899
  52    -0.078295096901
  53     0.210672276800
  54     0.000000523549
  55     0.000000016294
  56     0.025577855811
  57    -0.357594107663
  58    -0.140640482711
  59     0.498234590374
  60     0.000004233000
  61    -0.000000154857
  62     0.056549833686
  63     0.317907512798
  64     0.000008117623
  65    -0.000000176441
  66    -0.422257337653
  67    -0.000011028074
  68     0.000000868066
  69    -0.004260347852
  70     0.000000137140
  71    -0.000000631346
  72     0.036998876753
  73    -0.030239154142
  74    -0.048614848549
  75     0.240121801642
  76    -0.046863738564
  77    -0.017309482165
  78     0.001319183392
  79    -0.030238912034
  80    -0.048614993126
  81     0.240118227992
  82    -0.046863610213
  83     0.017310189318
  84    -0.001319288314
  85     0.129143195428
  86     1.050678006768
  87    -1.333190732675
  88    -0.252735606123
  89    -0.376804861708
  90     0.028716719109
  91     0.129143216972
  92     1.050679146267
  93    -1.333189281550
  94    -0.252728885562
  95     0.376809367855
  96    -0.028716785060
