[Molden Format]
[Title]
CLPOs

[Atoms] AU
O    1   8          0.0000000000         0.0000000000         0.1182968560 
H    2   1         -1.4966630981         0.0000000000        -0.9397608064 
H    3   1          1.4966630981         0.0000000000        -0.9397608064 
[GTO]
  1 0 
s   5 1.0  
     2266.1767785000        -0.0053893504 
      340.8701019100        -0.0402347214 
       77.3631351670        -0.1800818421 
       21.4796449400        -0.4682885766 
        6.6589433124        -0.4469261716 
s   1 1.0  
        0.8097597567         1.0000000000 
s   1 1.0  
        0.2553077223         0.9999999999 
p   3 1.0  
       17.7215043170         0.0626302488 
        3.8635505440         0.3333113849 
        1.0480920883         0.7414863830 
p   1 1.0  
        0.2764154441         1.0000000002 
d   1 1.0  
        1.2000000000         1.0000000000 

  2 0 
s   3 1.0  
       13.0107010000         0.0334854848 
        1.9622572000         0.2347218709 
        0.4445379600         0.8137702852 
s   1 1.0  
        0.1219496200         0.9999999999 
p   1 1.0  
        0.8000000000         1.0000000000 

  3 0 
s   3 1.0  
       13.0107010000         0.0334854848 
        1.9622572000         0.2347218709 
        0.4445379600         0.8137702852 
s   1 1.0  
        0.1219496200         0.9999999999 
p   1 1.0  
        0.8000000000         1.0000000000 

[5D]
[MO]
 Sym=     1a
 Ene=  0.00000000000000E+00
Spin= Alpha
 Occup=-0.000000
  1       0.272069225588
  2       1.667407262175
  3      -2.590594179436
  4      -0.023183447939
  5      -0.000000000126
  6       0.213641401418
  7       0.003441696157
  8       0.000000000134
  9       0.297853031181
 10       0.277911569619
 11       0.071114613155
 12       0.000000000124
 13       0.144822143419
 14       0.000000000000
 15       0.435295081177
 16       0.416915863689
 17       0.015322836483
 18       0.000000000006
 19       0.013292544684
 20       0.478975641629
 21       0.412405597650
 22      -0.035310679881
 23       0.000000000006
 24       0.024751360736
 Sym=     1a
 Ene=  1.00000000000000E+00
Spin= Alpha
 Occup= 1.997086
  1       0.320267764239
  2       0.465065186186
  3       0.395173350428
  4       0.000060800719
  5      -0.000000000001
  6       0.416894198155
  7       0.000038655972
  8      -0.000000000001
  9       0.330744877693
 10      -0.020195358983
 11      -0.000004094184
 12       0.000000000000
 13       0.003319627295
 14      -0.000000000000
 15      -0.078258905298
 16      -0.010930066727
 17       0.001036566062
 18       0.000000000000
 19      -0.000913885769
 20      -0.078288040444
 21      -0.010931692776
 22      -0.001035267716
 23       0.000000000000
 24      -0.000914148999
 Sym=     1a
 Ene=  2.00000000000000E+00
Spin= Alpha
 Occup= 1.999945
  1      -0.975575624948
  2       0.049485435473
  3       0.015636764126
  4       0.000008619007
  5       0.000000000000
  6       0.063509849373
  7       0.000005479805
  8       0.000000000000
  9       0.049109393138
 10      -0.003009085290
 11      -0.000000580385
 12      -0.000000000000
 13      -0.001049103382
 14      -0.000000000000
 15      -0.019758033112
 16      -0.004392056971
 17       0.000091151954
 18      -0.000000000000
 19      -0.000012651007
 20      -0.019762163261
 21      -0.004392287477
 22      -0.000090967902
 23      -0.000000000000
 24      -0.000012688322
 Sym=     1a
 Ene=  3.00000000000000E+00
Spin= Alpha
 Occup=-0.000000
  1       0.002591444213
  2      -0.008660102733
  3       0.131835438714
  4       0.560104370464
  5       0.473325837996
  6      -0.001990497337
  7      -1.094776191975
  8      -0.501441363706
  9      -0.073123150344
 10      -0.055542652595
 11      -0.141305257884
 12      -0.500601213952
 13       0.218116196721
 14      -0.000000000000
 15      -0.440302365277
 16      -0.204319610678
 17       0.007578495438
 18      -0.026291310737
 19      -0.028648774992
 20       0.244815026711
 21       0.185653153953
 22       0.042515494706
 23      -0.026291310737
 24      -0.023543446884
 Sym=     1a
 Ene=  4.00000000000000E+00
Spin= Alpha
 Occup=-0.000000
  1      -0.004326064119
  2      -0.015061475000
  3       0.003105651043
  4      -0.594059133061
  5       0.462724952679
  6      -0.068240975510
  7       1.244961603065
  8      -0.490130720887
  9       0.083495369920
 10      -0.029773808376
 11       0.019226668128
 12      -0.493037278258
 13       0.043933204991
 14      -0.000000000000
 15       0.445308876191
 16       0.222875372252
 17      -0.009735129523
 18      -0.025963096973
 19       0.006485274338
 20      -0.425543728279
 21      -0.214021005532
 22      -0.007535816687
 23      -0.025963096973
 24      -0.022290058624
 Sym=     1a
 Ene=  5.00000000000000E+00
Spin= Alpha
 Occup=-0.000000
  1      -0.020367941746
  2      -0.354053843878
  3       1.171461090156
  4      -0.040220391828
  5       0.013983403112
  6       0.872157064704
  7       0.101482158460
  8      -0.013743951090
  9      -1.462667728007
 10       0.096592814532
 11      -0.025496377814
 12      -0.063541877740
 13      -0.025833115075
 14      -0.000000000000
 15      -0.520862234109
 16      -0.205011345596
 17      -0.036071787304
 18      -0.004259897704
 19       0.026402591490
 20      -0.609401705831
 21      -0.239366904597
 22       0.042258107809
 23      -0.004259897704
 24       0.019662625579
 Sym=     1a
 Ene=  6.00000000000000E+00
Spin= Alpha
 Occup= 1.998951
  1      -0.082937447863
  2      -0.254064405580
  3      -0.049486302412
  4       0.350374978922
  5      -0.000000000000
  6       0.251431191213
  7       0.175131356230
  8       0.000000000000
  9       0.142578822356
 10      -0.009554957937
 11      -0.018333564541
 12       0.000000000000
 13      -0.002763772407
 14      -0.000000000000
 15      -0.409178901971
 16      -0.076032619268
 17      -0.046044844144
 18      -0.000000000000
 19      -0.026097769545
 20       0.039701490476
 21       0.004133503156
 22       0.008703893957
 23      -0.000000000000
 24       0.000554919092
 Sym=     1a
 Ene=  7.00000000000000E+00
Spin= Alpha
 Occup= 0.000347
  1       0.141214103300
  2       0.450250161703
  3       0.361872454599
  4      -0.504731524350
  5       0.000000000000
  6      -0.341581668413
  7      -0.399889998051
  8       0.000000000000
  9      -0.303435915508
 10       0.009252611259
 11       0.042710568756
 12      -0.000000000000
 13       0.025723736163
 14      -0.000000000000
 15      -1.250658759294
 16      -0.169472293615
 17      -0.085407536140
 18      -0.000000000000
 19      -0.047446957397
 20       0.014073146331
 21      -0.007485507813
 22       0.000294668303
 23      -0.000000000000
 24       0.001454987961
 Sym=     1a
 Ene=  8.00000000000000E+00
Spin= Alpha
 Occup= 1.997641
  1       0.000000000001
  2       0.000000000001
  3       0.000000000001
  4       0.000000000000
  5       0.633107920240
  6       0.000000000001
  7      -0.000000000000
  8       0.518845255752
  9       0.000000000000
 10      -0.000000000000
 11       0.000000000000
 12      -0.024818764853
 13       0.000000000000
 14      -0.000000000000
 15      -0.000000000000
 16      -0.000000000000
 17       0.000000000000
 18      -0.000442695343
 19      -0.000000000000
 20      -0.000000000000
 21      -0.000000000000
 22      -0.000000000000
 23      -0.000442695343
 24      -0.000000000000
 Sym=     1a
 Ene=  9.00000000000000E+00
Spin= Alpha
 Occup= 1.998951
  1      -0.082920570543
  2      -0.254021114963
  3      -0.049447630865
  4      -0.350375392934
  5      -0.000000000000
  6       0.251470932531
  7      -0.175131298165
  8      -0.000000000000
  9       0.142609366111
 10      -0.009556532020
 11       0.018333674704
 12       0.000000000000
 13      -0.002763709122
 14      -0.000000000000
 15       0.039693566686
 16       0.004133272902
 17      -0.008703853273
 18       0.000000000000
 19       0.000554838632
 20      -0.409184349737
 21      -0.076038047860
 22       0.046045601499
 23       0.000000000000
 24      -0.026096123445
 Sym=     1a
 Ene=  1.00000000000000E+01
Spin= Alpha
 Occup= 0.000347
  1       0.141203855157
  2       0.450222745164
  3       0.361853097629
  4       0.504730925268
  5       0.000000000000
  6      -0.341605139626
  7       0.399890149815
  8      -0.000000000000
  9      -0.303456137273
 10       0.009254329444
 11      -0.042710391935
 12       0.000000000000
 13       0.025723172715
 14      -0.000000000000
 15       0.014077077784
 16      -0.007483459854
 17      -0.000294820349
 18       0.000000000000
 19       0.001455047185
 20      -1.250650761262
 21      -0.169478868647
 22       0.085409013367
 23       0.000000000000
 24      -0.047444035104
 Sym=     1a
 Ene=  1.10000000000000E+01
Spin= Alpha
 Occup=-0.000000
  1      -0.087995540159
  2      -0.623956022811
  3       1.386027388569
  4      -0.041920615595
  5      -0.050475290553
  6      -0.113284696524
  7       0.167798317013
  8       0.053481444292
  9      -0.358443027997
 10       0.745420923102
 11      -0.123253165306
 12       0.053022878865
 13       0.684726047297
 14       0.000000000000
 15      -0.409658865579
 16      -0.148593155272
 17      -0.116721770225
 18       0.002777900203
 19      -0.004731123602
 20      -0.608652537072
 21      -0.201630466283
 22       0.149706392079
 23       0.002777900203
 24      -0.029043106995
 Sym=     1a
 Ene=  1.20000000000000E+01
Spin= Alpha
 Occup= 0.000000
  1      -0.028766428431
  2      -0.165200498522
  3       0.199724198420
  4       0.055616726380
  5       0.071063589645
  6      -0.017392207836
  7      -0.856546067956
  8      -0.075302035984
  9      -0.004976526866
 10       0.227228984620
 11       1.151608130445
 12      -0.074371637330
 13      -0.138615217283
 14      -0.000000000000
 15      -0.676914964071
 16      -0.160742089279
 17      -0.164559560032
 18      -0.003891064187
 19      -0.074489206410
 20       0.677713312916
 21       0.085713124842
 22      -0.150415042597
 23      -0.003891064187
 24       0.134444878466
 Sym=     1a
 Ene=  1.30000000000000E+01
Spin= Alpha
 Occup=-0.000000
  1      -0.000700290271
  2      -0.011901497567
  3       0.039133289165
  4      -0.002841096270
  5       0.694037385160
  6       0.028903085218
  7       0.007019878761
  8      -0.767324044628
  9      -0.048564790679
 10       0.003444510506
 11      -0.001569338315
 12       0.726677675604
 13      -0.000824088659
 14       0.000000000000
 15      -0.015815042622
 16      -0.006217112394
 17      -0.001136113664
 18       0.065810663330
 19       0.000995078642
 20      -0.021813590390
 21      -0.008602639012
 22       0.001509511885
 23       0.065810663330
 24       0.000560406094
 Sym=     1a
 Ene=  1.40000000000000E+01
Spin= Alpha
 Occup=-0.000000
  1       0.009227035508
  2      -0.049040319095
  3       0.559389456160
  4      -0.067632039089
  5      -0.092265135070
  6       0.045723823400
  7      -0.055913238251
  8       0.097733746602
  9      -0.351114990536
 10      -0.626489861838
 11       0.310259892025
 12       0.098125528106
 13       0.847813178943
 14       0.000000000000
 15      -0.520640562092
 16      -0.050767246100
 17      -0.086848939412
 18       0.005163789541
 19      -0.157742714625
 20      -0.279745175943
 21      -0.045604478202
 22       0.000322278621
 23       0.005163789541
 24      -0.105932754623
 Sym=     1a
 Ene=  1.50000000000000E+01
Spin= Alpha
 Occup= 0.000000
  1      -0.000000000000
  2      -0.000000000000
  3       0.000000000000
  4       0.000000000000
  5      -0.000000000000
  6       0.000000000000
  7      -0.000000000000
  8       0.000000000000
  9      -0.000000000000
 10       0.000000000000
 11       0.000000000000
 12      -0.000000000000
 13      -0.000000000000
 14       1.038502990167
 15      -0.000000000000
 16      -0.000000000000
 17      -0.000000000000
 18       0.091968432102
 19       0.000000000000
 20      -0.000000000000
 21      -0.000000000000
 22      -0.000000000000
 23      -0.091968432102
 24       0.000000000000
 Sym=     1a
 Ene=  1.60000000000000E+01
Spin= Alpha
 Occup= 0.001509
  1       0.011426903057
  2       0.199304548597
  3      -0.579526257198
  4      -0.132875069963
  5      -0.000000000000
  6      -0.078248985102
  7       0.048319664566
  8      -0.000000000001
  9       0.245258616835
 10      -0.106886815544
 11       0.040840216076
 12       0.000000000000
 13       0.079141066298
 14       0.000000000000
 15      -0.732582667928
 16       1.508305784752
 17       0.252118150046
 18       0.000000000001
 19      -0.556990379932
 20       0.106345705536
 21      -0.297615600602
 22      -0.015902085354
 23       0.000000000000
 24      -0.001965221876
 Sym=     1a
 Ene=  1.70000000000000E+01
Spin= Alpha
 Occup= 0.000018
  1      -0.078897886788
  2      -0.286955258060
  3      -1.452622194504
  4       0.431312161209
  5      -0.000000000000
  6       0.327366697878
  7       0.703764256943
  8      -0.000000000000
  9       0.659174452219
 10      -0.043237730065
 11      -0.390323349546
 12       0.000000000000
 13      -0.291285888629
 14       0.000000000000
 15       1.099736068666
 16       0.752629206988
 17       1.461712640329
 18       0.000000000000
 19       0.829978911285
 20       0.189629541078
 21      -0.102782675848
 22      -0.059679444006
 23       0.000000000000
 24      -0.031842525598
 Sym=     1a
 Ene=  1.80000000000000E+01
Spin= Alpha
 Occup= 0.001180
  1      -0.000000000000
  2      -0.000000000000
  3       0.000000000001
  4       0.000000000000
  5      -0.011210886936
  6       0.000000000000
  7      -0.000000000000
  8      -0.409196286059
  9      -0.000000000000
 10       0.000000000000
 11      -0.000000000000
 12       0.145901652902
 13      -0.000000000000
 14       0.183062487174
 15       0.000000000001
 16      -0.000000000002
 17      -0.000000000000
 18       1.129826570637
 19       0.000000000001
 20      -0.000000000000
 21       0.000000000000
 22       0.000000000000
 23       0.052186310255
 24       0.000000000000
 Sym=     1a
 Ene=  1.90000000000000E+01
Spin= Alpha
 Occup= 0.000658
  1      -0.006825523532
  2      -0.016458035784
  3      -0.156741442951
  4      -0.007056970572
  5      -0.000000000000
  6      -0.007659495609
  7       0.693682787882
  8      -0.000000000000
  9      -0.365048871595
 10       0.173987894996
 11      -0.014853769715
 12       0.000000000000
 13      -0.074098275881
 14       0.000000000000
 15      -0.323844089992
 16       1.089109226652
 17      -0.412206649097
 18       0.000000000000
 19       0.907392222719
 20      -0.411914472479
 21      -0.319965677875
 22       0.055306457949
 23       0.000000000000
 24      -0.018290533839
 Sym=     1a
 Ene=  2.00000000000000E+01
Spin= Alpha
 Occup= 0.001523
  1       0.009815796726
  2       0.193558618471
  3      -0.608816539457
  4       0.127682227260
  5       0.000000000000
  6      -0.074598350301
  7      -0.117614910211
  8       0.000000000000
  9       0.220355876576
 10      -0.091733969617
 11      -0.034588571984
 12      -0.000000000000
 13       0.068756530611
 14       0.000000000000
 15       0.072118913162
 16      -0.325775611069
 17       0.011719897390
 18      -0.000000000000
 19      -0.003952647360
 20      -0.744628743601
 21       1.607150717164
 22      -0.232897020599
 23      -0.000000000000
 24      -0.465018677724
 Sym=     1a
 Ene=  2.10000000000000E+01
Spin= Alpha
 Occup= 0.000111
  1       0.069978438561
  2       0.254190512736
  3       1.294175206906
  4       0.397983159864
  5      -0.000000000000
  6      -0.303458775208
  7       0.385013594931
  8      -0.000000000000
  9      -0.754064173336
 10       0.109006317675
 11      -0.353798007654
 12       0.000000000000
 13       0.238785652846
 14      -0.000000000000
 15      -0.335363076584
 16      -0.021076451571
 17      -0.076660178307
 18       0.000000000000
 19       0.022435047351
 20      -1.123173246117
 21      -0.311248844418
 22       1.513318469366
 23       0.000000000000
 24      -0.406088382668
 Sym=     1a
 Ene=  2.20000000000000E+01
Spin= Alpha
 Occup= 0.001180
  1      -0.000000000000
  2      -0.000000000000
  3      -0.000000000000
  4      -0.000000000000
  5      -0.011210886936
  6       0.000000000000
  7       0.000000000000
  8      -0.409196286059
  9       0.000000000000
 10      -0.000000000000
 11       0.000000000000
 12       0.145901652902
 13      -0.000000000000
 14      -0.183062487173
 15       0.000000000000
 16       0.000000000000
 17       0.000000000000
 18       0.052186310255
 19       0.000000000000
 20       0.000000000000
 21      -0.000000000000
 22      -0.000000000001
 23       1.129826570637
 24      -0.000000000000
 Sym=     1a
 Ene=  2.30000000000000E+01
Spin= Alpha
 Occup= 0.000552
  1      -0.037532869069
  2      -0.142335191836
  3      -0.651905536632
  4      -0.170419436534
  5      -0.000000000000
  6       0.125293741246
  7      -0.903739959118
  8      -0.000000000000
  9      -0.103698413718
 10       0.152540413762
 11       0.166947556700
 12       0.000000000000
 13      -0.186695746621
 14      -0.000000000000
 15      -0.315075897196
 16      -0.308128881469
 17      -0.029311715689
 18       0.000000000000
 19      -0.028868622458
 20       0.187061556497
 21       1.160940821048
 22      -0.160335875895
 23       0.000000000000
 24       1.200547433459
