[Molden Format]
[Title]
NAOs

[Atoms] AU
O    1   8          0.0000000000         0.0000000000         0.1182968560 
H    2   1         -1.4966630981         0.0000000000        -0.9397608064 
H    3   1          1.4966630981         0.0000000000        -0.9397608064 
[GTO]
  1 0 
s   5 1.0  
     2266.1767785000        -0.0053893504 
      340.8701019100        -0.0402347214 
       77.3631351670        -0.1800818421 
       21.4796449400        -0.4682885766 
        6.6589433124        -0.4469261716 
s   1 1.0  
        0.8097597567         1.0000000000 
s   1 1.0  
        0.2553077223         0.9999999999 
p   3 1.0  
       17.7215043170         0.0626302488 
        3.8635505440         0.3333113849 
        1.0480920883         0.7414863830 
p   1 1.0  
        0.2764154441         1.0000000002 
d   1 1.0  
        1.2000000000         1.0000000000 

  2 0 
s   3 1.0  
       13.0107010000         0.0334854848 
        1.9622572000         0.2347218709 
        0.4445379600         0.8137702852 
s   1 1.0  
        0.1219496200         0.9999999999 
p   1 1.0  
        0.8000000000         1.0000000000 

  3 0 
s   3 1.0  
       13.0107010000         0.0334854848 
        1.9622572000         0.2347218709 
        0.4445379600         0.8137702852 
s   1 1.0  
        0.1219496200         0.9999999999 
p   1 1.0  
        0.8000000000         1.0000000000 

[MO]
 Sym=     1a
 Ene= -2.03858861277005E+01
Spin= Alpha
 Occup= 2
  1     -1.013099891703
  2     -0.022369485285
  3     -0.044010158653
  4     -0.000000000000
  5      0.000000000000
  6     -0.002068731378
  7     -0.000000000000
  8      0.000000000000
  9     -0.004297940511
  10     0.000223872744
  11    -0.000261938131
  12     0.000038065387
  13     0.000000000000
  14     0.000000000000
  15     0.000000000000
  16    -0.008673870061
  17    -0.002797225967
  18    -0.000241824198
  19     0.000000000000
  20    -0.000057467149
  21    -0.008673870061
  22    -0.002797225967
  23     0.000241824198
  24     0.000000000000
  25    -0.000057467149
 Sym=     1a
 Ene= -1.12712293810801E+00
Spin= Alpha
 Occup= 2
  1      0.260407469708
  2      0.772591898905
  3      0.513017185696
  4     -0.000000000000
  5      0.000000000000
  6     -0.076311306635
  7     -0.000000000000
  8      0.000000000000
  9     -0.048116056387
  10    -0.003277837383
  11     0.003835172530
  12    -0.000557335147
  13     0.000000000000
  14     0.000000000000
  15     0.000000000000
  16    -0.214762366103
  17    -0.025443511564
  18     0.003540673961
  19    -0.000000000000
  20     0.000841406448
  21    -0.214762366103
  22    -0.025443511564
  23    -0.003540673961
  24    -0.000000000000
  25     0.000841406448
 Sym=     1a
 Ene= -4.90060868236627E-01
Spin= Alpha
 Occup= 2
  1     -0.000000000000
  2      0.000000000000
  3      0.000000000000
  4     -0.000000000000
  5      0.654231357834
  6      0.000000000000
  7      0.000000000000
  8      0.494770630276
  9      0.000000000000
  10     0.000000000000
  11     0.000000000000
  12     0.000000000000
  13     0.000000000000
  14     0.000000000000
  15     0.000474414338
  16    -0.000000000000
  17    -0.000000000000
  18    -0.000000000000
  19     0.001793359403
  20    -0.000000000000
  21    -0.000000000000
  22    -0.000000000000
  23    -0.000000000000
  24     0.001793359403
  25    -0.000000000000
 Sym=     1a
 Ene= -4.11110975917724E-01
Spin= Alpha
 Occup= 2
  1     -0.021672211237
  2     -0.076507578961
  3     -0.026767602453
  4      0.000000000000
  5      0.000000000000
  6      0.698051773390
  7      0.000000000000
  8      0.000000000000
  9      0.516920718634
  10     0.001728271244
  11    -0.002613199654
  12     0.000884928410
  13     0.000000000000
  14     0.000000000000
  15     0.000000000000
  16     0.113500599558
  17     0.018964710795
  18    -0.002251030589
  19    -0.000000000000
  20     0.001251094662
  21     0.113500599558
  22     0.018964710795
  23     0.002251030589
  24     0.000000000000
  25     0.001251094662
 Sym=     1a
 Ene= -3.03560487721180E-01
Spin= Alpha
 Occup= 2
  1     -0.000000000000
  2     -0.000000000000
  3     -0.000000000000
  4      0.753755828872
  5      0.000000000000
  6      0.000000000000
  7      0.545167287201
  8      0.000000000000
  9      0.000000000000
  10     0.000000000000
  11     0.000000000000
  12     0.000000000000
  13     0.000000000000
  14     0.004795767031
  15     0.000000000000
  16     0.185683720615
  17     0.019302591628
  18     0.000099145191
  19    -0.000000000000
  20    -0.002462848620
  21    -0.185683720615
  22    -0.019302591628
  23     0.000099145191
  24    -0.000000000000
  25     0.002462848620
 Sym=     1a
 Ene= 2.46160064760108E-01
Spin= Alpha
 Occup= 0
  1     -0.072562094954
  2     -0.233859528319
  3     -0.187146324693
  4      0.221145812563
  5     -0.000000000000
  6      0.139912434906
  7      0.205213132219
  8     -0.000000000000
  9      0.141116148653
  10    -0.000646439954
  11     0.000657458480
  12    -0.000011018526
  13     0.000000000000
  14    -0.000527169607
  15     0.000000000000
  16     1.202288700244
  17     0.139096989645
  18    -0.002418272412
  19     0.000000000000
  20    -0.002007433697
  21    -0.045817297981
  22     0.009823435726
  23    -0.000631451033
  24    -0.000000000000
  25     0.000587844285
 Sym=     1a
 Ene= 2.46160064760148E-01
Spin= Alpha
 Occup= 0
  1     -0.072562094954
  2     -0.233859528320
  3     -0.187146324692
  4     -0.221145812563
  5     -0.000000000000
  6      0.139912434906
  7     -0.205213132218
  8      0.000000000000
  9      0.141116148653
  10    -0.000646439954
  11     0.000657458480
  12    -0.000011018526
  13     0.000000000000
  14     0.000527169607
  15     0.000000000000
  16    -0.045817297981
  17     0.009823435726
  18     0.000631451033
  19    -0.000000000000
  20     0.000587844285
  21     1.202288700244
  22     0.139096989645
  23     0.002418272412
  24     0.000000000000
  25    -0.002007433697
 Sym=     1a
 Ene= 4.58783318131447E-01
Spin= Alpha
 Occup= 0
  1      0.002987892708
  2      0.148806142706
  3     -0.630771473705
  4      0.099384120215
  5      0.000000000000
  6     -0.057507488116
  7     -0.436868979832
  8      0.000000000000
  9      0.039545948669
  10     0.013889243839
  11    -0.014125985071
  12     0.000236741232
  13     0.000000000000
  14    -0.011326631613
  15     0.000000000000
  16    -0.121272697764
  17    -0.425883470025
  18    -0.013567195716
  19     0.000000000000
  20    -0.012630272247
  21    -0.749530514787
  22     1.884566819351
  23    -0.051958383747
  24    -0.000000000000
  25     0.043131207989
 Sym=     1a
 Ene= 4.58783318132274E-01
Spin= Alpha
 Occup= 0
  1      0.002987892708
  2      0.148806142706
  3     -0.630771473705
  4     -0.099384120216
  5     -0.000000000000
  6     -0.057507488117
  7      0.436868979832
  8      0.000000000000
  9      0.039545948669
  10     0.013889243839
  11    -0.014125985071
  12     0.000236741232
  13     0.000000000000
  14     0.011326631613
  15     0.000000000000
  16    -0.749530514788
  17     1.884566819351
  18     0.051958383747
  19    -0.000000000000
  20     0.043131207989
  21    -0.121272697764
  22    -0.425883470025
  23     0.013567195716
  24     0.000000000000
  25    -0.012630272247
 Sym=     1a
 Ene= 1.20360074620351E+00
Spin= Alpha
 Occup= 0
  1     -0.000000000000
  2     -0.000000000000
  3      0.000000000000
  4     -0.000000000000
  5      0.953390082394
  6     -0.000000000000
  7      0.000000000000
  8     -1.058479501989
  9     -0.000000000000
  10     0.000000000000
  11     0.000000000000
  12     0.000000000000
  13     0.000000000000
  14     0.000000000000
  15     0.005212331023
  16     0.000000000000
  17    -0.000000000000
  18    -0.000000000000
  19     0.019703415569
  20    -0.000000000000
  21    -0.000000000000
  22    -0.000000000000
  23    -0.000000000000
  24     0.019703415569
  25    -0.000000000000
 Sym=     1a
 Ene= 1.24943746693749E+00
Spin= Alpha
 Occup= 0
  1      0.041903999404
  2      0.036148249875
  3      0.542349557864
  4      0.000000000000
  5      0.000000000000
  6      0.902521368038
  7     -0.000000000000
  8     -0.000000000000
  9     -1.369627631976
  10     0.018988300099
  11    -0.028710897914
  12     0.009722597815
  13     0.000000000000
  14     0.000000000000
  15     0.000000000000
  16    -0.450311844278
  17    -0.121403177519
  18    -0.024731791668
  19    -0.000000000000
  20     0.013745620644
  21    -0.450311844278
  22    -0.121403177519
  23     0.024731791668
  24     0.000000000000
  25     0.013745620644
 Sym=     1a
 Ene= 1.32659736542659E+00
Spin= Alpha
 Occup= 0
  1     -0.000000000000
  2     -0.000000000000
  3     -0.000000000000
  4      0.852379625540
  5      0.000000000000
  6      0.000000000000
  7     -1.749043985836
  8      0.000000000000
  9     -0.000000000000
  10     0.000000000000
  11     0.000000000000
  12     0.000000000000
  13     0.000000000000
  14     0.052690492834
  15     0.000000000000
  16    -0.637830807499
  17    -0.308204381739
  18     0.001089295821
  19    -0.000000000000
  20    -0.027059009896
  21     0.637830807499
  22     0.308204381739
  23     0.001089295821
  24    -0.000000000000
  25     0.027059009896
 Sym=     1a
 Ene= 1.41733859121660E+00
Spin= Alpha
 Occup= 0
  1      0.286369218370
  2      1.828595014495
  3     -3.104771132434
  4     -0.000000000000
  5     -0.000000000000
  6      0.023305885714
  7     -0.000000000000
  8      0.000000000000
  9      0.700184096774
  10    -0.070610857548
  11     0.082616917670
  12    -0.012006060122
  13     0.000000000000
  14     0.000000000000
  15     0.000000000000
  16     0.710909307432
  17     0.488857352820
  18     0.076272857839
  19    -0.000000000000
  20     0.018125496758
  21     0.710909307432
  22     0.488857352820
  23    -0.076272857839
  24    -0.000000000000
  25     0.018125496758
 Sym=     1a
 Ene= 1.94640388028849E+00
Spin= Alpha
 Occup= 0
  1      0.000000000000
  2     -0.000000000000
  3      0.000000000000
  4     -0.000000000000
  5     -0.011210886936
  6      0.000000000000
  7      0.000000000000
  8     -0.409196286059
  9     -0.000000000000
  10     0.000000000000
  11     0.000000000000
  12     0.000000000000
  13    -0.183062487173
  14     0.000000000000
  15     0.145901652902
  16     0.000000000000
  17     0.000000000000
  18     0.000000000000
  19     0.052186310255
  20     0.000000000000
  21    -0.000000000000
  22    -0.000000000000
  23     0.000000000000
  24     1.129826570637
  25    -0.000000000000
 Sym=     1a
 Ene= 1.94640388028909E+00
Spin= Alpha
 Occup= 0
  1      0.000000000000
  2      0.000000000000
  3      0.000000000000
  4     -0.000000000000
  5     -0.011210886936
  6     -0.000000000000
  7      0.000000000000
  8     -0.409196286059
  9     -0.000000000000
  10     0.000000000000
  11     0.000000000000
  12     0.000000000000
  13     0.183062487174
  14     0.000000000000
  15     0.145901652902
  16    -0.000000000000
  17    -0.000000000000
  18    -0.000000000000
  19     1.129826570637
  20    -0.000000000000
  21    -0.000000000000
  22     0.000000000000
  23     0.000000000000
  24     0.052186310255
  25    -0.000000000000
 Sym=     1a
 Ene= 2.28805227041586E+00
Spin= Alpha
 Occup= 0
  1     -0.049324520872
  2     -0.249081531218
  3     -0.510640515562
  4      0.265541847026
  5     -0.000000000000
  6      0.187957604003
  7      0.822529031287
  8      0.000000000000
  9     -0.081526235501
  10    -0.278094744993
  11     0.116907052647
  12     0.161187692346
  13     0.000000000000
  14    -0.211167167504
  15     0.000000000000
  16     0.661832670584
  17     0.425327453189
  18     0.246253220325
  19    -0.000000000000
  20     1.327737407106
  21    -0.271288276629
  22    -0.139603712255
  23     0.021203288183
  24     0.000000000000
  25    -0.027299305546
 Sym=     1a
 Ene= 2.28805227041586E+00
Spin= Alpha
 Occup= 0
  1     -0.049324520872
  2     -0.249081531218
  3     -0.510640515562
  4     -0.265541847026
  5     -0.000000000000
  6      0.187957604003
  7     -0.822529031287
  8      0.000000000000
  9     -0.081526235501
  10    -0.278094744993
  11     0.116907052647
  12     0.161187692346
  13     0.000000000000
  14     0.211167167504
  15     0.000000000000
  16    -0.271288276629
  17    -0.139603712255
  18    -0.021203288183
  19    -0.000000000000
  20    -0.027299305546
  21     0.661832670584
  22     0.425327453189
  23    -0.246253220325
  24    -0.000000000000
  25     1.327737407106
 Sym=     1a
 Ene= 2.60593367693953E+00
Spin= Alpha
 Occup= 0
  1     -0.069246765674
  2     -0.219483248764
  3     -1.362985381188
  4      0.370939827951
  5     -0.000000000000
  6      0.285668002959
  7      0.364426209011
  8      0.000000000000
  9      0.796542344206
  10    -0.116890247541
  11     0.249530700929
  12    -0.132640453388
  13     0.000000000000
  14    -0.332047608867
  15     0.000000000000
  16     1.024678664369
  17     0.556554151672
  18     1.521883145936
  19    -0.000000000000
  20     0.246253220325
  21     0.357209118476
  22    -0.023941926274
  23    -0.079131548587
  24     0.000000000000
  25    -0.021203288183
 Sym=     1a
 Ene= 2.60593367693953E+00
Spin= Alpha
 Occup= 0
  1      0.069246765674
  2      0.219483248764
  3      1.362985381188
  4      0.370939827951
  5     -0.000000000000
  6     -0.285668002959
  7      0.364426209011
  8     -0.000000000000
  9     -0.796542344206
  10     0.116890247541
  11    -0.249530700929
  12     0.132640453388
  13     0.000000000000
  14    -0.332047608867
  15     0.000000000000
  16    -0.357209118476
  17     0.023941926274
  18    -0.079131548587
  19     0.000000000000
  20     0.021203288183
  21    -1.024678664369
  22    -0.556554151672
  23     1.521883145936
  24     0.000000000000
  25    -0.246253220325
 Sym=     1a
 Ene= 3.07541360853959E+00
Spin= Alpha
 Occup= 0
  1     -0.000000000000
  2     -0.000000000000
  3      0.000000000000
  4     -0.000000000000
  5      0.000349394969
  6      0.000000000000
  7      0.000000000000
  8     -0.052466788376
  9     -0.000000000000
  10     0.000000000000
  11     0.000000000000
  12     0.000000000000
  13     0.000000000000
  14     0.000000000000
  15     1.021932047949
  16    -0.000000000000
  17    -0.000000000000
  18    -0.000000000000
  19     0.073299267729
  20     0.000000000000
  21    -0.000000000000
  22    -0.000000000000
  23     0.000000000000
  24     0.073299267729
  25    -0.000000000000
 Sym=     1a
 Ene= 3.11872759820289E+00
Spin= Alpha
 Occup= 0
  1     -0.000000000000
  2     -0.000000000000
  3     -0.000000000000
  4      0.000000000000
  5     -0.000000000000
  6     -0.000000000000
  7     -0.000000000000
  8      0.000000000000
  9      0.000000000000
  10     0.000000000000
  11     0.000000000000
  12     0.000000000000
  13     1.038502990167
  14     0.000000000000
  15     0.000000000000
  16     0.000000000000
  17     0.000000000000
  18    -0.000000000000
  19     0.091968432102
  20    -0.000000000000
  21     0.000000000000
  22     0.000000000000
  23    -0.000000000000
  24    -0.091968432102
  25     0.000000000000
 Sym=     1a
 Ene= 3.14194020161009E+00
Spin= Alpha
 Occup= 0
  1     -0.000544163551
  2     -0.017075894721
  3      0.075123164366
  4      0.000000000000
  5     -0.000000000000
  6      0.000098236367
  7     -0.000000000000
  8      0.000000000000
  9     -0.098443235816
  10    -0.533700850228
  11    -0.510645455297
  12     1.044346305525
  13     0.000000000000
  14     0.000000000000
  15     0.000000000000
  16    -0.045633087850
  17    -0.008047559112
  18    -0.066636997671
  19    -0.000000000000
  20     0.080978793460
  21    -0.045633087850
  22    -0.008047559112
  23     0.066636997671
  24    -0.000000000000
  25     0.080978793460
 Sym=     1a
 Ene= 3.43978421679034E+00
Spin= Alpha
 Occup= 0
  1      0.021328526769
  2     -0.016274967440
  3      0.657691200637
  4      0.000000000000
  5      0.000000000000
  6     -0.059669869503
  7      0.000000000000
  8     -0.000000000000
  9     -0.341286439476
  10     0.982506798290
  11    -0.969195759820
  12    -0.013311038470
  13     0.000000000000
  14     0.000000000000
  15     0.000000000000
  16    -0.496800570628
  17    -0.040614612842
  18    -0.106281846527
  19     0.000000000000
  20    -0.114571834963
  21    -0.496800570628
  22    -0.040614612842
  23     0.106281846527
  24     0.000000000000
  25    -0.114571834963
 Sym=     1a
 Ene= 3.69067821994258E+00
Spin= Alpha
 Occup= 0
  1     -0.000000000000
  2     -0.000000000000
  3     -0.000000000000
  4     -0.110606577436
  5      0.000000000000
  6      0.000000000000
  7     -0.649273617314
  8      0.000000000000
  9      0.000000000000
  10     0.000000000000
  11     0.000000000000
  12     0.000000000000
  13     0.000000000000
  14     1.209856213902
  15     0.000000000000
  16    -0.622363097241
  17    -0.081766257691
  18    -0.166816798144
  19     0.000000000000
  20    -0.106087891662
  21     0.622363097241
  22     0.081766257691
  23    -0.166816798144
  24    -0.000000000000
  25     0.106087891662
