[Molden Format]
[Title]
NAOs

[Atoms] AU
O    1   8          0.0000000000         0.0000000000         0.1182968560 
H    2   1         -1.4966630981         0.0000000000        -0.9397608064 
H    3   1          1.4966630981         0.0000000000        -0.9397608064 
[GTO]
  1 0 
s   5 1.0  
     2266.1767785000        -0.0053893504 
      340.8701019100        -0.0402347214 
       77.3631351670        -0.1800818421 
       21.4796449400        -0.4682885766 
        6.6589433124        -0.4469261716 
s   1 1.0  
        0.8097597567         1.0000000000 
s   1 1.0  
        0.2553077223         0.9999999999 
p   3 1.0  
       17.7215043170         0.0626302488 
        3.8635505440         0.3333113849 
        1.0480920883         0.7414863830 
p   1 1.0  
        0.2764154441         1.0000000002 
d   1 1.0  
        1.2000000000         1.0000000000 

  2 0 
s   3 1.0  
       13.0107010000         0.0334854848 
        1.9622572000         0.2347218709 
        0.4445379600         0.8137702852 
s   1 1.0  
        0.1219496200         0.9999999999 
p   1 1.0  
        0.8000000000         1.0000000000 

  3 0 
s   3 1.0  
       13.0107010000         0.0334854848 
        1.9622572000         0.2347218709 
        0.4445379600         0.8137702852 
s   1 1.0  
        0.1219496200         0.9999999999 
p   1 1.0  
        0.8000000000         1.0000000000 

[5D]
[MO]
 Sym=     1a
 Ene=  1.41733859498763E+00
Spin= Alpha
 Occup= 0.001349
  1       0.286369218370
  2       1.828595014495
  3      -3.104771132434
  4      -0.000000000000
  5      -0.000000000000
  6       0.023305885714
  7      -0.000000000000
  8       0.000000000000
  9       0.700184096774
 10      -0.012006060122
 11       0.000000000000
 12      -0.000000000000
 13      -0.088466097269
 14       0.000000000000
 15       0.710909307432
 16       0.488857352820
 17       0.076272857839
 18      -0.000000000000
 19       0.018125496758
 20       0.710909307432
 21       0.488857352820
 22      -0.076272857839
 23      -0.000000000000
 24       0.018125496758
 Sym=     1a
 Ene= -1.12712293870508E+00
Spin= Alpha
 Occup= 1.747167
  1       0.260407469708
  2       0.772591898905
  3       0.513017185696
  4      -0.000000000000
  5       0.000000000000
  6      -0.076311306635
  7      -0.000000000000
  8       0.000000000000
  9      -0.048116056387
 10      -0.000557335147
 11       0.000000000000
 12      -0.000000000000
 13      -0.004106698188
 14       0.000000000000
 15      -0.214762366103
 16      -0.025443511564
 17       0.003540673961
 18      -0.000000000000
 19       0.000841406448
 20      -0.214762366103
 21      -0.025443511564
 22      -0.003540673961
 23      -0.000000000000
 24       0.000841406448
 Sym=     1a
 Ene= -2.03858861274769E+01
Spin= Alpha
 Occup= 1.999870
  1      -1.013099891703
  2      -0.022369485285
  3      -0.044010158653
  4      -0.000000000000
  5       0.000000000000
  6      -0.002068731378
  7      -0.000000000000
  8       0.000000000000
  9      -0.004297940511
 10       0.000038065387
 11      -0.000000000000
 12       0.000000000000
 13       0.000280483040
 14      -0.000000000000
 15      -0.008673870061
 16      -0.002797225967
 17      -0.000241824198
 18       0.000000000000
 19      -0.000057467149
 20      -0.008673870061
 21      -0.002797225967
 22       0.000241824198
 23       0.000000000000
 24      -0.000057467149
 Sym=     1a
 Ene=  1.32659736299510E+00
Spin= Alpha
 Occup= 0.002465
  1      -0.000000000000
  2      -0.000000000000
  3      -0.000000000000
  4       0.852379625540
  5       0.000000000000
  6       0.000000000000
  7      -1.749043985836
  8       0.000000000000
  9      -0.000000000000
 10       0.000000000000
 11       0.052690492834
 12      -0.000000000000
 13      -0.000000000000
 14       0.000000000000
 15      -0.637830807499
 16      -0.308204381739
 17       0.001089295821
 18      -0.000000000000
 19      -0.027059009896
 20       0.637830807499
 21       0.308204381739
 22       0.001089295821
 23      -0.000000000000
 24       0.027059009896
 Sym=     1a
 Ene=  1.20360074704331E+00
Spin= Alpha
 Occup= 0.000947
  1      -0.000000000000
  2      -0.000000000000
  3       0.000000000000
  4      -0.000000000000
  5       0.953390082394
  6      -0.000000000000
  7       0.000000000000
  8      -1.058479501989
  9      -0.000000000000
 10      -0.000000000000
 11      -0.000000000000
 12       0.005212331023
 13       0.000000000000
 14      -0.000000000000
 15       0.000000000000
 16      -0.000000000000
 17      -0.000000000000
 18       0.019703415569
 19      -0.000000000000
 20      -0.000000000000
 21      -0.000000000000
 22      -0.000000000000
 23       0.019703415569
 24      -0.000000000000
 Sym=     1a
 Ene=  1.24943746503591E+00
Spin= Alpha
 Occup= 0.000341
  1       0.041903999404
  2       0.036148249875
  3       0.542349557864
  4       0.000000000000
  5       0.000000000000
  6       0.902521368038
  7      -0.000000000000
  8      -0.000000000000
  9      -1.369627631976
 10       0.009722597815
 11      -0.000000000000
 12       0.000000000000
 13       0.027539144813
 14      -0.000000000000
 15      -0.450311844278
 16      -0.121403177519
 17      -0.024731791668
 18      -0.000000000000
 19       0.013745620644
 20      -0.450311844278
 21      -0.121403177519
 22       0.024731791668
 23       0.000000000000
 24       0.013745620644
 Sym=     1a
 Ene= -3.03560487658675E-01
Spin= Alpha
 Occup= 1.436680
  1      -0.000000000000
  2      -0.000000000000
  3      -0.000000000000
  4       0.753755828872
  5       0.000000000000
  6       0.000000000000
  7       0.545167287201
  8       0.000000000000
  9       0.000000000000
 10       0.000000000000
 11       0.004795767031
 12      -0.000000000000
 13      -0.000000000000
 14       0.000000000000
 15       0.185683720615
 16       0.019302591628
 17       0.000099145191
 18      -0.000000000000
 19      -0.002462848620
 20      -0.185683720615
 21      -0.019302591628
 22       0.000099145191
 23      -0.000000000000
 24       0.002462848620
 Sym=     1a
 Ene= -4.90060868541943E-01
Spin= Alpha
 Occup= 1.995481
  1      -0.000000000000
  2       0.000000000000
  3       0.000000000000
  4      -0.000000000000
  5       0.654231357834
  6       0.000000000000
  7       0.000000000000
  8       0.494770630276
  9       0.000000000000
 10      -0.000000000000
 11      -0.000000000000
 12       0.000474414338
 13       0.000000000000
 14      -0.000000000000
 15      -0.000000000000
 16      -0.000000000000
 17      -0.000000000000
 18       0.001793359403
 19      -0.000000000000
 20      -0.000000000000
 21      -0.000000000000
 22      -0.000000000000
 23       0.001793359403
 24      -0.000000000000
 Sym=     1a
 Ene= -4.11110975891627E-01
Spin= Alpha
 Occup= 1.735299
  1      -0.021672211237
  2      -0.076507578961
  3      -0.026767602453
  4       0.000000000000
  5       0.000000000000
  6       0.698051773390
  7       0.000000000000
  8       0.000000000000
  9       0.516920718634
 10       0.000884928410
 11      -0.000000000000
 12       0.000000000000
 13       0.002506549392
 14      -0.000000000000
 15       0.113500599558
 16       0.018964710795
 17      -0.002251030589
 18      -0.000000000000
 19       0.001251094662
 20       0.113500599558
 21       0.018964710795
 22       0.002251030589
 23       0.000000000000
 24       0.001251094662
 Sym=     1a
 Ene=  3.14194020191822E+00
Spin= Alpha
 Occup= 0.001329
  1      -0.000544163551
  2      -0.017075894721
  3       0.075123164366
  4       0.000000000000
  5      -0.000000000000
  6       0.000098236367
  7      -0.000000000000
  8       0.000000000000
  9      -0.098443235816
 10       1.044346305525
 11      -0.000000000000
 12      -0.000000000000
 13      -0.013311038470
 14       0.000000000000
 15      -0.045633087850
 16      -0.008047559112
 17      -0.066636997671
 18      -0.000000000000
 19       0.080978793460
 20      -0.045633087850
 21      -0.008047559112
 22       0.066636997671
 23      -0.000000000000
 24       0.080978793460
 Sym=     1a
 Ene=  3.69067821987653E+00
Spin= Alpha
 Occup= 0.003591
  1      -0.000000000000
  2      -0.000000000000
  3      -0.000000000000
  4      -0.110606577436
  5       0.000000000000
  6       0.000000000000
  7      -0.649273617314
  8       0.000000000000
  9       0.000000000000
 10      -0.000000000000
 11       1.209856213902
 12      -0.000000000000
 13      -0.000000000000
 14       0.000000000000
 15      -0.622363097241
 16      -0.081766257691
 17      -0.166816798144
 18       0.000000000000
 19      -0.106087891662
 20       0.622363097241
 21       0.081766257691
 22      -0.166816798144
 23      -0.000000000000
 24       0.106087891662
 Sym=     1a
 Ene=  3.07541360883339E+00
Spin= Alpha
 Occup= 0.001213
  1      -0.000000000000
  2      -0.000000000000
  3       0.000000000000
  4      -0.000000000000
  5       0.000349394969
  6       0.000000000000
  7       0.000000000000
  8      -0.052466788376
  9      -0.000000000000
 10      -0.000000000000
 11      -0.000000000000
 12       1.021932047949
 13       0.000000000000
 14      -0.000000000000
 15      -0.000000000000
 16      -0.000000000000
 17      -0.000000000000
 18       0.073299267729
 19       0.000000000000
 20      -0.000000000000
 21      -0.000000000000
 22       0.000000000000
 23       0.073299267729
 24      -0.000000000000
 Sym=     1a
 Ene=  3.43978421568823E+00
Spin= Alpha
 Occup= 0.001014
  1       0.021328526769
  2      -0.016274967440
  3       0.657691200637
  4       0.000000000000
  5       0.000000000000
  6      -0.059669869503
  7       0.000000000000
  8      -0.000000000000
  9      -0.341286439476
 10      -0.013311038470
 11      -0.000000000000
 12       0.000000000000
 13       1.126815997303
 14      -0.000000000000
 15      -0.496800570628
 16      -0.040614612842
 17      -0.106281846527
 18       0.000000000000
 19      -0.114571834963
 20      -0.496800570628
 21      -0.040614612842
 22       0.106281846527
 23       0.000000000000
 24      -0.114571834963
 Sym=     1a
 Ene=  3.11872759770058E+00
Spin= Alpha
 Occup= 0.000000
  1      -0.000000000000
  2      -0.000000000000
  3      -0.000000000000
  4       0.000000000000
  5      -0.000000000000
  6      -0.000000000000
  7      -0.000000000000
  8       0.000000000000
  9       0.000000000000
 10       0.000000000000
 11       0.000000000000
 12      -0.000000000000
 13      -0.000000000000
 14       1.038502990167
 15       0.000000000000
 16       0.000000000000
 17      -0.000000000000
 18       0.091968432102
 19      -0.000000000000
 20       0.000000000000
 21       0.000000000000
 22      -0.000000000000
 23      -0.091968432102
 24       0.000000000000
 Sym=     1a
 Ene=  4.58783315406639E-01
Spin= Alpha
 Occup= 0.001374
  1       0.002987892708
  2       0.148806142706
  3      -0.630771473705
  4      -0.099384120216
  5      -0.000000000000
  6      -0.057507488117
  7       0.436868979832
  8       0.000000000000
  9       0.039545948669
 10       0.000236741232
 11       0.011326631613
 12      -0.000000000000
 13       0.016174599953
 14      -0.000000000000
 15      -0.749530514788
 16       1.884566819351
 17       0.051958383747
 18      -0.000000000000
 19       0.043131207989
 20      -0.121272697764
 21      -0.425883470025
 22       0.013567195716
 23       0.000000000000
 24      -0.012630272247
 Sym=     1a
 Ene=  2.46160064149926E-01
Spin= Alpha
 Occup= 0.530811
  1      -0.072562094954
  2      -0.233859528319
  3      -0.187146324693
  4       0.221145812563
  5      -0.000000000000
  6       0.139912434906
  7       0.205213132219
  8      -0.000000000000
  9       0.141116148653
 10      -0.000011018526
 11      -0.000527169607
 12       0.000000000000
 13      -0.000752806112
 14       0.000000000000
 15       1.202288700244
 16       0.139096989645
 17      -0.002418272412
 18       0.000000000000
 19      -0.002007433697
 20      -0.045817297981
 21       0.009823435726
 22      -0.000631451033
 23      -0.000000000000
 24       0.000587844285
 Sym=     1a
 Ene=  2.60593367411579E+00
Spin= Alpha
 Occup= 0.002094
  1      -0.069246765674
  2      -0.219483248764
  3      -1.362985381188
  4       0.370939827951
  5      -0.000000000000
  6       0.285668002959
  7       0.364426209011
  8       0.000000000000
  9       0.796542344206
 10      -0.132640453388
 11      -0.332047608867
 12      -0.000000000000
 13      -0.211553233236
 14      -0.000000000000
 15       1.024678664369
 16       0.556554151672
 17       1.521883145936
 18      -0.000000000000
 19       0.246253220325
 20       0.357209118476
 21      -0.023941926274
 22      -0.079131548587
 23       0.000000000000
 24      -0.021203288183
 Sym=     1a
 Ene=  1.94640388088379E+00
Spin= Alpha
 Occup= 0.001180
  1       0.000000000000
  2       0.000000000000
  3       0.000000000000
  4      -0.000000000000
  5      -0.011210886936
  6      -0.000000000000
  7       0.000000000000
  8      -0.409196286059
  9      -0.000000000000
 10      -0.000000000000
 11       0.000000000000
 12       0.145901652902
 13       0.000000000000
 14       0.183062487174
 15      -0.000000000000
 16      -0.000000000000
 17      -0.000000000000
 18       1.129826570637
 19      -0.000000000000
 20      -0.000000000000
 21       0.000000000000
 22       0.000000000000
 23       0.052186310255
 24      -0.000000000000
 Sym=     1a
 Ene=  2.28805226989815E+00
Spin= Alpha
 Occup= 0.001169
  1      -0.049324520872
  2      -0.249081531218
  3      -0.510640515562
  4       0.265541847026
  5      -0.000000000000
  6       0.187957604003
  7       0.822529031287
  8       0.000000000000
  9      -0.081526235501
 10       0.161187692346
 11      -0.211167167504
 12       0.000000000000
 13      -0.228054394198
 14      -0.000000000000
 15       0.661832670584
 16       0.425327453189
 17       0.246253220325
 18      -0.000000000000
 19       1.327737407106
 20      -0.271288276629
 21      -0.139603712255
 22       0.021203288183
 23       0.000000000000
 24      -0.027299305546
 Sym=     1a
 Ene=  4.58783315406458E-01
Spin= Alpha
 Occup= 0.001374
  1       0.002987892708
  2       0.148806142706
  3      -0.630771473705
  4       0.099384120215
  5       0.000000000000
  6      -0.057507488116
  7      -0.436868979832
  8       0.000000000000
  9       0.039545948669
 10       0.000236741232
 11      -0.011326631613
 12      -0.000000000000
 13       0.016174599953
 14       0.000000000000
 15      -0.121272697764
 16      -0.425883470025
 17      -0.013567195716
 18       0.000000000000
 19      -0.012630272247
 20      -0.749530514787
 21       1.884566819351
 22      -0.051958383747
 23      -0.000000000000
 24       0.043131207989
 Sym=     1a
 Ene=  2.46160064150158E-01
Spin= Alpha
 Occup= 0.530811
  1      -0.072562094954
  2      -0.233859528320
  3      -0.187146324692
  4      -0.221145812563
  5      -0.000000000000
  6       0.139912434906
  7      -0.205213132218
  8       0.000000000000
  9       0.141116148653
 10      -0.000011018526
 11       0.000527169607
 12       0.000000000000
 13      -0.000752806112
 14      -0.000000000000
 15      -0.045817297981
 16       0.009823435726
 17       0.000631451033
 18      -0.000000000000
 19       0.000587844285
 20       1.202288700244
 21       0.139096989645
 22       0.002418272412
 23       0.000000000000
 24      -0.002007433697
 Sym=     1a
 Ene=  2.60593367411579E+00
Spin= Alpha
 Occup= 0.002094
  1       0.069246765674
  2       0.219483248764
  3       1.362985381188
  4       0.370939827951
  5      -0.000000000000
  6      -0.285668002959
  7       0.364426209011
  8      -0.000000000000
  9      -0.796542344206
 10       0.132640453388
 11      -0.332047608867
 12       0.000000000000
 13       0.211553233236
 14      -0.000000000000
 15      -0.357209118476
 16       0.023941926274
 17      -0.079131548587
 18       0.000000000000
 19       0.021203288183
 20      -1.024678664369
 21      -0.556554151672
 22       1.521883145936
 23       0.000000000000
 24      -0.246253220325
 Sym=     1a
 Ene=  1.94640388088373E+00
Spin= Alpha
 Occup= 0.001180
  1       0.000000000000
  2      -0.000000000000
  3       0.000000000000
  4      -0.000000000000
  5      -0.011210886936
  6       0.000000000000
  7       0.000000000000
  8      -0.409196286059
  9      -0.000000000000
 10      -0.000000000000
 11      -0.000000000000
 12       0.145901652902
 13       0.000000000000
 14      -0.183062487173
 15       0.000000000000
 16       0.000000000000
 17       0.000000000000
 18       0.052186310255
 19       0.000000000000
 20      -0.000000000000
 21      -0.000000000000
 22       0.000000000000
 23       1.129826570637
 24      -0.000000000000
 Sym=     1a
 Ene=  2.28805226989799E+00
Spin= Alpha
 Occup= 0.001169
  1      -0.049324520872
  2      -0.249081531218
  3      -0.510640515562
  4      -0.265541847026
  5      -0.000000000000
  6       0.187957604003
  7      -0.822529031287
  8       0.000000000000
  9      -0.081526235501
 10       0.161187692346
 11       0.211167167504
 12      -0.000000000000
 13      -0.228054394198
 14       0.000000000000
 15      -0.271288276629
 16      -0.139603712255
 17      -0.021203288183
 18      -0.000000000000
 19      -0.027299305546
 20       0.661832670584
 21       0.425327453189
 22      -0.246253220325
 23      -0.000000000000
 24       1.327737407106
