[Molden Format]
[Title]
AHOs

[Atoms] AU
O    1   8          0.0000000000         0.0000000000         0.1182968560 
H    2   1         -1.4966630981         0.0000000000        -0.9397608064 
H    3   1          1.4966630981         0.0000000000        -0.9397608064 
[GTO]
  1 0 
s   5 1.0  
     2266.1767785000        -0.0053893504 
      340.8701019100        -0.0402347214 
       77.3631351670        -0.1800818421 
       21.4796449400        -0.4682885766 
        6.6589433124        -0.4469261716 
s   1 1.0  
        0.8097597567         1.0000000000 
s   1 1.0  
        0.2553077223         0.9999999999 
p   3 1.0  
       17.7215043170         0.0626302488 
        3.8635505440         0.3333113849 
        1.0480920883         0.7414863830 
p   1 1.0  
        0.2764154441         1.0000000002 
d   1 1.0  
        1.2000000000         1.0000000000 

  2 0 
s   3 1.0  
       13.0107010000         0.0334854848 
        1.9622572000         0.2347218709 
        0.4445379600         0.8137702852 
s   1 1.0  
        0.1219496200         0.9999999999 
p   1 1.0  
        0.8000000000         1.0000000000 

  3 0 
s   3 1.0  
       13.0107010000         0.0334854848 
        1.9622572000         0.2347218709 
        0.4445379600         0.8137702852 
s   1 1.0  
        0.1219496200         0.9999999999 
p   1 1.0  
        0.8000000000         1.0000000000 

[5D]
[MO]
 Sym=     1a
 Ene=  0.00000000000000E+00
Spin= Alpha
 Occup=-0.000000
  1       0.272069225588
  2       1.667407262175
  3      -2.590594179435
  4      -0.023183447939
  5      -0.000000000125
  6       0.213641401418
  7       0.003441696158
  8       0.000000000133
  9       0.297853031181
 10       0.277911569619
 11       0.071114613155
 12       0.000000000122
 13       0.144822143420
 14       0.000000000000
 15       0.435295081177
 16       0.416915863689
 17       0.015322836483
 18       0.000000000006
 19       0.013292544684
 20       0.478975641628
 21       0.412405597650
 22      -0.035310679881
 23       0.000000000006
 24       0.024751360736
 Sym=     1a
 Ene=  1.00000000000000E+00
Spin= Alpha
 Occup= 1.997086
  1       0.320260755719
  2       0.465043273013
  3       0.395162189211
  4       0.000072073512
  5      -0.000000000001
  6       0.416913270177
  7       0.000045823005
  8      -0.000000000001
  9       0.330758451898
 10      -0.020195990031
 11      -0.000004853269
 12       0.000000000000
 13       0.003318865314
 14      -0.000000000000
 15      -0.078248362167
 16      -0.010929190406
 17       0.001036622391
 18       0.000000000000
 19      -0.000913815717
 20      -0.078282899133
 21      -0.010931117933
 22      -0.001035083324
 23       0.000000000000
 24      -0.000914127752
 Sym=     1a
 Ene=  2.00000000000000E+00
Spin= Alpha
 Occup= 1.999945
  1      -0.975572823122
  2       0.049494195537
  3       0.015641225890
  4       0.000010233022
  5       0.000000000000
  6       0.063502224695
  7       0.000006505966
  8       0.000000000000
  9       0.049103966380
 10      -0.003008833004
 11      -0.000000689069
 12      -0.000000000000
 13      -0.001048798764
 14      -0.000000000000
 15      -0.019760781468
 16      -0.004392325450
 17       0.000091194784
 18      -0.000000000000
 19      -0.000012665763
 20      -0.019765685038
 21      -0.004392599121
 22      -0.000090976267
 23      -0.000000000000
 24      -0.000012710065
 Sym=     1a
 Ene=  3.00000000000000E+00
Spin= Alpha
 Occup=-0.000000
  1       0.013144970890
  2       0.066560592313
  3      -0.036536825247
  4       0.805287057105
  5       0.073824873951
  6       0.010865348106
  7      -1.686129480275
  8      -0.078239394716
  9      -0.028567301588
 10      -0.133061480640
 11      -0.028400427628
 12      -0.076742840525
 13       0.133414529042
 14      -0.000000000000
 15      -0.624335458897
 16      -0.283948282337
 17       0.010053929555
 18      -0.004005204154
 19      -0.042213987535
 20       0.553583801531
 21       0.307877550756
 22       0.013999572469
 23      -0.004005204154
 24      -0.003625037508
 Sym=     1a
 Ene=  4.00000000000000E+00
Spin= Alpha
 Occup=-0.000000
  1      -0.000369171682
  2       0.007911368227
  3      -0.028968552888
  4      -0.097992098339
  5       0.664637178127
  6      -0.060343583888
  7       0.152970036267
  8      -0.703983287721
  9       0.080151851448
 10      -0.035146987848
 11       0.084831730361
 12      -0.709009978448
 13       0.047086726255
 14      -0.000000000000
 15       0.040213002518
 16       0.038136778149
 17      -0.013030544164
 18      -0.037351770886
 19      -0.013298748299
 20      -0.013302996540
 21      -0.019377870746
 22      -0.012232744153
 23      -0.037351770886
 24      -0.003443731602
 Sym=     1a
 Ene=  5.00000000000000E+00
Spin= Alpha
 Occup=-0.000000
  1      -0.019974743599
  2      -0.351951516466
  3       1.170285279710
  4      -0.000903800308
  5       0.094718261481
  6       0.871281898629
  7       0.017623053273
  8      -0.102524340327
  9      -1.462248071160
 10       0.093435568912
 11      -0.024487164923
 12      -0.000862768724
 13      -0.020253462220
 14       0.000000000000
 15      -0.552084193734
 16      -0.219162212008
 17      -0.036041432632
 18       0.001834335587
 19       0.024444682718
 20      -0.580469600325
 21      -0.224196048853
 22       0.042744508972
 23       0.001834335587
 24       0.020017140993
 Sym=     1a
 Ene=  6.00000000000000E+00
Spin= Alpha
 Occup= 1.466036
  1      -0.143963098511
  2      -0.450084869261
  3      -0.229253694570
  4       0.560678884022
  5      -0.000000000000
  6       0.391686748984
  7       0.356469257943
  8      -0.000000000000
  9       0.278774998022
 10      -0.012959656897
 11      -0.037754861489
 12       0.000000000000
 13      -0.015650017493
 14       0.000000000000
 15       0.295406532570
 16       0.022400189720
 17       0.004671244760
 18      -0.000000000000
 19       0.002151325583
 20       0.026734357723
 21       0.007405447590
 22       0.007301562471
 23       0.000000000000
 24      -0.000276076872
 Sym=     1a
 Ene=  7.00000000000000E+00
Spin= Alpha
 Occup= 1.997641
  1       0.000000000001
  2       0.000000000001
  3       0.000000000001
  4       0.000000000000
  5       0.633107920240
  6       0.000000000001
  7      -0.000000000000
  8       0.518845255752
  9       0.000000000000
 10      -0.000000000000
 11       0.000000000000
 12      -0.024818764853
 13       0.000000000000
 14      -0.000000000000
 15      -0.000000000000
 16      -0.000000000000
 17       0.000000000000
 18      -0.000442695343
 19      -0.000000000000
 20      -0.000000000000
 21      -0.000000000000
 22      -0.000000000000
 23      -0.000442695343
 24      -0.000000000000
 Sym=     1a
 Ene=  8.00000000000000E+00
Spin= Alpha
 Occup= 1.466036
  1      -0.143939728677
  2      -0.450024165379
  3      -0.229202601696
  4      -0.560678909815
  5      -0.000000000000
  6       0.391741482843
  7      -0.356469274341
  8      -0.000000000000
  9       0.278818399360
 10      -0.012962307347
 11       0.037754863226
 12       0.000000000000
 13      -0.015649609285
 14      -0.000000000000
 15       0.026723922632
 16       0.007403961356
 17      -0.007301427868
 18       0.000000000000
 19      -0.000276194691
 20       0.295396109838
 21       0.022398704175
 22      -0.004671379914
 23       0.000000000000
 24       0.002151207876
 Sym=     1a
 Ene=  9.00000000000000E+00
Spin= Alpha
 Occup=-0.000000
  1      -0.087247377330
  2      -0.621296344924
  3       1.391807232558
  4       0.026397821383
  5       0.002012233172
  6      -0.114125137266
  7       0.027487541531
  8      -0.002125476483
  9      -0.362572480691
 10       0.734953471387
 11      -0.129927155173
 12      -0.002414454324
 13       0.705039078370
 14       0.000000000000
 15      -0.464558579475
 16      -0.173153514367
 17      -0.116258294842
 18      -0.000132223849
 19      -0.008813066377
 20      -0.568327785813
 21      -0.176741879626
 22       0.152454107388
 23      -0.000132223849
 24      -0.030613809828
 Sym=     1a
 Ene=  1.00000000000000E+01
Spin= Alpha
 Occup= 0.000000
  1      -0.028966936287
  2      -0.164684746476
  3       0.188817553100
  4       0.030849305526
  5      -0.030324505136
  6      -0.014090170666
  7      -0.806081027324
  8       0.032101719947
  9      -0.002396111070
 10       0.237587721730
 11       1.154653762978
 12       0.033168089448
 13      -0.161445507084
 14       0.000000000000
 15      -0.651611259467
 16      -0.151415516322
 17      -0.163783118353
 18       0.001762716395
 19      -0.070961717341
 20       0.669186468164
 21       0.077224598632
 22      -0.152527493134
 23       0.001762716395
 24       0.137173925546
 Sym=     1a
 Ene=  1.10000000000000E+01
Spin= Alpha
 Occup=-0.000000
  1       0.001351286065
  2       0.023946802785
  3      -0.079681089830
  4      -0.001098448614
  5       0.689927849543
  6      -0.059617388634
  7       0.001590830950
  8      -0.762913915010
  9       0.099894878524
 10      -0.006403686528
 11       0.001144041239
 12       0.728450410373
 13       0.001687390522
 14       0.000000000000
 15       0.038755076600
 16       0.015426832834
 17       0.002494281203
 18       0.065855057243
 19      -0.001625269535
 20       0.038368339799
 21       0.014816534274
 22      -0.002830478404
 23       0.065855057243
 24      -0.001480268419
 Sym=     1a
 Ene=  1.20000000000000E+01
Spin= Alpha
 Occup=-0.000000
  1       0.008467785784
  2      -0.052425718773
  3       0.560580680549
  4      -0.133915340280
  5      -0.055294667894
  6       0.041374416915
  7       0.080611389954
  8       0.058578193507
  9      -0.344975994233
 10      -0.623515839162
 11       0.316121627526
 12       0.058525408146
 13       0.844659431531
 14       0.000000000000
 15      -0.471902457332
 16      -0.026899742672
 17      -0.088228372933
 18       0.003074563556
 19      -0.156020481344
 20      -0.324071998008
 21      -0.069822210946
 22      -0.001245440471
 23       0.003074563556
 24      -0.106756643360
 Sym=     1a
 Ene=  1.30000000000000E+01
Spin= Alpha
 Occup= 0.000000
  1       0.000000000000
  2       0.000000000000
  3      -0.000000000000
  4       0.000000000000
  5      -0.000000000000
  6      -0.000000000000
  7      -0.000000000000
  8       0.000000000000
  9       0.000000000000
 10      -0.000000000000
 11       0.000000000000
 12      -0.000000000000
 13      -0.000000000000
 14       1.038502990167
 15       0.000000000000
 16       0.000000000000
 17       0.000000000000
 18       0.091968432102
 19      -0.000000000000
 20       0.000000000000
 21       0.000000000000
 22      -0.000000000000
 23      -0.091968432102
 24       0.000000000000
 Sym=     1a
 Ene=  1.40000000000000E+01
Spin= Alpha
 Occup= 0.001495
  1       0.011915750195
  2       0.200483487512
  3      -0.568030687787
  4      -0.133292686769
  5      -0.000000000000
  6      -0.078480872844
  7       0.012770835601
  8      -0.000000000001
  9       0.261431408645
 10      -0.115188369101
 11       0.042358109230
 12       0.000000000000
 13       0.083302100941
 14       0.000000000000
 15      -0.718178477572
 16       1.451523590611
 17       0.268864091560
 18       0.000000000001
 19      -0.602555534328
 20       0.125987453791
 21      -0.281362251808
 22      -0.018463915500
 23       0.000000000000
 24      -0.000998373341
 Sym=     1a
 Ene=  1.50000000000000E+01
Spin= Alpha
 Occup= 0.533262
  1      -0.078103831123
  2      -0.254388685196
  3      -0.284329439616
  4       0.251310756482
  5      -0.000000000000
  6       0.162686400904
  7       0.252017089284
  8      -0.000000000000
  9       0.186221823267
 10      -0.002987367846
 11      -0.027109621786
 12       0.000000000000
 13      -0.020603390648
 14       0.000000000000
 15       1.282321345162
 16       0.184362511605
 17       0.096911131357
 18       0.000000000000
 19       0.054120103297
 20      -0.032555055786
 21       0.004281406377
 22      -0.004746462681
 23       0.000000000000
 24      -0.001532529300
 Sym=     1a
 Ene=  1.60000000000000E+01
Spin= Alpha
 Occup= 0.000018
  1      -0.078869198812
  2      -0.286521004679
  3      -1.453752950850
  4       0.431033166234
  5      -0.000000000000
  6       0.327204379120
  7       0.703437321091
  8       0.000000000000
  9       0.659918920909
 10      -0.043571974693
 11      -0.390226477319
 12      -0.000000000000
 13      -0.291071363778
 14      -0.000000000000
 15       1.098376752356
 16       0.755159576444
 17       1.462498814657
 18      -0.000000000000
 19       0.828234105829
 20       0.190109019908
 21      -0.103217284674
 22      -0.059747185310
 23       0.000000000000
 24      -0.031835341669
 Sym=     1a
 Ene=  1.70000000000000E+01
Spin= Alpha
 Occup= 0.001180
  1      -0.000000000000
  2      -0.000000000000
  3       0.000000000001
  4       0.000000000000
  5      -0.011210886936
  6       0.000000000000
  7      -0.000000000000
  8      -0.409196286059
  9      -0.000000000000
 10       0.000000000000
 11      -0.000000000000
 12       0.145901652902
 13      -0.000000000000
 14       0.183062487174
 15       0.000000000001
 16      -0.000000000002
 17      -0.000000000000
 18       1.129826570637
 19       0.000000000001
 20      -0.000000000000
 21       0.000000000000
 22       0.000000000000
 23       0.052186310255
 24       0.000000000000
 Sym=     1a
 Ene=  1.80000000000000E+01
Spin= Alpha
 Occup= 0.000672
  1      -0.006297934775
  2      -0.006821637006
  3      -0.185686697816
  4      -0.013336985563
  5      -0.000000000000
  6      -0.011315975039
  7       0.695577193461
  8      -0.000000000000
  9      -0.352258359156
 10       0.168520670795
 11      -0.013035070589
 12       0.000000000000
 13      -0.070281456071
 14       0.000000000000
 15      -0.358780033413
 16       1.162075634210
 17      -0.398612631641
 18       0.000000000000
 19       0.879441703612
 20      -0.406113119408
 21      -0.334213684938
 22       0.054430485076
 23       0.000000000000
 24      -0.018381144590
 Sym=     1a
 Ene=  1.90000000000000E+01
Spin= Alpha
 Occup= 0.001512
  1       0.006065947566
  2       0.179706683486
  3      -0.677226771475
  4       0.105419186982
  5       0.000000000000
  6      -0.057587548342
  7      -0.125195266244
  8       0.000000000000
  9       0.269299333887
 10      -0.101181652536
 11      -0.015248952806
 12      -0.000000000000
 13       0.056952148610
 14       0.000000000000
 15       0.098832837792
 16      -0.318141375776
 17       0.017059934274
 18      -0.000000000000
 19      -0.004833277899
 20      -0.675623861778
 21       1.602194545576
 22      -0.324869882630
 23      -0.000000000000
 24      -0.460253426295
 Sym=     1a
 Ene=  2.00000000000000E+01
Spin= Alpha
 Occup= 0.533262
  1      -0.078103618273
  2      -0.254384509624
  3      -0.284342568758
  4      -0.251308132733
  5       0.000000000000
  6       0.162684901867
  7      -0.252017537603
  8       0.000000000000
  9       0.186228020808
 10      -0.002989953519
 11       0.027108935261
 12      -0.000000000000
 13      -0.020601735276
 14       0.000000000000
 15      -0.032552059966
 16       0.004275366021
 17       0.004746919199
 18      -0.000000000000
 19      -0.001532563511
 20       1.282306571406
 21       0.184394014413
 22      -0.096917993780
 23      -0.000000000000
 24       0.054107218769
 Sym=     1a
 Ene=  2.10000000000000E+01
Spin= Alpha
 Occup= 0.000242
  1       0.060242903275
  2       0.227823033702
  3       1.071840250943
  4       0.356994195991
  5      -0.000000000000
  6      -0.271759019326
  7       0.163523025935
  8      -0.000000000000
  9      -0.741982561506
 10       0.134247400799
 11      -0.308718314015
 12       0.000000000000
 13       0.194701711717
 14      -0.000000000000
 15      -0.392125761137
 16      -0.111075653963
 17      -0.080349616545
 18       0.000000000000
 19       0.015065449494
 20      -1.098713446690
 21       0.063571290932
 22       1.419988191697
 23       0.000000000001
 24      -0.155482419021
 Sym=     1a
 Ene=  2.20000000000000E+01
Spin= Alpha
 Occup= 0.001180
  1      -0.000000000000
  2      -0.000000000000
  3      -0.000000000001
  4      -0.000000000000
  5      -0.011210886936
  6       0.000000000000
  7      -0.000000000000
  8      -0.409196286059
  9       0.000000000001
 10      -0.000000000000
 11       0.000000000000
 12       0.145901652902
 13      -0.000000000000
 14      -0.183062487173
 15       0.000000000000
 16       0.000000000000
 17       0.000000000000
 18       0.052186310255
 19      -0.000000000000
 20       0.000000000001
 21      -0.000000000000
 22      -0.000000000002
 23       1.129826570637
 24       0.000000000000
 Sym=     1a
 Ene=  2.30000000000000E+01
Spin= Alpha
 Occup= 0.000432
  1      -0.052307071609
  2      -0.195291441858
  3      -0.929005362956
  4      -0.255299165128
  5      -0.000000000000
  6       0.190213569031
  7      -0.967678112979
  8      -0.000000000000
  9       0.069733450444
 10       0.123717367226
 11       0.242283584537
 12       0.000000000000
 13      -0.235476169353
 14      -0.000000000000
 15      -0.231109922752
 16      -0.296589999158
 17      -0.011234476545
 18       0.000000000000
 19      -0.033196743159
 20       0.432820952341
 21       1.206866277535
 22      -0.498171132616
 23       0.000000000000
 24       1.259545954492
