[Molden Format]
[Title]
PNAOs

[Atoms] AU
O    1   8          0.0000000000         0.0000000000         0.1182968560 
H    2   1         -1.4966630981         0.0000000000        -0.9397608064 
H    3   1          1.4966630981         0.0000000000        -0.9397608064 
[GTO]
  1 0 
s   5 1.0  
     2266.1767785000        -0.0053893504 
      340.8701019100        -0.0402347214 
       77.3631351670        -0.1800818421 
       21.4796449400        -0.4682885766 
        6.6589433124        -0.4469261716 
s   1 1.0  
        0.8097597567         1.0000000000 
s   1 1.0  
        0.2553077223         0.9999999999 
p   3 1.0  
       17.7215043170         0.0626302488 
        3.8635505440         0.3333113849 
        1.0480920883         0.7414863830 
p   1 1.0  
        0.2764154441         1.0000000002 
d   1 1.0  
        1.2000000000         1.0000000000 

  2 0 
s   3 1.0  
       13.0107010000         0.0334854848 
        1.9622572000         0.2347218709 
        0.4445379600         0.8137702852 
s   1 1.0  
        0.1219496200         0.9999999999 
p   1 1.0  
        0.8000000000         1.0000000000 

  3 0 
s   3 1.0  
       13.0107010000         0.0334854848 
        1.9622572000         0.2347218709 
        0.4445379600         0.8137702852 
s   1 1.0  
        0.1219496200         0.9999999999 
p   1 1.0  
        0.8000000000         1.0000000000 

[MO]
 Sym=     1a
 Ene= -1.24832144106065E+00
Spin= Alpha
 Occup= 2
  1     -0.302494243920
  2     -0.558934055529
  3     -0.537935324854
  4      0.000000000000
  5      0.000000000000
  6      0.000000000000
  7      0.000000000000
  8      0.000000000000
  9      0.000000000000
  10     0.000000000000
  11     0.000000000000
  12     0.000000000000
  13     0.000000000000
  14     0.000000000000
  15     0.000000000000
  16     0.000000000000
  17     0.000000000000
  18     0.000000000000
  19     0.000000000000
  20     0.000000000000
  21     0.000000000000
  22     0.000000000000
  23     0.000000000000
  24     0.000000000000
  25     0.000000000000
 Sym=     1a
 Ene= -2.05436652033900E+01
Spin= Alpha
 Occup= 2
  1     -0.988732888585
  2      0.034040085502
  3     -0.005291914824
  4      0.000000000000
  5      0.000000000000
  6      0.000000000000
  7      0.000000000000
  8      0.000000000000
  9      0.000000000000
  10     0.000000000000
  11     0.000000000000
  12     0.000000000000
  13     0.000000000000
  14     0.000000000000
  15     0.000000000000
  16     0.000000000000
  17     0.000000000000
  18     0.000000000000
  19     0.000000000000
  20     0.000000000000
  21     0.000000000000
  22     0.000000000000
  23     0.000000000000
  24     0.000000000000
  25     0.000000000000
 Sym=     1a
 Ene= -5.67041743808546E-01
Spin= Alpha
 Occup= 2
  1      0.000000000000
  2      0.000000000000
  3      0.000000000000
  4      0.565120031796
  5      0.000000000000
  6      0.000000000000
  7      0.588677652774
  8      0.000000000000
  9      0.000000000000
  10     0.000000000000
  11     0.000000000000
  12     0.000000000000
  13     0.000000000000
  14     0.000000000000
  15     0.000000000000
  16     0.000000000000
  17     0.000000000000
  18     0.000000000000
  19     0.000000000000
  20     0.000000000000
  21     0.000000000000
  22     0.000000000000
  23     0.000000000000
  24     0.000000000000
  25     0.000000000000
 Sym=     1a
 Ene= -4.82725257516541E-01
Spin= Alpha
 Occup= 2
  1      0.000000000000
  2      0.000000000000
  3      0.000000000000
  4      0.000000000000
  5      0.565120031796
  6      0.000000000000
  7      0.000000000000
  8      0.588677652774
  9      0.000000000000
  10     0.000000000000
  11     0.000000000000
  12     0.000000000000
  13     0.000000000000
  14     0.000000000000
  15     0.000000000000
  16     0.000000000000
  17     0.000000000000
  18     0.000000000000
  19     0.000000000000
  20     0.000000000000
  21     0.000000000000
  22     0.000000000000
  23     0.000000000000
  24     0.000000000000
  25     0.000000000000
 Sym=     1a
 Ene= -5.26315796914154E-01
Spin= Alpha
 Occup= 2
  1      0.000000000000
  2      0.000000000000
  3      0.000000000000
  4      0.000000000000
  5      0.000000000000
  6      0.565120031796
  7      0.000000000000
  8      0.000000000000
  9      0.588677652774
  10     0.000000000000
  11     0.000000000000
  12     0.000000000000
  13     0.000000000000
  14     0.000000000000
  15     0.000000000000
  16     0.000000000000
  17     0.000000000000
  18     0.000000000000
  19     0.000000000000
  20     0.000000000000
  21     0.000000000000
  22     0.000000000000
  23     0.000000000000
  24     0.000000000000
  25     0.000000000000
 Sym=     1a
 Ene= -5.48447722841553E-01
Spin= Alpha
 Occup= 2
  1      0.000000000000
  2      0.000000000000
  3      0.000000000000
  4      0.000000000000
  5      0.000000000000
  6      0.000000000000
  7      0.000000000000
  8      0.000000000000
  9      0.000000000000
  10     0.000000000000
  11     0.000000000000
  12     0.000000000000
  13     0.000000000000
  14     0.000000000000
  15     0.000000000000
  16     0.875765561982
  17     0.170148406025
  18     0.000000000000
  19     0.000000000000
  20     0.000000000000
  21     0.000000000000
  22     0.000000000000
  23     0.000000000000
  24     0.000000000000
  25     0.000000000000
 Sym=     1a
 Ene= -5.48447722841665E-01
Spin= Alpha
 Occup= 2
  1      0.000000000000
  2      0.000000000000
  3      0.000000000000
  4      0.000000000000
  5      0.000000000000
  6      0.000000000000
  7      0.000000000000
  8      0.000000000000
  9      0.000000000000
  10     0.000000000000
  11     0.000000000000
  12     0.000000000000
  13     0.000000000000
  14     0.000000000000
  15     0.000000000000
  16     0.000000000000
  17     0.000000000000
  18     0.000000000000
  19     0.000000000000
  20     0.000000000000
  21     0.875765561982
  22     0.170148406025
  23     0.000000000000
  24     0.000000000000
  25     0.000000000000
 Sym=     1a
 Ene=  9.77178031143835E-01
Spin= Alpha
 Occup= 0
  1     -0.332912217266
  2     -1.653354564816
  3      1.570283576590
  4      0.000000000000
  5      0.000000000000
  6      0.000000000000
  7      0.000000000000
  8      0.000000000000
  9      0.000000000000
  10     0.000000000000
  11     0.000000000000
  12     0.000000000000
  13     0.000000000000
  14     0.000000000000
  15     0.000000000000
  16     0.000000000000
  17     0.000000000000
  18     0.000000000000
  19     0.000000000000
  20     0.000000000000
  21     0.000000000000
  22     0.000000000000
  23     0.000000000000
  24     0.000000000000
  25     0.000000000000
 Sym=     1a
 Ene=  1.12003915134145E+00
Spin= Alpha
 Occup= 0
  1      0.000000000000
  2      0.000000000000
  3      0.000000000000
  4     -1.008859655844
  5      0.000000000000
  6      0.000000000000
  7      0.995297481213
  8      0.000000000000
  9      0.000000000000
  10     0.000000000000
  11     0.000000000000
  12     0.000000000000
  13     0.000000000000
  14     0.000000000000
  15     0.000000000000
  16     0.000000000000
  17     0.000000000000
  18     0.000000000000
  19     0.000000000000
  20     0.000000000000
  21     0.000000000000
  22     0.000000000000
  23     0.000000000000
  24     0.000000000000
  25     0.000000000000
 Sym=     1a
 Ene=  1.19562680218522E+00
Spin= Alpha
 Occup= 0
  1      0.000000000000
  2      0.000000000000
  3      0.000000000000
  4      0.000000000000
  5     -1.008859655844
  6      0.000000000000
  7      0.000000000000
  8      0.995297481213
  9      0.000000000000
  10     0.000000000000
  11     0.000000000000
  12     0.000000000000
  13     0.000000000000
  14     0.000000000000
  15     0.000000000000
  16     0.000000000000
  17     0.000000000000
  18     0.000000000000
  19     0.000000000000
  20     0.000000000000
  21     0.000000000000
  22     0.000000000000
  23     0.000000000000
  24     0.000000000000
  25     0.000000000000
 Sym=     1a
 Ene=  1.16156338988504E+00
Spin= Alpha
 Occup= 0
  1      0.000000000000
  2      0.000000000000
  3      0.000000000000
  4      0.000000000000
  5      0.000000000000
  6     -1.008859655844
  7      0.000000000000
  8      0.000000000000
  9      0.995297481213
  10     0.000000000000
  11     0.000000000000
  12     0.000000000000
  13     0.000000000000
  14     0.000000000000
  15     0.000000000000
  16     0.000000000000
  17     0.000000000000
  18     0.000000000000
  19     0.000000000000
  20     0.000000000000
  21     0.000000000000
  22     0.000000000000
  23     0.000000000000
  24     0.000000000000
  25     0.000000000000
 Sym=     1a
 Ene=  2.94673347818045E+00
Spin= Alpha
 Occup= 0
  1      0.000000000000
  2      0.000000000000
  3      0.000000000000
  4      0.000000000000
  5      0.000000000000
  6      0.000000000000
  7      0.000000000000
  8      0.000000000000
  9      0.000000000000
  10    -0.500000000000
  11    -0.500000000000
  12     1.000000000000
  13     0.000000000000
  14     0.000000000000
  15     0.000000000000
  16     0.000000000000
  17     0.000000000000
  18     0.000000000000
  19     0.000000000000
  20     0.000000000000
  21     0.000000000000
  22     0.000000000000
  23     0.000000000000
  24     0.000000000000
  25     0.000000000000
 Sym=     1a
 Ene=  2.80077986612420E+00
Spin= Alpha
 Occup= 0
  1      0.000000000000
  2      0.000000000000
  3      0.000000000000
  4      0.000000000000
  5      0.000000000000
  6      0.000000000000
  7      0.000000000000
  8      0.000000000000
  9      0.000000000000
  10     0.000000000000
  11     0.000000000000
  12     0.000000000000
  13     0.000000000000
  14     1.000000000000
  15     0.000000000000
  16     0.000000000000
  17     0.000000000000
  18     0.000000000000
  19     0.000000000000
  20     0.000000000000
  21     0.000000000000
  22     0.000000000000
  23     0.000000000000
  24     0.000000000000
  25     0.000000000000
 Sym=     1a
 Ene=  2.97799585329575E+00
Spin= Alpha
 Occup= 0
  1      0.000000000000
  2      0.000000000000
  3      0.000000000000
  4      0.000000000000
  5      0.000000000000
  6      0.000000000000
  7      0.000000000000
  8      0.000000000000
  9      0.000000000000
  10     0.000000000000
  11     0.000000000000
  12     0.000000000000
  13     0.000000000000
  14     0.000000000000
  15     1.000000000000
  16     0.000000000000
  17     0.000000000000
  18     0.000000000000
  19     0.000000000000
  20     0.000000000000
  21     0.000000000000
  22     0.000000000000
  23     0.000000000000
  24     0.000000000000
  25     0.000000000000
 Sym=     1a
 Ene=  2.89292849085977E+00
Spin= Alpha
 Occup= 0
  1      0.000000000000
  2      0.000000000000
  3      0.000000000000
  4      0.000000000000
  5      0.000000000000
  6      0.000000000000
  7      0.000000000000
  8      0.000000000000
  9      0.000000000000
  10     0.866025403784
  11    -0.866025403784
  12     0.000000000000
  13     0.000000000000
  14     0.000000000000
  15     0.000000000000
  16     0.000000000000
  17     0.000000000000
  18     0.000000000000
  19     0.000000000000
  20     0.000000000000
  21     0.000000000000
  22     0.000000000000
  23     0.000000000000
  24     0.000000000000
  25     0.000000000000
 Sym=     1a
 Ene=  2.94615167761876E+00
Spin= Alpha
 Occup= 0
  1      0.000000000000
  2      0.000000000000
  3      0.000000000000
  4      0.000000000000
  5      0.000000000000
  6      0.000000000000
  7      0.000000000000
  8      0.000000000000
  9      0.000000000000
  10     0.000000000000
  11     0.000000000000
  12     0.000000000000
  13     1.000000000000
  14     0.000000000000
  15     0.000000000000
  16     0.000000000000
  17     0.000000000000
  18     0.000000000000
  19     0.000000000000
  20     0.000000000000
  21     0.000000000000
  22     0.000000000000
  23     0.000000000000
  24     0.000000000000
  25     0.000000000000
 Sym=     1a
 Ene=  3.19195047997540E-01
Spin= Alpha
 Occup= 0
  1      0.000000000000
  2      0.000000000000
  3      0.000000000000
  4      0.000000000000
  5      0.000000000000
  6      0.000000000000
  7      0.000000000000
  8      0.000000000000
  9      0.000000000000
  10     0.000000000000
  11     0.000000000000
  12     0.000000000000
  13     0.000000000000
  14     0.000000000000
  15     0.000000000000
  16     1.056456045377
  17    -1.361658626636
  18     0.000000000000
  19     0.000000000000
  20     0.000000000000
  21     0.000000000000
  22     0.000000000000
  23     0.000000000000
  24     0.000000000000
  25     0.000000000000
 Sym=     1a
 Ene=  1.04316816644748E+00
Spin= Alpha
 Occup= 0
  1      0.000000000000
  2      0.000000000000
  3      0.000000000000
  4      0.000000000000
  5      0.000000000000
  6      0.000000000000
  7      0.000000000000
  8      0.000000000000
  9      0.000000000000
  10     0.000000000000
  11     0.000000000000
  12     0.000000000000
  13     0.000000000000
  14     0.000000000000
  15     0.000000000000
  16     0.000000000000
  17     0.000000000000
  18     1.000000000000
  19     0.000000000000
  20     0.000000000000
  21     0.000000000000
  22     0.000000000000
  23     0.000000000000
  24     0.000000000000
  25     0.000000000000
 Sym=     1a
 Ene=  1.48373733732213E+00
Spin= Alpha
 Occup= 0
  1      0.000000000000
  2      0.000000000000
  3      0.000000000000
  4      0.000000000000
  5      0.000000000000
  6      0.000000000000
  7      0.000000000000
  8      0.000000000000
  9      0.000000000000
  10     0.000000000000
  11     0.000000000000
  12     0.000000000000
  13     0.000000000000
  14     0.000000000000
  15     0.000000000000
  16     0.000000000000
  17     0.000000000000
  18     0.000000000000
  19     1.000000000000
  20     0.000000000000
  21     0.000000000000
  22     0.000000000000
  23     0.000000000000
  24     0.000000000000
  25     0.000000000000
 Sym=     1a
 Ene=  1.27495818169811E+00
Spin= Alpha
 Occup= 0
  1      0.000000000000
  2      0.000000000000
  3      0.000000000000
  4      0.000000000000
  5      0.000000000000
  6      0.000000000000
  7      0.000000000000
  8      0.000000000000
  9      0.000000000000
  10     0.000000000000
  11     0.000000000000
  12     0.000000000000
  13     0.000000000000
  14     0.000000000000
  15     0.000000000000
  16     0.000000000000
  17     0.000000000000
  18     0.000000000000
  19     0.000000000000
  20     1.000000000000
  21     0.000000000000
  22     0.000000000000
  23     0.000000000000
  24     0.000000000000
  25     0.000000000000
 Sym=     1a
 Ene=  3.19195047997510E-01
Spin= Alpha
 Occup= 0
  1      0.000000000000
  2      0.000000000000
  3      0.000000000000
  4      0.000000000000
  5      0.000000000000
  6      0.000000000000
  7      0.000000000000
  8      0.000000000000
  9      0.000000000000
  10     0.000000000000
  11     0.000000000000
  12     0.000000000000
  13     0.000000000000
  14     0.000000000000
  15     0.000000000000
  16     0.000000000000
  17     0.000000000000
  18     0.000000000000
  19     0.000000000000
  20     0.000000000000
  21     1.056456045377
  22    -1.361658626636
  23     0.000000000000
  24     0.000000000000
  25     0.000000000000
 Sym=     1a
 Ene=  1.04316816644745E+00
Spin= Alpha
 Occup= 0
  1      0.000000000000
  2      0.000000000000
  3      0.000000000000
  4      0.000000000000
  5      0.000000000000
  6      0.000000000000
  7      0.000000000000
  8      0.000000000000
  9      0.000000000000
  10     0.000000000000
  11     0.000000000000
  12     0.000000000000
  13     0.000000000000
  14     0.000000000000
  15     0.000000000000
  16     0.000000000000
  17     0.000000000000
  18     0.000000000000
  19     0.000000000000
  20     0.000000000000
  21     0.000000000000
  22     0.000000000000
  23     1.000000000000
  24     0.000000000000
  25     0.000000000000
 Sym=     1a
 Ene=  1.48373733732213E+00
Spin= Alpha
 Occup= 0
  1      0.000000000000
  2      0.000000000000
  3      0.000000000000
  4      0.000000000000
  5      0.000000000000
  6      0.000000000000
  7      0.000000000000
  8      0.000000000000
  9      0.000000000000
  10     0.000000000000
  11     0.000000000000
  12     0.000000000000
  13     0.000000000000
  14     0.000000000000
  15     0.000000000000
  16     0.000000000000
  17     0.000000000000
  18     0.000000000000
  19     0.000000000000
  20     0.000000000000
  21     0.000000000000
  22     0.000000000000
  23     0.000000000000
  24     1.000000000000
  25     0.000000000000
 Sym=     1a
 Ene=  1.27495818169815E+00
Spin= Alpha
 Occup= 0
  1      0.000000000000
  2      0.000000000000
  3      0.000000000000
  4      0.000000000000
  5      0.000000000000
  6      0.000000000000
  7      0.000000000000
  8      0.000000000000
  9      0.000000000000
  10     0.000000000000
  11     0.000000000000
  12     0.000000000000
  13     0.000000000000
  14     0.000000000000
  15     0.000000000000
  16     0.000000000000
  17     0.000000000000
  18     0.000000000000
  19     0.000000000000
  20     0.000000000000
  21     0.000000000000
  22     0.000000000000
  23     0.000000000000
  24     0.000000000000
  25     1.000000000000
