[Molden Format]
[Title]
AHOs

[Atoms] AU
O    1   8          0.0000000000         0.0000000000         0.1182968560 
H    2   1         -1.4966630981         0.0000000000        -0.9397608064 
H    3   1          1.4966630981         0.0000000000        -0.9397608064 
[GTO]
  1 0 
s   5 1.0  
     2266.1767785000        -0.0053893504 
      340.8701019100        -0.0402347214 
       77.3631351670        -0.1800818421 
       21.4796449400        -0.4682885766 
        6.6589433124        -0.4469261716 
s   1 1.0  
        0.8097597567         1.0000000000 
s   1 1.0  
        0.2553077223         0.9999999999 
p   3 1.0  
       17.7215043170         0.0626302488 
        3.8635505440         0.3333113849 
        1.0480920883         0.7414863830 
p   1 1.0  
        0.2764154441         1.0000000002 
d   1 1.0  
        1.2000000000         1.0000000000 

  2 0 
s   3 1.0  
       13.0107010000         0.0334854848 
        1.9622572000         0.2347218709 
        0.4445379600         0.8137702852 
s   1 1.0  
        0.1219496200         0.9999999999 
p   1 1.0  
        0.8000000000         1.0000000000 

  3 0 
s   3 1.0  
       13.0107010000         0.0334854848 
        1.9622572000         0.2347218709 
        0.4445379600         0.8137702852 
s   1 1.0  
        0.1219496200         0.9999999999 
p   1 1.0  
        0.8000000000         1.0000000000 

[MO]
 Sym=     1a
 Ene= -2.02789047571759E+01
Spin= Alpha
 Occup= 2
  1     -0.975572823122
  2      0.049494195537
  3      0.015641225890
  4      0.000010233022
  5      0.000000000000
  6      0.063502224695
  7      0.000006505966
  8      0.000000000000
  9      0.049103966380
  10     0.000596130129
  11     0.002412702875
  12    -0.003008833004
  13     0.000000000000
  14    -0.000000689069
  15     0.000000000000
  16    -0.019760781468
  17    -0.004392325450
  18     0.000091194784
  19    -0.000000000000
  20    -0.000012665763
  21    -0.019765685038
  22    -0.004392599121
  23    -0.000090976267
  24    -0.000000000000
  25    -0.000012710065
 Sym=     1a
 Ene= -9.45637038601369E-01
Spin= Alpha
 Occup= 2
  1      0.320260755719
  2      0.465043273013
  3      0.395162189211
  4      0.000072073512
  5     -0.000000000001
  6      0.416913270177
  7      0.000045823005
  8     -0.000000000001
  9      0.330758451898
  10     0.012972216689
  11     0.007223773342
  12    -0.020195990031
  13     0.000000000000
  14    -0.000004853269
  15     0.000000000000
  16    -0.078248362167
  17    -0.010929190406
  18     0.001036622391
  19     0.000000000000
  20    -0.000913815717
  21    -0.078282899133
  22    -0.010931117933
  23    -0.001035083324
  24     0.000000000000
  25    -0.000914127752
 Sym=     1a
 Ene= -4.98080205411126E-01
Spin= Alpha
 Occup= 2
  1     -0.143963098511
  2     -0.450084869261
  3     -0.229253694570
  4      0.560678884022
  5     -0.000000000000
  6      0.391686748984
  7      0.356469257943
  8     -0.000000000000
  9      0.278774998022
  10    -0.007073484270
  11     0.020033141167
  12    -0.012959656897
  13     0.000000000000
  14    -0.037754861489
  15     0.000000000000
  16     0.295406532570
  17     0.022400189720
  18     0.004671244760
  19    -0.000000000000
  20     0.002151325583
  21     0.026734357723
  22     0.007405447590
  23     0.007301562471
  24     0.000000000000
  25    -0.000276076872
 Sym=     1a
 Ene= -4.98017628517328E-01
Spin= Alpha
 Occup= 2
  1     -0.143939728677
  2     -0.450024165379
  3     -0.229202601696
  4     -0.560678909815
  5     -0.000000000000
  6      0.391741482843
  7     -0.356469274341
  8     -0.000000000000
  9      0.278818399360
  10    -0.007071805527
  11     0.020034112874
  12    -0.012962307347
  13     0.000000000000
  14     0.037754863226
  15     0.000000000000
  16     0.026723922632
  17     0.007403961356
  18    -0.007301427868
  19     0.000000000000
  20    -0.000276194691
  21     0.295396109838
  22     0.022398704175
  23    -0.004671379914
  24     0.000000000000
  25     0.002151207876
 Sym=     1a
 Ene= -4.92144292244342E-01
Spin= Alpha
 Occup= 2
  1      0.000000000001
  2      0.000000000001
  3      0.000000000001
  4      0.000000000000
  5      0.633107920240
  6      0.000000000001
  7     -0.000000000000
  8      0.518845255752
  9      0.000000000000
  10     0.000000000000
  11     0.000000000000
  12     0.000000000000
  13     0.000000000000
  14     0.000000000000
  15    -0.024818764853
  16    -0.000000000000
  17    -0.000000000000
  18     0.000000000000
  19    -0.000442695343
  20    -0.000000000000
  21    -0.000000000000
  22    -0.000000000000
  23    -0.000000000000
  24    -0.000442695343
  25    -0.000000000000
 Sym=     1a
 Ene= 2.83692713042148E-01
Spin= Alpha
 Occup= 0
  1     -0.078103618273
  2     -0.254384509624
  3     -0.284342568758
  4     -0.251308132733
  5      0.000000000000
  6      0.162684901867
  7     -0.252017537603
  8      0.000000000000
  9      0.186228020808
  10    -0.016346649352
  11     0.019336602871
  12    -0.002989953519
  13     0.000000000000
  14     0.027108935261
  15     0.000000000000
  16    -0.032552059966
  17     0.004275366021
  18     0.004746919199
  19    -0.000000000000
  20    -0.001532563511
  21     1.282306571406
  22     0.184394014413
  23    -0.096917993780
  24    -0.000000000000
  25     0.054107218769
 Sym=     1a
 Ene= 2.83703921212307E-01
Spin= Alpha
 Occup= 0
  1     -0.078103831123
  2     -0.254388685196
  3     -0.284329439616
  4      0.251310756482
  5     -0.000000000000
  6      0.162686400904
  7      0.252017089284
  8     -0.000000000000
  9      0.186221823267
  10    -0.016349375782
  11     0.019336743628
  12    -0.002987367846
  13     0.000000000000
  14    -0.027109621786
  15     0.000000000000
  16     1.282321345162
  17     0.184362511605
  18     0.096911131357
  19     0.000000000000
  20     0.054120103297
  21    -0.032555055786
  22     0.004281406377
  23    -0.004746462681
  24     0.000000000000
  25    -0.001532529300
 Sym=     1a
 Ene= 8.30506073359406E-01
Spin= Alpha
 Occup= 0
  1      0.006065947566
  2      0.179706683486
  3     -0.677226771475
  4      0.105419186982
  5      0.000000000000
  6     -0.057587548342
  7     -0.125195266244
  8      0.000000000000
  9      0.269299333887
  10     0.099912833764
  11     0.001268818772
  12    -0.101181652536
  13     0.000000000000
  14    -0.015248952806
  15     0.000000000000
  16     0.098832837792
  17    -0.318141375776
  18     0.017059934274
  19    -0.000000000000
  20    -0.004833277899
  21    -0.675623861778
  22     1.602194545576
  23    -0.324869882630
  24    -0.000000000000
  25    -0.460253426295
 Sym=     1a
 Ene= 9.90685362558816E-01
Spin= Alpha
 Occup= 0
  1      0.011915750195
  2      0.200483487512
  3     -0.568030687787
  4     -0.133292686769
  5     -0.000000000000
  6     -0.078480872844
  7      0.012770835601
  8     -0.000000000001
  9      0.261431408645
  10     0.129735920154
  11    -0.014547551053
  12    -0.115188369101
  13     0.000000000000
  14     0.042358109230
  15     0.000000000000
  16    -0.718178477572
  17     1.451523590611
  18     0.268864091560
  19     0.000000000001
  20    -0.602555534328
  21     0.125987453791
  22    -0.281362251808
  23    -0.018463915500
  24     0.000000000000
  25    -0.000998373341
 Sym=     1a
 Ene= 1.29814870726536E+00
Spin= Alpha
 Occup= 0
  1     -0.019974743599
  2     -0.351951516466
  3      1.170285279710
  4     -0.000903800308
  5      0.094718261481
  6      0.871281898629
  7      0.017623053273
  8     -0.102524340327
  9     -1.462248071160
  10    -0.064257797253
  11    -0.029177771659
  12     0.093435568912
  13     0.000000000000
  14    -0.024487164923
  15    -0.000862768724
  16    -0.552084193734
  17    -0.219162212008
  18    -0.036041432632
  19     0.001834335587
  20     0.024444682718
  21    -0.580469600325
  22    -0.224196048853
  23     0.042744508972
  24     0.001834335587
  25     0.020017140993
 Sym=     1a
 Ene= 1.37223079138181E+00
Spin= Alpha
 Occup= 0
  1      0.013144970890
  2      0.066560592313
  3     -0.036536825247
  4      0.805287057105
  5      0.073824873951
  6      0.010865348106
  7     -1.686129480275
  8     -0.078239394716
  9     -0.028567301588
  10     0.182071111704
  11    -0.049009631064
  12    -0.133061480640
  13     0.000000000000
  14    -0.028400427628
  15    -0.076742840525
  16    -0.624335458897
  17    -0.283948282337
  18     0.010053929555
  19    -0.004005204154
  20    -0.042213987535
  21     0.553583801531
  22     0.307877550756
  23     0.013999572469
  24    -0.004005204154
  25    -0.003625037508
 Sym=     1a
 Ene= 1.49752527154016E+00
Spin= Alpha
 Occup= 0
  1      0.272069225588
  2      1.667407262175
  3     -2.590594179435
  4     -0.023183447939
  5     -0.000000000125
  6      0.213641401418
  7      0.003441696158
  8      0.000000000133
  9      0.297853031181
  10    -0.013536129577
  11    -0.264375440042
  12     0.277911569619
  13     0.000000000000
  14     0.071114613155
  15     0.000000000122
  16     0.435295081177
  17     0.416915863689
  18     0.015322836483
  19     0.000000000006
  20     0.013292544684
  21     0.478975641628
  22     0.412405597650
  23    -0.035310679881
  24     0.000000000006
  25     0.024751360736
 Sym=     1a
 Ene= 1.50690210688989E+00
Spin= Alpha
 Occup= 0
  1     -0.006297934775
  2     -0.006821637006
  3     -0.185686697816
  4     -0.013336985563
  5     -0.000000000000
  6     -0.011315975039
  7      0.695577193461
  8     -0.000000000000
  9     -0.352258359156
  10    -0.145125861770
  11    -0.023394809025
  12     0.168520670795
  13     0.000000000000
  14    -0.013035070589
  15     0.000000000000
  16    -0.358780033413
  17     1.162075634210
  18    -0.398612631641
  19     0.000000000000
  20     0.879441703612
  21    -0.406113119408
  22    -0.334213684938
  23     0.054430485076
  24     0.000000000000
  25    -0.018381144590
 Sym=     1a
 Ene= 1.94640388028849E+00
Spin= Alpha
 Occup= 0
  1     -0.000000000000
  2     -0.000000000000
  3     -0.000000000001
  4     -0.000000000000
  5     -0.011210886936
  6      0.000000000000
  7     -0.000000000000
  8     -0.409196286059
  9      0.000000000001
  10     0.000000000000
  11     0.000000000000
  12     0.000000000000
  13    -0.183062487173
  14     0.000000000000
  15     0.145901652902
  16     0.000000000000
  17     0.000000000000
  18     0.000000000000
  19     0.052186310255
  20    -0.000000000000
  21     0.000000000001
  22    -0.000000000000
  23    -0.000000000002
  24     1.129826570637
  25     0.000000000000
 Sym=     1a
 Ene= 1.94640388028909E+00
Spin= Alpha
 Occup= 0
  1     -0.000000000000
  2     -0.000000000000
  3      0.000000000001
  4      0.000000000000
  5     -0.011210886936
  6      0.000000000000
  7     -0.000000000000
  8     -0.409196286059
  9     -0.000000000000
  10     0.000000000000
  11     0.000000000000
  12     0.000000000000
  13     0.183062487174
  14     0.000000000000
  15     0.145901652902
  16     0.000000000001
  17    -0.000000000002
  18    -0.000000000000
  19     1.129826570637
  20     0.000000000001
  21    -0.000000000000
  22     0.000000000000
  23     0.000000000000
  24     0.052186310255
  25     0.000000000000
 Sym=     1a
 Ene= 2.06242278866718E+00
Spin= Alpha
 Occup= 0
  1     -0.052307071609
  2     -0.195291441858
  3     -0.929005362956
  4     -0.255299165128
  5     -0.000000000000
  6      0.190213569031
  7     -0.967678112979
  8     -0.000000000000
  9      0.069733450444
  10    -0.265787028259
  11     0.142069661033
  12     0.123717367226
  13     0.000000000000
  14     0.242283584537
  15     0.000000000000
  16    -0.231109922752
  17    -0.296589999158
  18    -0.011234476545
  19     0.000000000000
  20    -0.033196743159
  21     0.432820952341
  22     1.206866277535
  23    -0.498171132616
  24     0.000000000000
  25     1.259545954492
 Sym=     1a
 Ene= 2.11327127387999E+00
Spin= Alpha
 Occup= 0
  1     -0.000369171682
  2      0.007911368227
  3     -0.028968552888
  4     -0.097992098339
  5      0.664637178127
  6     -0.060343583888
  7      0.152970036267
  8     -0.703983287721
  9      0.080151851448
  10     0.058351795042
  11    -0.023204807194
  12    -0.035146987848
  13     0.000000000000
  14     0.084831730361
  15    -0.709009978448
  16     0.040213002518
  17     0.038136778149
  18    -0.013030544164
  19    -0.037351770886
  20    -0.013298748299
  21    -0.013302996540
  22    -0.019377870746
  23    -0.012232744153
  24    -0.037351770886
  25    -0.003443731602
 Sym=     1a
 Ene= 2.16759279063400E+00
Spin= Alpha
 Occup= 0
  1      0.001351286065
  2      0.023946802785
  3     -0.079681089830
  4     -0.001098448614
  5      0.689927849543
  6     -0.059617388634
  7      0.001590830950
  8     -0.762913915010
  9      0.099894878524
  10     0.004663166322
  11     0.001740520206
  12    -0.006403686528
  13     0.000000000000
  14     0.001144041239
  15     0.728450410373
  16     0.038755076600
  17     0.015426832834
  18     0.002494281203
  19     0.065855057243
  20    -0.001625269535
  21     0.038368339799
  22     0.014816534274
  23    -0.002830478404
  24     0.065855057243
  25    -0.001480268419
 Sym=     1a
 Ene= 2.42230775518033E+00
Spin= Alpha
 Occup= 0
  1      0.060242903275
  2      0.227823033702
  3      1.071840250943
  4      0.356994195991
  5     -0.000000000000
  6     -0.271759019326
  7      0.163523025935
  8     -0.000000000000
  9     -0.741982561506
  10     0.101492928108
  11    -0.235740328907
  12     0.134247400799
  13     0.000000000000
  14    -0.308718314015
  15     0.000000000000
  16    -0.392125761137
  17    -0.111075653963
  18    -0.080349616545
  19     0.000000000000
  20     0.015065449494
  21    -1.098713446690
  22     0.063571290932
  23     1.419988191697
  24     0.000000000001
  25    -0.155482419021
 Sym=     1a
 Ene= 2.81763793958560E+00
Spin= Alpha
 Occup= 0
  1     -0.078869198812
  2     -0.286521004679
  3     -1.453752950850
  4      0.431033166234
  5     -0.000000000000
  6      0.327204379120
  7      0.703437321091
  8      0.000000000000
  9      0.659918920909
  10    -0.230289207999
  11     0.273861182692
  12    -0.043571974693
  13     0.000000000000
  14    -0.390226477319
  15     0.000000000000
  16     1.098376752356
  17     0.755159576444
  18     1.462498814657
  19    -0.000000000000
  20     0.828234105829
  21     0.190109019908
  22    -0.103217284674
  23    -0.059747185310
  24     0.000000000000
  25    -0.031835341669
 Sym=     1a
 Ene= 3.11872759820289E+00
Spin= Alpha
 Occup= 0
  1      0.000000000000
  2      0.000000000000
  3     -0.000000000000
  4      0.000000000000
  5     -0.000000000000
  6     -0.000000000000
  7     -0.000000000000
  8      0.000000000000
  9      0.000000000000
  10     0.000000000000
  11     0.000000000000
  12     0.000000000000
  13     1.038502990167
  14     0.000000000000
  15     0.000000000000
  16     0.000000000000
  17     0.000000000000
  18     0.000000000000
  19     0.091968432102
  20    -0.000000000000
  21     0.000000000000
  22     0.000000000000
  23    -0.000000000000
  24    -0.091968432102
  25     0.000000000000
 Sym=     1a
 Ene= 3.14094787264433E+00
Spin= Alpha
 Occup= 0
  1     -0.087247377330
  2     -0.621296344924
  3      1.391807232558
  4      0.026397821383
  5      0.002012233172
  6     -0.114125137266
  7      0.027487541531
  8     -0.002125476483
  9     -0.362572480691
  10     0.243105016836
  11    -0.978058488223
  12     0.734953471387
  13     0.000000000000
  14    -0.129927155173
  15    -0.002414454324
  16    -0.464558579475
  17    -0.173153514367
  18    -0.116258294842
  19    -0.000132223849
  20    -0.008813066377
  21    -0.568327785813
  22    -0.176741879626
  23     0.152454107388
  24    -0.000132223849
  25    -0.030613809828
 Sym=     1a
 Ene= 3.30743263097947E+00
Spin= Alpha
 Occup= 0
  1      0.008467785784
  2     -0.052425718773
  3      0.560580680549
  4     -0.133915340280
  5     -0.055294667894
  6      0.041374416915
  7      0.080611389954
  8      0.058578193507
  9     -0.344975994233
  10     1.043254444833
  11    -0.419738605671
  12    -0.623515839162
  13     0.000000000000
  14     0.316121627526
  15     0.058525408146
  16    -0.471902457332
  17    -0.026899742672
  18    -0.088228372933
  19     0.003074563556
  20    -0.156020481344
  21    -0.324071998008
  22    -0.069822210946
  23    -0.001245440471
  24     0.003074563556
  25    -0.106756643360
 Sym=     1a
 Ene= 3.64268360261085E+00
Spin= Alpha
 Occup= 0
  1     -0.028966936287
  2     -0.164684746476
  3      0.188817553100
  4      0.030849305526
  5     -0.030324505136
  6     -0.014090170666
  7     -0.806081027324
  8      0.032101719947
  9     -0.002396111070
  10    -0.258609771327
  11     0.021022049597
  12     0.237587721730
  13     0.000000000000
  14     1.154653762978
  15     0.033168089448
  16    -0.651611259467
  17    -0.151415516322
  18    -0.163783118353
  19     0.001762716395
  20    -0.070961717341
  21     0.669186468164
  22     0.077224598632
  23    -0.152527493134
  24     0.001762716395
  25     0.137173925546
