[Molden Format]
[Title]
LPOs

[Atoms] AU
O    1   8          0.0000000000         0.0000000000         0.1182968560 
H    2   1         -1.4966630981         0.0000000000        -0.9397608064 
H    3   1          1.4966630981         0.0000000000        -0.9397608064 
[GTO]
  1 0 
s   5 1.0  
     2266.1767785000        -0.0053893504 
      340.8701019100        -0.0402347214 
       77.3631351670        -0.1800818421 
       21.4796449400        -0.4682885766 
        6.6589433124        -0.4469261716 
s   1 1.0  
        0.8097597567         1.0000000000 
s   1 1.0  
        0.2553077223         0.9999999999 
p   3 1.0  
       17.7215043170         0.0626302488 
        3.8635505440         0.3333113849 
        1.0480920883         0.7414863830 
p   1 1.0  
        0.2764154441         1.0000000002 
d   1 1.0  
        1.2000000000         1.0000000000 

  2 0 
s   3 1.0  
       13.0107010000         0.0334854848 
        1.9622572000         0.2347218709 
        0.4445379600         0.8137702852 
s   1 1.0  
        0.1219496200         0.9999999999 
p   1 1.0  
        0.8000000000         1.0000000000 

  3 0 
s   3 1.0  
       13.0107010000         0.0334854848 
        1.9622572000         0.2347218709 
        0.4445379600         0.8137702852 
s   1 1.0  
        0.1219496200         0.9999999999 
p   1 1.0  
        0.8000000000         1.0000000000 

[5D]
[MO]
 Sym=     1a
 Ene=  0.00000000000000E+00
Spin= Alpha
 Occup=-0.000000
  1       0.272069225588
  2       1.667407262175
  3      -2.590594179435
  4      -0.023183447939
  5      -0.000000000125
  6       0.213641401418
  7       0.003441696158
  8       0.000000000133
  9       0.297853031181
 10       0.277911569619
 11       0.071114613155
 12       0.000000000122
 13       0.144822143420
 14       0.000000000000
 15       0.435295081177
 16       0.416915863689
 17       0.015322836483
 18       0.000000000006
 19       0.013292544684
 20       0.478975641628
 21       0.412405597650
 22      -0.035310679881
 23       0.000000000006
 24       0.024751360736
 Sym=     1a
 Ene=  1.00000000000000E+00
Spin= Alpha
 Occup= 1.998543
  1       0.319822297546
  2       0.459460922190
  3       0.410354320441
  4       0.003670798049
  5      -0.000000000001
  6       0.418880184632
  7      -0.000298991722
  8      -0.000000000001
  9       0.323579528196
 10      -0.017078673029
 11      -0.001148472231
 12       0.000000000000
 13       0.001068593570
 14      -0.000000000000
 15      -0.058829836481
 16      -0.050114690947
 17      -0.006222779909
 18      -0.000000000000
 19       0.015354830916
 20      -0.081655880057
 21      -0.003330672637
 22      -0.000536201299
 23      -0.000000000000
 24      -0.000886839576
 Sym=     1a
 Ene=  2.00000000000000E+00
Spin= Alpha
 Occup= 0.000039
  1      -0.020558082318
  2      -0.212966043116
  3       0.557154691038
  4       0.133242150922
  5       0.000000000000
  6       0.067196080058
  7      -0.012767417344
  8       0.000000000001
  9      -0.270266209247
 10       0.115691647568
 11      -0.042342537154
 12      -0.000000000000
 13      -0.083361339936
 14      -0.000000000000
 15       0.720029292577
 16      -1.450699382730
 17      -0.268794068622
 18      -0.000000000001
 19       0.602360553304
 20      -0.123827977701
 21       0.281554812961
 22       0.018485130815
 23      -0.000000000000
 24       0.001022689807
 Sym=     1a
 Ene=  3.00000000000000E+00
Spin= Alpha
 Occup= 1.999972
  1      -0.975341939423
  2       0.050341461294
  3       0.019628864979
  4       0.001338418429
  5       0.000000000000
  6       0.062490714467
  7       0.000614888104
  8       0.000000000000
  9       0.046343104165
 10      -0.002509349023
 11      -0.001149265668
 12      -0.000000000000
 13      -0.000324410020
 14      -0.000000000000
 15      -0.021219536045
 16      -0.004805548466
 17      -0.000207744023
 18       0.000000000000
 19       0.000043384848
 20      -0.023853276446
 21      -0.004156053767
 22       0.005192044973
 23       0.000000000000
 24      -0.000591177340
 Sym=     1a
 Ene=  4.00000000000000E+00
Spin= Alpha
 Occup= 0.000214
  1      -0.063872073794
  2      -0.227637315376
  3      -1.071774640094
  4      -0.356991687175
  5       0.000000000000
  6       0.271993396485
  7      -0.163521869993
  8       0.000000000000
  9       0.742160116005
 10      -0.134257665945
 11       0.308716174823
 12      -0.000000000000
 13      -0.194704266215
 14       0.000000000000
 15       0.392049527894
 16       0.111058543706
 17       0.080349399736
 18      -0.000000000000
 19      -0.015065392349
 20       1.098632304934
 21      -0.063587193481
 22      -1.419978702483
 23      -0.000000000001
 24       0.155481295646
 Sym=     1a
 Ene=  5.00000000000000E+00
Spin= Alpha
 Occup=-0.000000
  1       0.013144970890
  2       0.066560592313
  3      -0.036536825247
  4       0.805287057105
  5       0.073824873951
  6       0.010865348106
  7      -1.686129480275
  8      -0.078239394716
  9      -0.028567301588
 10      -0.133061480640
 11      -0.028400427628
 12      -0.076742840525
 13       0.133414529042
 14      -0.000000000000
 15      -0.624335458897
 16      -0.283948282337
 17       0.010053929555
 18      -0.004005204154
 19      -0.042213987535
 20       0.553583801531
 21       0.307877550756
 22       0.013999572469
 23      -0.004005204154
 24      -0.003625037508
 Sym=     1a
 Ene=  6.00000000000000E+00
Spin= Alpha
 Occup=-0.000000
  1      -0.000369171682
  2       0.007911368227
  3      -0.028968552888
  4      -0.097992098339
  5       0.664637178127
  6      -0.060343583888
  7       0.152970036267
  8      -0.703983287721
  9       0.080151851448
 10      -0.035146987848
 11       0.084831730361
 12      -0.709009978448
 13       0.047086726255
 14      -0.000000000000
 15       0.040213002518
 16       0.038136778149
 17      -0.013030544164
 18      -0.037351770886
 19      -0.013298748299
 20      -0.013302996540
 21      -0.019377870746
 22      -0.012232744153
 23      -0.037351770886
 24      -0.003443731602
 Sym=     1a
 Ene=  7.00000000000000E+00
Spin= Alpha
 Occup=-0.000000
  1      -0.019974743599
  2      -0.351951516466
  3       1.170285279710
  4      -0.000903800308
  5       0.094718261481
  6       0.871281898629
  7       0.017623053273
  8      -0.102524340327
  9      -1.462248071160
 10       0.093435568912
 11      -0.024487164923
 12      -0.000862768724
 13      -0.020253462220
 14       0.000000000000
 15      -0.552084193734
 16      -0.219162212008
 17      -0.036041432632
 18       0.001834335587
 19       0.024444682718
 20      -0.580469600325
 21      -0.224196048853
 22       0.042744508972
 23       0.001834335587
 24       0.020017140993
 Sym=     1a
 Ene=  8.00000000000000E+00
Spin= Alpha
 Occup= 1.998951
  1      -0.082953679534
  2      -0.254075674920
  3      -0.049503504812
  4       0.350373590758
  5      -0.000000000000
  6       0.251418526875
  7       0.175131424778
  8      -0.000000000000
  9       0.142572042773
 10      -0.009555558860
 11      -0.018333099974
 12       0.000000000000
 13      -0.002763001702
 14      -0.000000000000
 15      -0.409184155884
 16      -0.076017585027
 17      -0.046042245194
 18      -0.000000000000
 19      -0.026103975257
 20       0.039704926760
 21       0.004130933533
 22       0.008703739638
 23      -0.000000000000
 24       0.000554938580
 Sym=     1a
 Ene=  9.00000000000000E+00
Spin= Alpha
 Occup= 0.000347
  1       0.141224180722
  2       0.450261639613
  3       0.361869990076
  4      -0.504733844923
  5       0.000000000000
  6      -0.341575904761
  7      -0.399889896352
  8       0.000000000000
  9      -0.303425904634
 10       0.009250317206
 11       0.042711340470
 12      -0.000000000000
 13       0.025725251706
 14      -0.000000000000
 15      -1.250672370494
 16      -0.169448018435
 17      -0.085403158993
 18      -0.000000000000
 19      -0.047457309852
 20       0.014073959325
 21      -0.007490426071
 22       0.000294344714
 23      -0.000000000000
 24       0.001454959679
 Sym=     1a
 Ene=  1.00000000000000E+01
Spin= Alpha
 Occup= 1.998820
  1       0.000000000001
  2       0.000000000001
  3       0.000000000001
  4       0.000000000000
  5       0.632648706631
  6       0.000000000001
  7      -0.000000000000
  8       0.508751122104
  9       0.000000000000
 10      -0.000000000000
 11      -0.000000000000
 12      -0.021266910004
 13       0.000000000000
 14       0.004447313834
 15      -0.000000000000
 16      -0.000000000000
 17      -0.000000000000
 18       0.027005403576
 19       0.000000000000
 20      -0.000000000000
 21      -0.000000000000
 22      -0.000000000000
 23       0.000825247760
 24      -0.000000000000
 Sym=     1a
 Ene=  1.10000000000000E+01
Spin= Alpha
 Occup=-0.000000
  1       0.000000000000
  2       0.000000000000
  3      -0.000000000001
  4      -0.000000000000
  5       0.026588280404
  6      -0.000000000000
  7       0.000000000000
  8       0.421680324059
  9       0.000000000000
 10      -0.000000000000
 11       0.000000000000
 12      -0.146461537433
 13       0.000000000000
 14      -0.183008457755
 15      -0.000000000001
 16       0.000000000002
 17       0.000000000000
 18      -1.129503866250
 19      -0.000000000001
 20       0.000000000000
 21      -0.000000000000
 22      -0.000000000000
 23      -0.052181662712
 24      -0.000000000000
 Sym=     1a
 Ene=  1.20000000000000E+01
Spin= Alpha
 Occup= 1.998951
  1      -0.082933776080
  2      -0.254025845545
  3      -0.049452970414
  4      -0.350374966544
  5      -0.000000000000
  6       0.251466172183
  7      -0.175131206415
  8      -0.000000000000
  9       0.142606009099
 10      -0.009556493406
 11       0.018333455869
 12       0.000000000000
 13      -0.002763506864
 14      -0.000000000000
 15       0.039694443605
 16       0.004132779852
 17      -0.008703860104
 18       0.000000000000
 19       0.000554855353
 20      -0.409185455546
 21      -0.076035124850
 22       0.046045673233
 23       0.000000000000
 24      -0.026097422911
 Sym=     1a
 Ene=  1.30000000000000E+01
Spin= Alpha
 Occup= 0.000347
  1       0.141211931026
  2       0.450226718396
  3       0.361854850388
  4       0.504731612155
  5       0.000000000000
  6      -0.341602884828
  7       0.399890289140
  8      -0.000000000000
  9      -0.303453623680
 10       0.009253900127
 11      -0.042710753494
 12       0.000000000000
 13       0.025723623325
 14      -0.000000000000
 15       0.014076782152
 16      -0.007484485892
 17      -0.000294805144
 18       0.000000000000
 19       0.001455049813
 20      -1.250654335837
 21      -0.169474228982
 22       0.085409105400
 23       0.000000000000
 24      -0.047446215187
 Sym=     1a
 Ene=  1.40000000000000E+01
Spin= Alpha
 Occup=-0.000000
  1      -0.087247377330
  2      -0.621296344924
  3       1.391807232558
  4       0.026397821383
  5       0.002012233172
  6      -0.114125137266
  7       0.027487541531
  8      -0.002125476483
  9      -0.362572480691
 10       0.734953471387
 11      -0.129927155173
 12      -0.002414454324
 13       0.705039078370
 14       0.000000000000
 15      -0.464558579475
 16      -0.173153514367
 17      -0.116258294842
 18      -0.000132223849
 19      -0.008813066377
 20      -0.568327785813
 21      -0.176741879626
 22       0.152454107388
 23      -0.000132223849
 24      -0.030613809828
 Sym=     1a
 Ene=  1.50000000000000E+01
Spin= Alpha
 Occup= 0.000000
  1      -0.028966936287
  2      -0.164684746476
  3       0.188817553100
  4       0.030849305526
  5      -0.030324505136
  6      -0.014090170666
  7      -0.806081027324
  8       0.032101719947
  9      -0.002396111070
 10       0.237587721730
 11       1.154653762978
 12       0.033168089448
 13      -0.161445507084
 14       0.000000000000
 15      -0.651611259467
 16      -0.151415516322
 17      -0.163783118353
 18       0.001762716395
 19      -0.070961717341
 20       0.669186468164
 21       0.077224598632
 22      -0.152527493134
 23       0.001762716395
 24       0.137173925546
 Sym=     1a
 Ene=  1.60000000000000E+01
Spin= Alpha
 Occup=-0.000000
  1       0.001351286065
  2       0.023946802785
  3      -0.079681089830
  4      -0.001098448614
  5       0.689927849543
  6      -0.059617388634
  7       0.001590830950
  8      -0.762913915010
  9       0.099894878524
 10      -0.006403686528
 11       0.001144041239
 12       0.728450410373
 13       0.001687390522
 14       0.000000000000
 15       0.038755076600
 16       0.015426832834
 17       0.002494281203
 18       0.065855057243
 19      -0.001625269535
 20       0.038368339799
 21       0.014816534274
 22      -0.002830478404
 23       0.065855057243
 24      -0.001480268419
 Sym=     1a
 Ene=  1.70000000000000E+01
Spin= Alpha
 Occup=-0.000000
  1       0.008467785784
  2      -0.052425718773
  3       0.560580680549
  4      -0.133915340280
  5      -0.055294667894
  6       0.041374416915
  7       0.080611389954
  8       0.058578193507
  9      -0.344975994233
 10      -0.623515839162
 11       0.316121627526
 12       0.058525408146
 13       0.844659431531
 14       0.000000000000
 15      -0.471902457332
 16      -0.026899742672
 17      -0.088228372933
 18       0.003074563556
 19      -0.156020481344
 20      -0.324071998008
 21      -0.069822210946
 22      -0.001245440471
 23       0.003074563556
 24      -0.106756643360
 Sym=     1a
 Ene=  1.80000000000000E+01
Spin= Alpha
 Occup= 0.000000
  1       0.000000000000
  2       0.000000000000
  3      -0.000000000000
  4       0.000000000000
  5      -0.000000000000
  6      -0.000000000000
  7      -0.000000000000
  8       0.000000000000
  9       0.000000000000
 10      -0.000000000000
 11       0.000000000000
 12      -0.000000000000
 13      -0.000000000000
 14       1.038502990167
 15       0.000000000000
 16       0.000000000000
 17       0.000000000000
 18       0.091968432102
 19      -0.000000000000
 20       0.000000000000
 21       0.000000000000
 22      -0.000000000000
 23      -0.091968432102
 24       0.000000000000
 Sym=     1a
 Ene=  1.90000000000000E+01
Spin= Alpha
 Occup= 0.000432
  1      -0.052301815204
  2      -0.195272346046
  3      -0.928908474585
  4      -0.255327891046
  5      -0.000000000000
  6       0.190191761861
  7      -0.967724991866
  8      -0.000000000000
  9       0.069689469565
 10       0.123720270834
 11       0.242309590896
 12       0.000000000000
 13      -0.235456770190
 14      -0.000000000000
 15      -0.231183124270
 16      -0.296640326599
 17      -0.011331945702
 18       0.000000000000
 19      -0.033251941285
 20       0.432808281441
 21       1.206873153838
 22      -0.498167149620
 23       0.000000000000
 24       1.259548073381
 Sym=     1a
 Ene=  2.00000000000000E+01
Spin= Alpha
 Occup= 0.000018
  1       0.078872684676
  2       0.286534019368
  3       1.453814861787
  4      -0.431016150699
  5       0.000000000000
  6      -0.327217055300
  7      -0.703372827993
  8      -0.000000000000
  9      -0.659923566875
 10       0.043563729372
 11       0.390210329306
 12       0.000000000000
 13       0.291087056594
 14       0.000000000000
 15      -1.098361347446
 16      -0.755139808334
 17      -1.462498062680
 18       0.000000000000
 19      -0.828231891571
 20      -0.190137865119
 21       0.103136852059
 22       0.059780386115
 23      -0.000000000000
 24       0.031751398341
 Sym=     1a
 Ene=  2.10000000000000E+01
Spin= Alpha
 Occup= 0.001512
  1       0.006065240444
  2       0.179705916473
  3      -0.677247614674
  4       0.105417688944
  5       0.000000000000
  6      -0.057588818449
  7      -0.125117171422
  8       0.000000000000
  9       0.269259783343
 10      -0.101162731700
 11      -0.015250416187
 12      -0.000000000000
 13       0.056944257592
 14       0.000000000000
 15       0.098792556119
 16      -0.318010904897
 17       0.017015181020
 18      -0.000000000000
 19      -0.004734540948
 20      -0.675669452763
 21       1.602157012547
 22      -0.324863769548
 23      -0.000000000000
 24      -0.460255487087
 Sym=     1a
 Ene=  2.20000000000000E+01
Spin= Alpha
 Occup= 0.000672
  1       0.006298615773
  2       0.006841813041
  3       0.185610662856
  4       0.013348821130
  5       0.000000000000
  6       0.011309509483
  7      -0.695591245034
  8       0.000000000000
  9       0.352288591784
 10      -0.168532029628
 11       0.013033358472
 12      -0.000000000000
 13       0.070287849775
 14      -0.000000000000
 15       0.358791127339
 16      -1.162111345342
 17       0.398614544487
 18      -0.000000000000
 19      -0.879442240712
 20       0.406037263021
 21       0.334393564857
 22      -0.054466958613
 23      -0.000000000000
 24       0.018329470775
 Sym=     1a
 Ene=  2.30000000000000E+01
Spin= Alpha
 Occup= 0.001180
  1      -0.000000000000
  2      -0.000000000000
  3      -0.000000000001
  4      -0.000000000000
  5      -0.011210886936
  6       0.000000000000
  7      -0.000000000000
  8      -0.409196286059
  9       0.000000000001
 10      -0.000000000000
 11       0.000000000000
 12       0.145901652902
 13      -0.000000000000
 14      -0.183062487173
 15       0.000000000000
 16       0.000000000000
 17       0.000000000000
 18       0.052186310255
 19      -0.000000000000
 20       0.000000000001
 21      -0.000000000000
 22      -0.000000000002
 23       1.129826570637
 24       0.000000000000
