[Molden Format]
[Title]
NAOs

[Atoms] AU
C    1   6         -4.9870754330         2.0390960773        -1.7219241257 
H    2   1         -5.6555011207         1.2184743410         0.0380298603 
C    3   6         -5.3839195389         4.5526583868        -2.2438328973 
H    4   1         -4.0266681140         0.8275168676        -3.0736342503 
H    5   1         -6.3718030129         5.7571009102        -0.9054893222 
H    6   1         -3.3367681448         3.7766558912        -1.0753159647 
H    7   1         -4.7424281061         5.3665587738        -4.0168112080 
[GTO]
  1 0 
s   6 1.0  
    13575.3496820000         0.0006064549 
     2035.2333680000         0.0046979088 
      463.2256235900         0.0243324776 
      131.2001959800         0.0973999683 
       42.8530158910         0.3019558425 
       15.5841857660         0.6623360915 
s   2 1.0  
        6.2067138508         0.6559530853 
        2.5764896527         0.3758563329 
s   1 1.0  
        0.5769633942         1.0000000000 
s   1 1.0  
        0.2297283136         1.0000000000 
s   1 1.0  
        0.0951644400         1.0000000003 
p   4 1.0  
       34.6972322440         0.0113272200 
        7.9582622826         0.0761696592 
        2.3780826883         0.3019225220 
        0.8143320818         0.7278502735 
p   1 1.0  
        0.2888754725         0.9999999999 
p   1 1.0  
        0.1005682367         0.9999999995 
d   1 1.0  
        1.0970000000         1.0000000000 
d   1 1.0  
        0.3180000000         1.0000000000 
f   1 1.0  
        0.7610000000         1.0000000000 

  2 0 
s   3 1.0  
       34.0613410000         0.0254393072 
        5.1235746000         0.1900859489 
        1.1646626000         0.8524411301 
s   1 1.0  
        0.3272304100         1.0000000002 
s   1 1.0  
        0.1030724100         1.0000000001 
p   1 1.0  
        0.8000000000         1.0000000000 

  3 0 
s   6 1.0  
    13575.3496820000         0.0006064549 
     2035.2333680000         0.0046979088 
      463.2256235900         0.0243324776 
      131.2001959800         0.0973999683 
       42.8530158910         0.3019558425 
       15.5841857660         0.6623360915 
s   2 1.0  
        6.2067138508         0.6559530853 
        2.5764896527         0.3758563329 
s   1 1.0  
        0.5769633942         1.0000000000 
s   1 1.0  
        0.2297283136         1.0000000000 
s   1 1.0  
        0.0951644400         1.0000000003 
p   4 1.0  
       34.6972322440         0.0113272200 
        7.9582622826         0.0761696592 
        2.3780826883         0.3019225220 
        0.8143320818         0.7278502735 
p   1 1.0  
        0.2888754725         0.9999999999 
p   1 1.0  
        0.1005682367         0.9999999995 
d   1 1.0  
        1.0970000000         1.0000000000 
d   1 1.0  
        0.3180000000         1.0000000000 
f   1 1.0  
        0.7610000000         1.0000000000 

  4 0 
s   3 1.0  
       34.0613410000         0.0254393072 
        5.1235746000         0.1900859489 
        1.1646626000         0.8524411301 
s   1 1.0  
        0.3272304100         1.0000000002 
s   1 1.0  
        0.1030724100         1.0000000001 
p   1 1.0  
        0.8000000000         1.0000000000 

  5 0 
s   3 1.0  
       34.0613410000         0.0254393072 
        5.1235746000         0.1900859489 
        1.1646626000         0.8524411301 
s   1 1.0  
        0.3272304100         1.0000000002 
s   1 1.0  
        0.1030724100         1.0000000001 
p   1 1.0  
        0.8000000000         1.0000000000 

  6 0 
s   3 1.0  
       34.0613410000         0.0254393072 
        5.1235746000         0.1900859489 
        1.1646626000         0.8524411301 
s   1 1.0  
        0.3272304100         1.0000000002 
s   1 1.0  
        0.1030724100         1.0000000001 
p   1 1.0  
        0.8000000000         1.0000000000 

  7 0 
s   3 1.0  
       34.0613410000         0.0254393072 
        5.1235746000         0.1900859489 
        1.1646626000         0.8524411301 
s   1 1.0  
        0.3272304100         1.0000000002 
s   1 1.0  
        0.1030724100         1.0000000001 
p   1 1.0  
        0.8000000000         1.0000000000 

[MO]
 Sym=     1a
 Ene= -1.04644690634576E+01
Spin= Alpha
 Occup= 2
  1      0.475589146498
  2      0.630593676481
  3     -0.017586362900
  4     -0.002182054098
  5      0.009734647648
  6     -0.000832828705
  7      0.000468670343
  8     -0.000494921210
  9     -0.002449449804
  10     0.032510003763
  11    -0.005334120750
  12    -0.000836069039
  13     0.009136952294
  14    -0.001575363079
  15    -0.000315067450
  16     0.000365387187
  17    -0.000050319737
  18    -0.000111588860
  19    -0.000191378870
  20    -0.000107592118
  21    -0.005984859097
  22     0.009462631997
  23    -0.003477772900
  24    -0.001933015317
  25    -0.001499644941
  26    -0.002822051113
  27     0.000153081799
  28     0.001253016835
  29     0.000378163363
  30    -0.000081377396
  31    -0.000415374785
  32     0.000183884939
  33    -0.000124003389
  34    -0.001265723706
  35    -0.000691244330
  36     0.000813086124
  37    -0.000959602125
  38    -0.023795870180
  39     0.001019932615
  40    -0.000315526547
  41    -0.000556309011
  42     0.000866919784
  43     0.002188363589
  44     0.003384808372
  45     0.005443223337
  46    -0.066432929261
  47    -0.004037488466
  48    -0.002001285429
  49     0.009052716012
  50    -0.002175042859
  51    -0.006841757147
  52     0.051595833571
  53    -0.010018396193
  54    -0.001798325708
  55     0.014196717801
  56    -0.002713425613
  57     0.000284008507
  58    -0.000479036639
  59     0.000195028132
  60     0.000132520866
  61     0.000036250925
  62     0.000166864798
  63     0.004520008643
  64    -0.006932297978
  65     0.002412289335
  66     0.002250420338
  67     0.001141525366
  68     0.002493927526
  69     0.000133112995
  70     0.000352943051
  71     0.000120575301
  72    -0.000218176840
  73    -0.000235559396
  74     0.000090802660
  75     0.000039587016
  76    -0.000237963397
  77    -0.000252571402
  78     0.000083580315
  79    -0.000959588447
  80    -0.023784807022
  81     0.001018882025
  82     0.000465586494
  83    -0.000741273137
  84    -0.000625610540
  85     0.000538506460
  86    -0.001122360513
  87    -0.001618138263
  88     0.000093682011
  89    -0.000426644414
  90    -0.000021586168
  91     0.001140246744
  92    -0.007803330413
  93     0.000441687101
  94     0.000694735007
  95     0.001115770608
  96     0.000223584313
  97     0.000542155697
  98    -0.001089461612
  99    -0.001617719059
  100   -0.000007340981
  101   -0.000403377443
  102    0.000171651899
 Sym=     1a
 Ene= -1.04644196490488E+01
Spin= Alpha
 Occup= 2
  1      0.002188410513
  2      0.003384179604
  3      0.005440767173
  4     -0.066421504036
  5     -0.004028073936
  6      0.000906030117
  7     -0.009336650048
  8      0.001637047997
  9      0.009358314021
  10    -0.050936365813
  11     0.011250563098
  12     0.002648925361
  13    -0.013967010025
  14     0.003129521800
  15     0.000272721764
  16    -0.000460517183
  17     0.000187795419
  18     0.000172015958
  19     0.000024395693
  20     0.000184914565
  21     0.004415812703
  22    -0.006760978446
  23     0.002345165743
  24     0.002614233675
  25     0.001033116146
  26     0.002658818031
  27    -0.000072322469
  28    -0.000411937275
  29    -0.000146715310
  30     0.000131039930
  31     0.000298696738
  32    -0.000017578336
  33    -0.000034009156
  34     0.000253975113
  35     0.000214417579
  36    -0.000032198331
  37     0.000542763718
  38    -0.001086622763
  39    -0.001615229005
  40    -0.000035334872
  41     0.000392275928
  42    -0.000192297094
  43     0.475589205431
  44     0.630593013364
  45    -0.017587200646
  46    -0.002173960182
  47     0.009698368505
  48    -0.000624528736
  49    -0.000846812482
  50    -0.000221723683
  51     0.007620905205
  52    -0.031164665924
  53     0.007872617987
  54     0.002003632198
  55    -0.008827647211
  56     0.002147564224
  57    -0.000286425901
  58     0.000318234161
  59    -0.000031808260
  60    -0.000212797494
  61    -0.000161545515
  62    -0.000153809383
  63    -0.005324577965
  64     0.008379051067
  65    -0.003054473102
  66    -0.004238356295
  67    -0.000813261422
  68    -0.003874075973
  69    -0.000173293184
  70    -0.001174476654
  71    -0.000832064465
  72     0.000235574282
  73     0.000485659112
  74     0.000395070096
  75    -0.000003077078
  76     0.001090066670
  77     0.000721261528
  78    -0.000786359722
  79     0.000538737763
  80    -0.001124346386
  81    -0.001615792217
  82    -0.000135866220
  83     0.000415245701
  84     0.000000534423
  85    -0.000959330282
  86    -0.023780719277
  87     0.001024470282
  88    -0.000518178934
  89     0.000728211396
  90     0.000600489436
  91     0.001138749772
  92    -0.007821671701
  93     0.000447140923
  94     0.000979215129
  95    -0.000681126682
  96     0.000598242608
  97    -0.000960342834
  98    -0.023798348925
  99     0.001025022477
  100    0.000263116422
  101    0.000542676614
  102   -0.000893248389
 Sym=     1a
 Ene= -6.46177734952810E-01
Spin= Alpha
 Occup= 2
  1     -0.072970211811
  2     -0.282823187075
  3      0.696134127111
  4      0.620664940820
  5      0.163407103620
  6      0.010560289833
  7      0.066182487855
  8     -0.002702332874
  9      0.028269487760
  10    -0.191293844181
  11     0.038675351226
  12     0.013310830722
  13    -0.019933217785
  14     0.009462320466
  15     0.004609894956
  16    -0.005120309449
  17     0.000510414493
  18     0.001459277893
  19     0.003033358285
  20     0.001400646873
  21     0.067939446684
  22    -0.108442413168
  23     0.040502966484
  24     0.021256958808
  25     0.016294448276
  26     0.032013259289
  27    -0.001611573592
  28    -0.015567079503
  29    -0.004697992117
  30     0.000399447923
  31     0.004808678100
  32    -0.002099236707
  33     0.001762704938
  34     0.016076750688
  35     0.008402254546
  36    -0.010538890927
  37    -0.046245869009
  38    -0.231239361792
  39    -0.075587640389
  40     0.004103440399
  41     0.006859807017
  42    -0.011567544893
  43     0.013033308210
  44     0.053477348813
  45    -0.142805038895
  46     0.176093925579
  47    -0.040296242631
  48    -0.001326731329
  49     0.131443517236
  50    -0.017083559292
  51     0.018332233391
  52     0.012025204413
  53     0.008183746303
  54     0.003323765507
  55     0.062532673943
  56    -0.006022748075
  57    -0.003653504080
  58     0.006266685403
  59    -0.002613181323
  60    -0.001476690678
  61    -0.000426533305
  62    -0.002058768236
  63    -0.050159961604
  64     0.081340815604
  65    -0.031180854000
  66    -0.026913236281
  67    -0.008425046412
  68    -0.030285055880
  69    -0.001589317482
  70    -0.003400919953
  71    -0.001134977115
  72     0.002783208148
  73     0.002736626965
  74    -0.001083071564
  75    -0.000650914991
  76     0.001826185955
  77     0.002605803153
  78    -0.000186628224
  79    -0.046227906227
  80    -0.231278555770
  81    -0.075588801565
  82    -0.006331452841
  83     0.009334584688
  84     0.008370798178
  85    -0.010868629147
  86    -0.032528638316
  87     0.006855702165
  88    -0.000342824705
  89     0.003622598602
  90    -0.000843153022
  91    -0.013681081881
  92    -0.096585157662
  93    -0.053337052415
  94    -0.008523144797
  95    -0.014642247937
  96    -0.002625022459
  97    -0.010854725514
  98    -0.032391909902
  99     0.006910267607
  100   -0.000511030808
  101    0.003674963192
  102   -0.000527178752
 Sym=     1a
 Ene= -6.46172558724047E-01
Spin= Alpha
 Occup= 2
  1      0.013028502672
  2      0.053476995607
  3     -0.142784139788
  4      0.176015423169
  5     -0.040311069029
  6      0.038683665660
  7     -0.121721938551
  8      0.035417806858
  9      0.020611837394
  10    -0.001895056445
  11     0.010947803529
  12     0.022098117692
  13    -0.055974870327
  14     0.018500285371
  15    -0.003394157407
  16     0.005840457913
  17    -0.002446300506
  18    -0.002381011462
  19    -0.000156016909
  20    -0.002471305287
  21    -0.049929165604
  22     0.080961661359
  23    -0.031032495755
  24    -0.027703029544
  25    -0.008190168384
  26    -0.030634614463
  27     0.000817987488
  28     0.004194564895
  29     0.001108837900
  30    -0.001580714384
  31    -0.003466748104
  32     0.000619870520
  33     0.000483269006
  34    -0.002160851241
  35    -0.002107532672
  36    -0.000430069998
  37    -0.010854543939
  38    -0.032363220166
  39     0.006893999539
  40     0.000794917669
  41    -0.003601575408
  42     0.000663028516
  43    -0.072973191492
  44    -0.282817466352
  45     0.696109710391
  46     0.620717354696
  47     0.163680096206
  48     0.029867071880
  49    -0.055677878588
  50     0.022550622246
  51    -0.031977762910
  52     0.190305677264
  53    -0.040520760982
  54     0.006257467578
  55     0.024991815404
  56     0.000150274238
  57     0.004104400803
  58    -0.004290034099
  59     0.000185633296
  60     0.003232261450
  61     0.002507822311
  62     0.002209793264
  63     0.060096587908
  64    -0.095569282454
  65     0.035472694546
  66     0.048643293639
  67     0.008139891215
  68     0.044510687546
  69     0.002089076500
  70     0.014328064661
  71     0.010561880256
  72    -0.002727137312
  73    -0.005510821223
  74    -0.005242701588
  75    -0.000075652927
  76    -0.013712294718
  77    -0.008927547746
  78     0.010364242730
  79    -0.010873421863
  80    -0.032519208994
  81     0.006826836256
  82     0.000622293691
  83    -0.003545029794
  84     0.000983928854
  85    -0.046218172051
  86    -0.231259430401
  87    -0.075656709877
  88     0.006645479246
  89    -0.009257717123
  90    -0.008222001275
  91    -0.013666654210
  92    -0.096702936917
  93    -0.053432645754
  94    -0.012302554585
  95     0.009233223551
  96    -0.007599235359
  97    -0.046252955126
  98    -0.231276620476
  99    -0.075640249113
  100   -0.003789555104
  101   -0.006777399151
  102    0.011725758933
 Sym=     1a
 Ene= -4.13551362260603E-01
Spin= Alpha
 Occup= 2
  1     -0.000365914719
  2      0.000602527801
  3     -0.028948945930
  4      0.206803324857
  5      0.035426418393
  6     -0.045076795665
  7     -0.008557500911
  8      0.626917034682
  9     -0.000019745404
  10     0.125038303119
  11     0.445427391975
  12    -0.092056132171
  13     0.036406037417
  14     0.333153485793
  15    -0.000620079985
  16     0.002935697718
  17    -0.002315617733
  18    -0.003152441121
  19     0.000495600809
  20     0.002226094026
  21    -0.019787562411
  22     0.066223802081
  23    -0.046436239670
  24    -0.054609805661
  25     0.012297260346
  26     0.008144967017
  27    -0.010140348598
  28     0.000025881275
  29     0.006568431932
  30    -0.001386673538
  31    -0.008508001923
  32     0.008205313867
  33     0.014991378806
  34     0.008473278549
  35    -0.017017790050
  36     0.003764709652
  37    -0.039868218413
  38    -0.140961633293
  39    -0.183770076301
  40     0.013058030956
  41     0.015382879485
  42    -0.028093355430
  43    -0.002790166936
  44    -0.013668494750
  45     0.053293881171
  46    -0.157400186196
  47    -0.019755936356
  48     0.036967283145
  49    -0.041243142796
  50    -0.095980078018
  51     0.003730215583
  52     0.103539752069
  53    -0.090126894683
  54     0.065153748784
  55    -0.012323220597
  56    -0.144931254723
  57     0.001188360820
  58    -0.002611943827
  59     0.001423583007
  60     0.000717879242
  61    -0.000010722744
  62    -0.000097155664
  63     0.021511124145
  64    -0.072815721060
  65     0.051304596915
  66     0.027800627528
  67    -0.003153813620
  68    -0.035826445618
  69    -0.000455096844
  70     0.007971694963
  71    -0.004141065797
  72    -0.002829666816
  73    -0.003780992429
  74    -0.001396202972
  75     0.003440243305
  76    -0.006914158670
  77     0.006952025745
  78    -0.001813700269
  79     0.030128697267
  80     0.103334961636
  81     0.167015630093
  82     0.013866129289
  83    -0.016129415530
  84    -0.015136251165
  85     0.005051130231
  86     0.048356276073
  87     0.077192690975
  88     0.002123345256
  89     0.003389352401
  90    -0.004604339503
  91    -0.004476224015
  92    -0.052946885826
  93    -0.015561426447
  94    -0.004666903689
  95    -0.004595784054
  96     0.001287362173
  97    -0.003951712007
  98    -0.049559178360
  99    -0.074021455139
  100    0.003609639117
  101   -0.003083945118
  102   -0.005341520058
 Sym=     1a
 Ene= -4.11205484760775E-01
Spin= Alpha
 Occup= 2
  1      0.001233371930
  2      0.003109875442
  3     -0.029373916785
  4      0.209545290913
  5      0.028935786058
  6      0.037823876988
  7     -0.031928099458
  8     -0.096678044548
  9      0.006357842314
  10     0.129209212540
  11    -0.091976891475
  12     0.065230867362
  13    -0.007439750475
  14    -0.145523230590
  15    -0.001594010371
  16     0.002931476114
  17    -0.001337465743
  18    -0.000725735391
  19    -0.000545276113
  20     0.000076909044
  21    -0.025837248428
  22     0.078886399002
  23    -0.053049150574
  24    -0.028143054257
  25    -0.000934771063
  26     0.034520713409
  27    -0.000720183139
  28     0.008371394433
  29    -0.004315754919
  30    -0.002625312064
  31    -0.004086438156
  32    -0.001094844204
  33     0.003591539137
  34    -0.007144966054
  35     0.006885037028
  36    -0.002695440391
  37     0.004040459935
  38     0.048432577234
  39     0.075169241190
  40     0.004007841378
  41    -0.002958572077
  42    -0.005076014986
  43    -0.000511082186
  44    -0.011778115256
  45     0.067120016726
  46    -0.231462815914
  47    -0.036919839105
  48    -0.038344403615
  49    -0.019614283249
  50     0.631771968189
  51    -0.016900525291
  52     0.153999117286
  53     0.432999819245
  54    -0.093549676679
  55     0.041424489372
  56     0.331770178911
  57     0.000054397772
  58    -0.002872312236
  59     0.002817914464
  60     0.003169800731
  61    -0.000637077326
  62    -0.002055208493
  63     0.008090769831
  64    -0.069295911698
  65     0.061205141867
  66     0.059589215063
  67    -0.034568288326
  68    -0.001251947054
  69    -0.011164427484
  70    -0.003313909594
  71     0.008437155899
  72     0.000834122681
  73    -0.005279916163
  74     0.003684493713
  75     0.014144528590
  76     0.009725992437
  77    -0.015004126189
  78     0.007137876181
  79    -0.004959774816
  80    -0.049511011376
  81    -0.076039102011
  82     0.001735749169
  83     0.003286330195
  84    -0.004871802639
  85    -0.031701028083
  86    -0.111685075829
  87    -0.165361239852
  88     0.013646551287
  89    -0.014426653631
  90    -0.014209951193
  91    -0.000749370339
  92    -0.053206926086
  93    -0.023895389459
  94    -0.012868890066
  95     0.011704604605
  96    -0.005039142411
  97     0.038266549879
  98     0.132587226980
  99     0.185446162304
  100    0.012311507814
  101    0.016440446002
  102   -0.029866395274
 Sym=     1a
 Ene= -4.01805654714507E-01
Spin= Alpha
 Occup= 2
  1     -0.010081458281
  2     -0.043221869470
  3      0.205479133902
  4     -0.869217250717
  5     -0.114687702067
  6     -0.023484739672
  7      0.098694152772
  8     -0.039699569739
  9      0.079517573104
  10    -0.606206627708
  11     0.107499531420
  12     0.010711343070
  13    -0.048082067942
  14    -0.011109859017
  15     0.006591844815
  16    -0.011514129280
  17     0.004922284465
  18     0.003255729221
  19     0.000388662474
  20     0.004251427204
  21     0.128111527129
  22    -0.274708440955
  23     0.146596913826
  24     0.070027972412
  25    -0.040544702386
  26     0.110300304658
  27    -0.006077192770
  28    -0.015482670083
  29    -0.004786652042
  30     0.010752069437
  31     0.014106164503
  32    -0.005037592374
  33    -0.002598659749
  34     0.006666017165
  35     0.011459559984
  36     0.001852476552
  37     0.002937220939
  38     0.005293631483
  39     0.014468856197
  40    -0.001102182364
  41    -0.003254187731
  42     0.004500859474
  43     0.000128837612
  44     0.026914848997
  45    -0.221453769977
  46     1.049305925284
  47     0.173874986248
  48    -0.035792765445
  49     0.652673783773
  50    -0.019092637270
  51     0.137510711702
  52    -0.176870260907
  53     0.151716148062
  54     0.003125774923
  55     0.085243227116
  56     0.039367091671
  57    -0.005137582445
  58     0.011867702873
  59    -0.006730120428
  60    -0.002521219030
  61     0.002449237321
  62    -0.004811497445
  63    -0.123242778989
  64     0.321941615251
  65    -0.198698836262
  66    -0.079085088250
  67     0.090803677467
  68    -0.131336955213
  69    -0.010374326642
  70    -0.024292256627
  71    -0.008773439020
  72     0.018648540021
  73     0.023970019412
  74    -0.001696973268
  75    -0.004729920265
  76     0.008621462875
  77     0.013467776895
  78     0.008126520064
  79     0.001838175716
  80    -0.006903437910
  81    -0.004594311031
  82     0.003170603493
  83    -0.003638899442
  84    -0.004144998996
  85    -0.024400087014
  86    -0.088018427977
  87    -0.065964847714
  88     0.014849290248
  89    -0.016264974919
  90    -0.017049203558
  91    -0.010358423548
  92    -0.027366914243
  93     0.009730950238
  94     0.012307463957
  95    -0.016858894641
  96     0.008940684714
  97    -0.015616250126
  98    -0.057349316650
  99    -0.021900044994
  100   -0.004791473187
  101   -0.007691059794
  102    0.018141058525
 Sym=     1a
 Ene= -3.95795349838120E-01
Spin= Alpha
 Occup= 2
  1     -0.000591040227
  2     -0.032837710304
  3      0.241679992265
  4     -1.062420352212
  5     -0.174698071057
  6     -0.013767185245
  7      0.665189016415
  8     -0.009094972031
  9      0.083340888074
  10    -0.208663710716
  11     0.127326827826
  12     0.000521528510
  13     0.081649500296
  14     0.038482697725
  15     0.005166731245
  16    -0.012172961695
  17     0.007006230450
  18     0.001815745127
  19    -0.002410665093
  20     0.004532864509
  21     0.131464157226
  22    -0.346968931755
  23     0.215504774529
  24     0.031981599852
  25    -0.087941912063
  26     0.112294413856
  27    -0.007949005062
  28    -0.025824776874
  29     0.001834537740
  30     0.011524855987
  31     0.021377986989
  32    -0.013435606126
  33    -0.000860146584
  34     0.013269586967
  35     0.010974315470
  36     0.006854238357
  37     0.014764374687
  38     0.052903754051
  39     0.022730941860
  40    -0.006082459190
  41    -0.008675745713
  42     0.018249059663
  43     0.009262129542
  44     0.037630932083
  45    -0.192827208206
  46     0.896921589210
  47     0.119540111266
  48    -0.011954925229
  49     0.096893703280
  50    -0.033456631150
  51     0.112448596766
  52    -0.610936351269
  53     0.125322223055
  54     0.015145950866
  55    -0.049529997944
  56    -0.008618896234
  57    -0.006521200566
  58     0.011174989683
  59    -0.004653789117
  60    -0.004361207628
  61    -0.000335975760
  62    -0.004755752804
  63    -0.127515463405
  64     0.272635016685
  65    -0.145119553280
  66    -0.081574949156
  67     0.042058408189
  68    -0.116042550339
  69    -0.007598862978
  70    -0.013902459773
  71    -0.005796617842
  72     0.013470664463
  73     0.013074607908
  74    -0.004729964763
  75    -0.003275719960
  76     0.005577499156
  77     0.012506943684
  78     0.001043141989
  79     0.023579238674
  80     0.083606521169
  81     0.066841364446
  82     0.013882815387
  83    -0.017451575338
  84    -0.018070130851
  85    -0.001781207134
  86     0.006301974624
  87     0.005225117162
  88     0.003244245843
  89    -0.003617684426
  90    -0.004070656010
  91     0.007556983666
  92    -0.028842423815
  93    -0.030573815142
  94    -0.012111306578
  95    -0.032971207103
  96    -0.001827032771
  97    -0.002885969394
  98    -0.005893779511
  99    -0.013848180288
  100   -0.001107061665
  101   -0.003278469999
  102    0.004458855877
 Sym=     1a
 Ene= -3.97910752611824E-01
Spin= Alpha
 Occup= 0
  1     -0.000835014558
  2     -0.006648637378
  3      0.002257011508
  4      0.141637560951
  5      0.025978221829
  6      0.560039311619
  7     -0.012754932597
  8     -0.045201065509
  9      0.480930224211
  10     0.078951641984
  11     0.000515832794
  12     0.210164495790
  13    -0.003443448453
  14    -0.091571595944
  15    -0.000792418851
  16     0.000819668822
  17    -0.000027249971
  18    -0.000942609406
  19     0.000464880792
  20    -0.003120223863
  21    -0.020040729166
  22     0.021728884371
  23    -0.001688155205
  24    -0.042482289607
  25     0.006689486158
  26    -0.055006848664
  27     0.016105208801
  28     0.002497501649
  29     0.002874890765
  30    -0.019282135019
  31    -0.001448229282
  32    -0.002135599622
  33    -0.002325269983
  34    -0.001902520794
  35    -0.001721471085
  36    -0.002430881050
  37     0.013610303676
  38     0.044318359660
  39     0.086497768359
  40     0.000071139683
  41    -0.005686698750
  42     0.013334483935
  43    -0.003108189606
  44    -0.017137152259
  45     0.055814957373
  46    -0.086253132804
  47    -0.009110913751
  48    -0.052730475343
  49    -0.026829537944
  50     0.038818401887
  51    -0.045186333495
  52     0.070890012522
  53     0.008916860068
  54    -0.052597549165
  55     0.008058850061
  56     0.066012546561
  57     0.000915737059
  58    -0.001892200066
  59     0.000976463007
  60    -0.000733204002
  61    -0.000135707872
  62     0.000601069613
  63     0.027654780477
  64    -0.046642902481
  65     0.018988122004
  66    -0.034967340526
  67    -0.001376835644
  68     0.027258511663
  69    -0.004305580957
  70     0.006364006439
  71     0.001085952658
  72     0.008807344585
  73    -0.006558421856
  74     0.000937748912
  75    -0.003030801564
  76    -0.001979788748
  77    -0.002394707290
  78    -0.003608508111
  79    -0.023031662871
  80    -0.083603720382
  81    -0.097131199692
  82    -0.004167818843
  83     0.011725928363
  84     0.013808678445
  85    -0.001891441663
  86    -0.026888987305
  87    -0.037698895065
  88    -0.000965543396
  89    -0.000485520269
  90     0.003870489698
  91    -0.006750222679
  92    -0.107972575983
  93    -0.036962906649
  94    -0.008675581560
  95    -0.017407160157
  96    -0.004014194177
  97     0.002818161431
  98     0.024376994232
  99     0.041478607881
  100   -0.000491966557
  101    0.002587714964
  102    0.001858020085
 Sym=     1a
 Ene= -3.94317652384070E-01
Spin= Alpha
 Occup= 0
  1     -0.000059079678
  2     -0.004371316702
  3     -0.007088750939
  4      0.192534691899
  5      0.027844115263
  6     -0.053823089348
  7     -0.008595846166
  8      0.035967267529
  9     -0.048018147206
  10     0.121146412436
  11     0.001146451539
  12    -0.053473467520
  13     0.017834093492
  14     0.064360319572
  15    -0.001823570463
  16     0.002430776956
  17    -0.000607206493
  18     0.000446600502
  19    -0.000789694171
  20    -0.000708088089
  21    -0.037898075107
  22     0.057912791818
  23    -0.020014716711
  24     0.031544535556
  25    -0.004330456493
  26    -0.030346188191
  27    -0.004185716024
  28     0.006858305475
  29     0.000659868951
  30     0.008527184107
  31    -0.007636150161
  32     0.001439306731
  33    -0.002911456768
  34    -0.001565232190
  35    -0.002324613830
  36    -0.004528959372
  37    -0.002621121273
  38    -0.026643747475
  39    -0.039119379235
  40    -0.000773734229
  41     0.002570135164
  42     0.001862384230
  43    -0.000952238239
  44    -0.016111798786
  45     0.075484141767
  46    -0.191920524817
  47    -0.029058614356
  48     0.567654227426
  49    -0.036814058337
  50    -0.038215683455
  51     0.461633937671
  52     0.141927003098
  53    -0.017444384186
  54     0.208062172560
  55     0.007117471974
  56    -0.094044092689
  57     0.000486071692
  58    -0.000820047667
  59     0.000333975975
  60     0.000819382881
  61    -0.001355177410
  62     0.003113575652
  63     0.000941534762
  64    -0.033727566653
  65     0.032786031891
  66     0.040689879967
  67    -0.049589457544
  68     0.063208809324
  69     0.012967622286
  70    -0.003752825236
  71     0.004628906421
  72    -0.013285669156
  73     0.007053419055
  74    -0.007907732724
  75    -0.004112221807
  76    -0.002018475653
  77     0.001697403073
  78     0.003014733195
  79     0.002080722813
  80     0.024581252516
  81     0.040087200257
  82    -0.000679211384
  83    -0.000408791421
  84     0.003856074718
  85     0.019783080642
  86     0.066538393131
  87     0.100547954818
  88    -0.006280212503
  89     0.014767528247
  90     0.014888875192
  91    -0.003903454172
  92    -0.108271875584
  93    -0.043392409298
  94    -0.018467905249
  95     0.017595996685
  96    -0.013520683549
  97    -0.016861976238
  98    -0.061354289704
  99    -0.083177495316
  100    0.000851415811
  101   -0.002943802000
  102    0.010848933831
 Sym=     1a
 Ene= -3.01800303403375E-01
Spin= Alpha
 Occup= 0
  1      0.011741480268
  2      0.047079103646
  3     -0.077141028925
  4     -0.110313750319
  5     -0.135790049389
  6     -0.078866502812
  7     -0.046648604648
  8     -0.035464472794
  9     -0.103998347458
  10    -0.071902455747
  11    -0.045494453457
  12    -0.093705610835
  13    -0.073604196048
  14    -0.039968706754
  15     0.000660432455
  16     0.001492647416
  17    -0.002153079871
  18     0.002533448849
  19     0.001843137243
  20     0.000691719916
  21     0.012363451104
  22    -0.014343851283
  23     0.001980400179
  24     0.011123732837
  25     0.006042190512
  26     0.007862854220
  27    -0.000321766611
  28    -0.004752617037
  29    -0.001011009739
  30     0.001101425319
  31     0.004706125587
  32    -0.000272049203
  33    -0.000669730110
  34     0.001670179272
  35     0.001628461104
  36     0.001992683715
  37    -0.006695246516
  38     0.036986950621
  39     0.003268611663
  40    -0.001613129951
  41    -0.002400676163
  42    -0.002088281820
  43     0.011748433412
  44     0.047100240179
  45    -0.077172672991
  46    -0.110510097325
  47    -0.135963650661
  48    -0.086863386324
  49     0.003595878992
  50    -0.045901132025
  51    -0.117759956219
  52     0.014328673905
  53    -0.063375882788
  54    -0.108821863036
  55     0.021031748406
  56    -0.059472736297
  57     0.001752707373
  58    -0.000303476589
  59    -0.001449230784
  60    -0.001291582623
  61     0.002981739879
  62    -0.001051260086
  63     0.014554995528
  64    -0.017945961504
  65     0.003390965976
  66     0.003467915430
  67     0.008310112982
  68     0.004377621158
  69     0.002508530191
  70     0.002558644295
  71     0.000571597747
  72    -0.004369103084
  73    -0.002528966033
  74     0.002248376824
  75     0.001003556666
  76    -0.000903815512
  77    -0.003015255675
  78    -0.000196431816
  79    -0.006683853043
  80     0.036932010278
  81     0.003155191517
  82    -0.002867608060
  83    -0.002102258664
  84     0.000325273788
  85    -0.006684962534
  86     0.036939212843
  87     0.003163386080
  88    -0.002110575353
  89     0.000811591244
  90    -0.002768157824
  91     0.348800332391
  92     0.927735325281
  93     0.294914668625
  94     0.029552809146
  95     0.007674158898
  96     0.014509399442
  97    -0.006695374847
  98     0.037001857906
  99     0.003267895115
  100   -0.003377476226
  101    0.001107071808
  102   -0.000360346941
 Sym=     1a
 Ene= -1.95916295393650E-01
Spin= Alpha
 Occup= 0
  1      0.015502301082
  2      0.055687486769
  3     -0.113658550921
  4     -0.093804291197
  5     -0.017730611118
  6      0.056646688731
  7      0.062163140832
  8     -0.151567328342
  9      0.070033208882
  10     0.220184067455
  11    -0.261855367983
  12     0.095900365513
  13     0.119068758438
  14    -0.251412652292
  15    -0.001498262654
  16     0.000593475548
  17     0.000904787106
  18     0.000382694619
  19    -0.001361674049
  20    -0.001821526846
  21    -0.033776754844
  22     0.031948360857
  23     0.001828393987
  24    -0.003120164665
  25    -0.014820980284
  26    -0.035136639573
  27     0.000364072117
  28     0.001564906753
  29    -0.000348396582
  30    -0.002903760611
  31    -0.003075256633
  32     0.001178532872
  33     0.002415306610
  34     0.000975713906
  35    -0.000711109808
  36    -0.002222615286
  37     0.440171822014
  38     0.891330163230
  39     0.332146448371
  40    -0.010724449794
  41    -0.011668467689
  42     0.026366508155
  43     0.001873158303
  44     0.002757372016
  45     0.033687289398
  46    -0.256802147548
  47    -0.062925508703
  48    -0.017058323383
  49     0.014132694447
  50     0.021165420705
  51    -0.053568005074
  52     0.134597060409
  53     0.024413847900
  54    -0.062060722217
  55     0.096213726113
  56     0.076635907333
  57     0.000510913750
  58    -0.000346799089
  59    -0.000164114661
  60    -0.000453774197
  61     0.000157148763
  62     0.000943919597
  63     0.026524815784
  64    -0.042305619216
  65     0.015780803432
  66     0.018081869218
  67     0.007524427043
  68     0.011797347608
  69     0.001587566009
  70     0.005719302228
  71     0.003671628233
  72    -0.001941213125
  73    -0.003873311786
  74    -0.000097496423
  75    -0.000188730184
  76    -0.003799937354
  77    -0.004828509767
  78     0.001709042418
  79    -0.000150688495
  80    -0.041555122371
  81    -0.066006825834
  82    -0.000104844853
  83    -0.003935640074
  84     0.001815027719
  85    -0.001781664238
  86    -0.016422039272
  87    -0.081494683842
  88     0.001919053860
  89    -0.002154293433
  90    -0.003633879637
  91     0.001188590132
  92     0.010900711827
  93    -0.002202475870
  94    -0.000900962959
  95     0.001089290980
  96    -0.002416242763
  97    -0.001291238589
  98     0.034494415593
  99     0.010176607703
  100   -0.000522355182
  101   -0.003896842106
  102    0.002810407552
 Sym=     1a
 Ene= -1.95898778208735E-01
Spin= Alpha
 Occup= 0
  1      0.015494868308
  2      0.055683163869
  3     -0.113720083529
  4     -0.093479733616
  5     -0.017661422758
  6     -0.084138236486
  7      0.096017452643
  8      0.117361088213
  9     -0.149909187588
  10     0.273111629633
  11     0.158249396131
  12    -0.136925029516
  13     0.175083882163
  14     0.193329401203
  15    -0.001216094301
  16     0.001295883847
  17    -0.000079789546
  18    -0.001348125579
  19    -0.001374125958
  20     0.001336665459
  21    -0.026998959481
  22     0.041718395340
  23    -0.014719435859
  24    -0.027493380055
  25    -0.017364958194
  26     0.008374568892
  27     0.002101179523
  28     0.001325718364
  29     0.000450808552
  30    -0.002562597088
  31    -0.002768098047
  32     0.000998714789
  33    -0.000256431060
  34     0.000989460218
  35    -0.001603537929
  36    -0.002939892823
  37    -0.000145797748
  38    -0.041615890934
  39    -0.066066623525
  40     0.001011144984
  41    -0.004222855981
  42    -0.000308600974
  43     0.001867461443
  44     0.002766857827
  45     0.033698210921
  46    -0.257321575174
  47    -0.063060412946
  48     0.008827526227
  49     0.007950941257
  50    -0.028284395304
  51     0.002692444682
  52     0.121290223421
  53    -0.083128683265
  54     0.036420429514
  55     0.072634979446
  56    -0.111423367063
  57     0.000274491269
  58    -0.000726862807
  59     0.000452371538
  60     0.000492010576
  61     0.000233585393
  62    -0.000750980420
  63     0.028359551081
  64    -0.040453433208
  65     0.012093882127
  66     0.013320440214
  67     0.006679720298
  68     0.020176370181
  69     0.001392747422
  70     0.006340093480
  71     0.002449459184
  72    -0.003119234149
  73    -0.003739885769
  74    -0.000528267025
  75     0.001250667403
  76    -0.004766242234
  77    -0.002758027321
  78     0.001932255880
  79     0.440157042506
  80     0.891384922879
  81     0.332277632324
  82     0.014049853505
  83    -0.017612595629
  84    -0.020962955392
  85    -0.001283496915
  86     0.034635737400
  87     0.010312495533
  88     0.001590827381
  89    -0.004413869070
  90    -0.001221101736
  91     0.001193671177
  92     0.010843636415
  93    -0.002249234589
  94    -0.002359596151
  95     0.001436336419
  96     0.000382120255
  97    -0.001789486736
  98    -0.016380195154
  99    -0.081560997138
  100   -0.002067528097
  101   -0.001209636632
  102    0.003983992795
 Sym=     1a
 Ene= -1.95889689349899E-01
Spin= Alpha
 Occup= 0
  1      0.001868024333
  2      0.002767464593
  3      0.033682672745
  4     -0.257230538949
  5     -0.063007223456
  6     -0.013400172460
  7     -0.009140126282
  8      0.026037047023
  9     -0.012785139402
  10    -0.123862728043
  11     0.078155132650
  12    -0.035505677944
  13    -0.072356526549
  14     0.111809444223
  15     0.000167418151
  16    -0.000567669266
  17     0.000400251115
  18     0.000826739162
  19     0.000142735272
  20    -0.000594686139
  21     0.028181039828
  22    -0.041015668306
  23     0.012834628478
  24     0.011999181285
  25     0.007512977791
  26     0.019758977282
  27    -0.001220677566
  28    -0.006628135378
  29    -0.001213902227
  30     0.002556373339
  31     0.003519178016
  32    -0.001051389151
  33    -0.000918662530
  34     0.005373398746
  35     0.002680009890
  36    -0.001869230137
  37    -0.001788327281
  38    -0.016384961557
  39    -0.081517883949
  40     0.001416715457
  41     0.001040240392
  42    -0.004301648051
  43     0.015497868682
  44     0.055681332364
  45    -0.113691266639
  46    -0.093603017538
  47    -0.017707171123
  48     0.081716563374
  49    -0.096632382254
  50    -0.118537582676
  51     0.147976992291
  52    -0.273577092336
  53    -0.159217381978
  54     0.142190650213
  55    -0.173633805028
  56    -0.190661367837
  57    -0.000924745512
  58     0.001090153767
  59    -0.000165408255
  60    -0.001761763017
  61    -0.001392480214
  62     0.001085741886
  63    -0.026830719637
  64     0.040809181049
  65    -0.013978461412
  66    -0.029432793192
  67    -0.016452048176
  68     0.007634808779
  69    -0.002002939506
  70    -0.001561823706
  71     0.000285565498
  72     0.002172630854
  73     0.002857699054
  74    -0.001813947949
  75     0.000514594480
  76    -0.000762292669
  77     0.001430821630
  78     0.002899192697
  79    -0.001280281514
  80     0.034621372190
  81     0.010305168911
  82    -0.001827589013
  83     0.004349875858
  84     0.001103745231
  85     0.440135657032
  86     0.891323557259
  87     0.332315663697
  88    -0.015297714846
  89     0.017286328849
  90     0.020348515180
  91     0.001192320554
  92     0.010834410326
  93    -0.002246544698
  94    -0.000386508880
  95    -0.002151779494
  96    -0.001730717538
  97    -0.000145283435
  98    -0.041585691286
  99    -0.066039210874
  100   -0.001373994321
  101    0.004123384018
  102    0.000132375788
 Sym=     1a
 Ene= -1.95879819870408E-01
Spin= Alpha
 Occup= 0
  1      0.001872972120
  2      0.002757409592
  3      0.033694139393
  4     -0.256868243434
  5     -0.062925136422
  6      0.012484399282
  7     -0.015327404925
  8     -0.023417665829
  9      0.043475575004
  10    -0.137250021610
  11    -0.029378397819
  12     0.062918368044
  13    -0.095998947868
  14    -0.076212788838
  15     0.000426110862
  16    -0.000189373078
  17    -0.000236737784
  18    -0.000117063659
  19     0.000047931795
  20     0.001093415968
  21     0.027451702097
  22    -0.042963899303
  23     0.015512197206
  24     0.016770592455
  25     0.007476370987
  26     0.010996274165
  27    -0.001485822623
  28    -0.006038018360
  29    -0.002348880574
  30     0.001386423896
  31     0.003847233537
  32    -0.001482972041
  33     0.000607016337
  34     0.004253618164
  35     0.004634326022
  36    -0.001796458955
  37    -0.001290199749
  38     0.034494726880
  39     0.010173425255
  40     0.000285940938
  41     0.003836319598
  42    -0.002928623723
  43     0.015503828170
  44     0.055687336296
  45    -0.113657550908
  46    -0.093816479989
  47    -0.017749781347
  48    -0.059116079387
  49    -0.062839179114
  50     0.150354021534
  51    -0.072046873680
  52    -0.220789339246
  53     0.260883812735
  54    -0.090682852862
  55    -0.117762089162
  56     0.253958176600
  57    -0.001552210934
  58     0.000409947174
  59     0.001142263760
  60    -0.000036796115
  61    -0.001097220035
  62    -0.001951741871
  63    -0.032814072956
  64     0.031020746267
  65     0.001793326689
  66    -0.005041096693
  67    -0.014582903990
  68    -0.036179562953
  69    -0.000195229199
  70    -0.001772688705
  71     0.000994640011
  72     0.002508610594
  73     0.002958912230
  74    -0.002000154096
  75    -0.002246683138
  76    -0.000580600762
  77     0.000665704489
  78     0.002342446901
  79    -0.001780296747
  80    -0.016422830616
  81    -0.081492704848
  82    -0.002567503408
  83     0.001986293130
  84     0.003315096156
  85    -0.000145681991
  86    -0.041530842436
  87    -0.065992941105
  88    -0.000256047345
  89     0.003840665740
  90    -0.001992757130
  91     0.001187442690
  92     0.010903211455
  93    -0.002202335384
  94    -0.001854343973
  95    -0.001808066719
  96     0.001064227842
  97     0.440184878082
  98     0.891336673828
  99     0.332191333517
  100    0.009485671028
  101    0.011351355126
  102   -0.026978848579
 Sym=     1a
 Ene= 6.07941444222355E-01
Spin= Alpha
 Occup= 0
  1     -0.004647305643
  2      0.015715772122
  3      0.376253105559
  4     -3.740289865384
  5     -0.643929563261
  6      0.007259047693
  7     -0.095132488083
  8      0.005219424288
  9      0.327353897203
  10    -1.816627848613
  11     0.541259446076
  12     0.116609352533
  13    -0.563125311049
  14     0.225687430176
  15     0.010645886677
  16    -0.017771367923
  17     0.007125481246
  18     0.005404289568
  19     0.001488176060
  20     0.006305470760
  21     0.240555004141
  22    -0.450915524540
  23     0.210360520399
  24     0.152687842931
  25    -0.024387381162
  26     0.192895899894
  27    -0.004511025531
  28    -0.023018016823
  29    -0.010696143873
  30     0.008604030641
  31     0.014629475471
  32    -0.001497818363
  33    -0.002551854801
  34     0.016252434723
  35     0.015848201241
  36    -0.007891429267
  37     0.032815880586
  38    -0.124011052223
  39    -0.132485132264
  40     0.000591611378
  41     0.007665162789
  42    -0.006396000865
  43    -0.019380569407
  44     0.038844557581
  45    -0.590344848949
  46     2.769040956133
  47     0.606789680394
  48    -0.018491455041
  49     1.001864291584
  50    -0.010696478594
  51     0.526402853427
  52    -2.937395251848
  53     0.369076825642
  54     0.214917877125
  55    -1.615320776889
  56     0.110851910472
  57    -0.007781039440
  58     0.015694753602
  59    -0.007913714162
  60    -0.004121430998
  61     0.001639471072
  62    -0.006379170660
  63    -0.277714714431
  64     0.713675231444
  65    -0.435960517013
  66    -0.167291337563
  67     0.193618427278
  68    -0.288241751988
  69    -0.017122041414
  70    -0.050879604783
  71    -0.021573733150
  72     0.028737188254
  73     0.041674244281
  74     0.001824889317
  75    -0.005765559145
  76     0.026587908697
  77     0.027119310994
  78     0.003973982341
  79     0.038335497331
  80    -0.008548003688
  81    -0.111234582681
  82    -0.005508711083
  83     0.013696539782
  84     0.002454010728
  85    -0.016958511960
  86     0.811304367302
  87     0.199473191873
  88     0.012325082308
  89    -0.012318179190
  90    -0.013950317521
  91    -0.027918760035
  92    -0.228766087420
  93    -0.010140731637
  94     0.026247544501
  95    -0.029238348895
  96     0.018854096824
  97    -0.012879826707
  98     0.469554867328
  99     0.145852036273
  100   -0.003595430227
  101    0.000005580693
  102    0.011488527888
 Sym=     1a
 Ene= 6.25252233456936E-01
Spin= Alpha
 Occup= 0
  1      0.024791956725
  2     -0.041904171826
  3      0.647812035915
  4     -2.916044528318
  5     -0.649344130432
  6      0.004204336979
  7      1.017969924563
  8     -0.000808617034
  9      0.281234637909
  10    -3.061449651378
  11     0.255794681290
  12     0.116140286032
  13    -1.667888957067
  14     0.065618612609
  15     0.007865942710
  16    -0.016085360887
  17     0.008219418177
  18     0.003023572255
  19    -0.001540207846
  20     0.005900749856
  21     0.291256145212
  22    -0.766292696373
  23     0.475036551161
  24     0.057191187626
  25    -0.190325223266
  26     0.243200880035
  27    -0.014952146882
  28    -0.052793176808
  29    -0.001565662806
  30     0.019090995379
  31     0.035831822373
  32    -0.022257892680
  33     0.000969414723
  34     0.034997656882
  35     0.024358449759
  36     0.000203395247
  37     0.011192821538
  38    -0.462214934383
  39    -0.144489602335
  40    -0.003058719968
  41    -0.000454853783
  42     0.012734050765
  43     0.009656732609
  44    -0.017946740435
  45    -0.330488243366
  46     3.652065709615
  47     0.609905352580
  48     0.016456184248
  49    -0.100819012709
  50     0.010723502511
  51     0.226078042127
  52    -1.833784703590
  53     0.490543092139
  54     0.039584861742
  55    -0.567891494278
  56     0.186017335090
  57    -0.010528003229
  58     0.017342971256
  59    -0.006814968027
  60    -0.007113588406
  61    -0.001254267834
  62    -0.007118538606
  63    -0.254285883779
  64     0.461694957216
  65    -0.207409073437
  66    -0.147732114976
  67     0.007091726870
  68    -0.190570695831
  69    -0.007398304274
  70    -0.019999052177
  71    -0.009452123016
  72     0.012991353748
  73     0.011905071438
  74    -0.004876284188
  75    -0.003065486983
  76     0.014926472654
  77     0.017557637946
  78    -0.009498115864
  79     0.015301137671
  80    -0.804749581152
  81    -0.198118879729
  82     0.013246439750
  83    -0.013100631998
  84    -0.014298216533
  85    -0.038447924478
  86     0.027635003718
  87     0.113740100387
  88    -0.003875672138
  89     0.013873358371
  90     0.003376054962
  91    -0.003141076624
  92     0.560500499958
  93     0.078421403196
  94    -0.026834066949
  95    -0.059228413601
  96    -0.005181721389
  97    -0.032940174021
  98     0.143202637564
  99     0.135005264010
  100    0.002009757295
  101    0.007730112221
  102   -0.005756228553
 Sym=     1a
 Ene= 6.34256270965844E-01
Spin= Alpha
 Occup= 0
  1      0.006897094528
  2      0.000503789617
  3      0.012057934659
  4      0.171617475070
  5      0.017892770235
  6      0.972398578286
  7      0.010934691090
  8     -0.012555201341
  9     -1.153022218384
  10     0.302169804378
  11     0.501104607010
  12    -1.008196754725
  13     0.117419754888
  14     0.307093766730
  15    -0.001386333475
  16     0.001572216713
  17    -0.000185883238
  18    -0.001271654561
  19     0.000342660842
  20    -0.003555064211
  21    -0.044531595422
  22     0.038172657070
  23     0.006358938352
  24    -0.130975117525
  25     0.016434649533
  26    -0.149383931478
  27     0.028810236078
  28     0.004364354012
  29     0.006215289667
  30    -0.032550069331
  31    -0.001261914214
  32    -0.006026533302
  33    -0.006102918460
  34    -0.004593481135
  35    -0.002312152815
  36    -0.003139845188
  37     0.002974327933
  38    -0.597319819699
  39    -0.081820652501
  40     0.003327341485
  41    -0.015397195918
  42     0.020435686949
  43     0.008498468087
  44    -0.001598860036
  45     0.144235205433
  46    -0.758440624331
  47    -0.164683561121
  48    -0.046870589794
  49    -0.003271398834
  50     0.019627966022
  51     0.364738766088
  52     0.299949482173
  53    -0.443158171096
  54     0.241290367704
  55     0.108056158622
  56    -0.280145185613
  57     0.001465555397
  58    -0.002985216078
  59     0.001519660681
  60    -0.000438230562
  61     0.000160019706
  62    -0.000096942671
  63     0.041622176553
  64    -0.087431050646
  65     0.045808874093
  66    -0.081057055138
  67    -0.007297305602
  68     0.033313462320
  69    -0.011703407374
  70     0.009747081222
  71     0.002683601555
  72     0.013347786436
  73    -0.009553255290
  74    -0.000195009538
  75     0.002353982238
  76    -0.003523826427
  77    -0.003405419763
  78    -0.001216257499
  79    -0.013835383161
  80     0.825421395814
  81     0.140538591055
  82    -0.002820293983
  83     0.021952642522
  84     0.014953442772
  85     0.016710605298
  86     0.265367878646
  87     0.029861628741
  88     0.003880049860
  89    -0.012606872121
  90     0.000149707387
  91    -0.061595665880
  92     0.575712838862
  93     0.124282318917
  94    -0.014292928859
  95    -0.028936755217
  96    -0.009938852984
  97    -0.006215918402
  98    -0.216186364670
  99    -0.058596596213
  100    0.000614205652
  101    0.008267846479
  102   -0.002621214184
 Sym=     1a
 Ene= 6.44614610672909E-01
Spin= Alpha
 Occup= 0
  1      0.010756243094
  2     -0.006945339322
  3      0.032702348435
  4      0.409334155088
  5      0.033299767067
  6     -0.050329561025
  7      0.027090789063
  8      0.014031371900
  9      0.355612821452
  10     0.253646870355
  11    -0.442420283249
  12     0.238707828804
  13     0.048200554363
  14    -0.274674720482
  15    -0.002596378607
  16     0.004075733782
  17    -0.001479355175
  18     0.000082586539
  19    -0.001165206905
  20    -0.000188494972
  21    -0.088298534175
  22     0.105814383599
  23    -0.017515849424
  24     0.056269469763
  25    -0.040418829227
  26    -0.040596168444
  27    -0.011686543554
  28     0.009131419896
  29     0.001611641373
  30     0.012935476089
  31    -0.011123102987
  32     0.000212251009
  33     0.002743667397
  34    -0.001127982384
  35    -0.002374494808
  36    -0.003837925021
  37     0.005496921992
  38     0.289494817861
  39     0.068836756922
  40    -0.000095242254
  41     0.009126646480
  42    -0.002655069162
  43     0.013899914517
  44    -0.012248986578
  45     0.207861259652
  46    -0.727090939733
  47    -0.180793393153
  48     0.981991142906
  49    -0.025268264369
  50    -0.002971510340
  51    -1.227013918081
  52     0.505292618644
  53     0.437027272296
  54    -1.041137322032
  55     0.213615819717
  56     0.278775297787
  57     0.000699003313
  58    -0.001137039437
  59     0.000438036124
  60     0.001046723653
  61    -0.001289647276
  62     0.003442877208
  63    -0.016481478557
  64    -0.045977887849
  65     0.062459366406
  66     0.116521564432
  67    -0.129197645041
  68     0.159786608570
  69     0.023963258296
  70    -0.003245442913
  71     0.010472821306
  72    -0.023447569931
  73     0.010822917984
  74    -0.015937827143
  75    -0.008702514776
  76    -0.006468699402
  77     0.001887062930
  78     0.005935442396
  79    -0.017440381567
  80    -0.192615872005
  81    -0.019986052174
  82     0.004785236013
  83    -0.011525006402
  84    -0.000001137233
  85     0.007502916982
  86    -0.798240803041
  87    -0.136613119644
  88    -0.005184515453
  89     0.024968597627
  90     0.016571361062
  91    -0.057712377732
  92     0.701077169005
  93     0.138513653916
  94    -0.032459300952
  95     0.028323114806
  96    -0.026622602465
  97    -0.009359763515
  98     0.625046468291
  99     0.086583230178
  100    0.004993958749
  101   -0.012662627358
  102    0.017671038162
 Sym=     1a
 Ene= 7.61140421629388E-01
Spin= Alpha
 Occup= 0
  1     -0.022228597484
  2      0.004878021835
  3      0.662960985131
  4     -4.318858070657
  5     -2.034418208480
  6     -0.012390427658
  7     -0.081293526437
  8      0.003702790591
  9      0.471337062714
  10    -1.700283808664
  11     0.459036021284
  12     0.565861789067
  13    -1.555182882695
  14     0.489943604342
  15     0.006769098268
  16    -0.007615187377
  17     0.000846089109
  18    -0.003828906563
  19     0.005699846516
  20    -0.001186889107
  21     0.356682228873
  22    -0.389941166548
  23     0.033258937675
  24     0.277517413820
  25     0.203694621602
  26     0.196193831802
  27    -0.004479113280
  28    -0.042702688453
  29    -0.028290829149
  30     0.005034809076
  31     0.017092987977
  32     0.013501893379
  33     0.000974551987
  34     0.040198680544
  35     0.024454236891
  36    -0.028102930317
  37     0.095012977723
  38     0.200596207106
  39    -0.367000004830
  40     0.009829556961
  41     0.059424936089
  42    -0.065264384463
  43     0.104989174038
  44     0.290839398586
  45    -2.547114666249
  46     5.043333385130
  47     6.127506997850
  48    -0.031399686984
  49     0.073294766611
  50    -0.025599031549
  51     0.472581630043
  52    -1.850350141120
  53     0.477864299003
  54     0.542649787491
  55    -1.382056515164
  56     0.456044616617
  57     0.010973991377
  58    -0.001549888057
  59    -0.009424103320
  60     0.014060986998
  61     0.014077487963
  62     0.005406393844
  63    -0.436731884227
  64     0.657421897198
  65    -0.220690012971
  66    -0.316341336216
  67    -0.099349823639
  68    -0.290390657430
  69    -0.009090401353
  70    -0.052404261867
  71    -0.022025433917
  72     0.017040956829
  73     0.037933523487
  74     0.001922929785
  75    -0.004844903609
  76     0.032374171620
  77     0.027627290699
  78    -0.005291833825
  79     0.095019309714
  80     0.199850361641
  81    -0.367748901032
  82    -0.041207573690
  83     0.071645925336
  84     0.032298917395
  85     0.061251534967
  86    -0.969870415444
  87    -0.713740213142
  88    -0.007391120638
  89     0.014046303079
  90    -0.010851074261
  91     0.133213349563
  92    -1.044396826620
  93    -0.859266046865
  94     0.030163899795
  95    -0.000996839663
  96     0.015980825985
  97     0.061261457744
  98    -0.971116074221
  99    -0.714380694897
  100   -0.011665942783
  101    0.015168489324
  102   -0.002798311763
 Sym=     1a
 Ene= 7.61323624156026E-01
Spin= Alpha
 Occup= 0
  1      0.105100652946
  2      0.290815578483
  3     -2.548407997729
  4      5.048850913009
  5      6.119253936578
  6     -0.006712207642
  7     -0.083222614480
  8      0.006872735709
  9     -0.126843607381
  10     1.941505070209
  11    -0.308104540680
  12     0.079329254955
  13     1.542825769370
  14    -0.150217954187
  15     0.015022460475
  16    -0.008248918717
  17    -0.006773541758
  18    -0.000318895076
  19     0.018288585959
  20    -0.001157080708
  21    -0.475872644238
  22     0.721618305364
  23    -0.245745661126
  24    -0.180483843137
  25    -0.139793018091
  26    -0.228463699499
  27     0.016603304971
  28     0.045990164560
  29     0.013034535664
  30    -0.026189479496
  31    -0.029018826201
  32     0.014681662464
  33     0.003913808356
  34    -0.032683454351
  35    -0.032169327144
  36     0.012292472827
  37     0.061186098729
  38    -0.971632611990
  39    -0.713000069072
  40    -0.002291215447
  41    -0.018874267088
  42    -0.003841209316
  43    -0.022158948260
  44     0.004809395956
  45     0.663049686801
  46    -4.320070081734
  47    -2.032368817884
  48    -0.036033338823
  49     0.068630039984
  50    -0.027447905148
  51    -0.081867983917
  52     1.803489031169
  53    -0.268179177266
  54     0.049115060318
  55     1.713683285684
  56    -0.188186808926
  57     0.003128276728
  58    -0.001631579331
  59    -0.001496697397
  60     0.009124133345
  61     0.001855907874
  62     0.004741191630
  63     0.398974670432
  64    -0.459908793696
  65     0.060934123264
  66     0.129637388168
  67     0.247439723964
  68     0.129049959616
  69     0.006301373594
  70     0.042525458766
  71     0.015074639970
  72    -0.004299656645
  73    -0.012798220962
  74     0.004878795306
  75    -0.004154523180
  76    -0.044255668983
  77    -0.025103547131
  78     0.030792665138
  79     0.061185369440
  80    -0.970166795426
  81    -0.712201083079
  82    -0.006368450165
  83    -0.017736655826
  84     0.003928453466
  85     0.094900541074
  86     0.199501970961
  87    -0.367178287590
  88     0.030863773089
  89    -0.074263310347
  90    -0.037294946169
  91     0.133183227004
  92    -1.044021000700
  93    -0.857646675906
  94     0.027609822263
  95     0.016174704884
  96     0.012358832350
  97     0.094922857231
  98     0.200172330345
  99    -0.366786637745
  100   -0.020144204733
  101   -0.062071680954
  102    0.060084303314
 Sym=     1a
 Ene= 7.97542435403276E-01
Spin= Alpha
 Occup= 0
  1      0.000542067269
  2      0.005488165757
  3     -0.074322649852
  4      0.453284357678
  5      0.090241873719
  6     -0.011710983373
  7      0.002761238772
  8      0.987308766720
  9      0.503720388394
  10     0.266881310101
  11    -1.952249034136
  12     0.307267612055
  13     0.066320308967
  14    -1.470421223343
  15    -0.001138174694
  16     0.003872896689
  17    -0.002734721995
  18    -0.003618752790
  19     0.000232990378
  20     0.002054371054
  21    -0.043505642286
  22     0.145523746542
  23    -0.102018104256
  24    -0.149035989398
  25     0.028627984621
  26     0.023820189457
  27    -0.020777804241
  28     0.000730692456
  29     0.012614014495
  30    -0.000956197523
  31    -0.014663946610
  32     0.013915616855
  33     0.028832547146
  34     0.013683619808
  35    -0.030839093183
  36     0.009728387974
  37    -0.020462057018
  38     1.498256308189
  39     0.249034992118
  40     0.013786634692
  41     0.033459893004
  42    -0.034330597357
  43     0.003239838470
  44     0.001378177762
  45     0.116796171609
  46    -0.852599686882
  47    -0.162301073255
  48     0.017198143091
  49     0.000306146660
  50    -0.074618529729
  51    -0.434117893287
  52     0.528758289181
  53     0.846508226299
  54    -0.271748532222
  55     0.221605756354
  56     0.580789683250
  57     0.002157117719
  58    -0.003521547784
  59     0.001364430065
  60     0.000153293292
  61     0.000243476810
  62     0.001763619290
  63     0.043778503512
  64    -0.125789969992
  65     0.082011466480
  66     0.031662023761
  67    -0.003646742473
  68    -0.060179120125
  69     0.008900578416
  70     0.011517411841
  71    -0.002520741603
  72    -0.003223873077
  73    -0.002644076817
  74    -0.005517597477
  75    -0.008717505949
  76    -0.012808152664
  77     0.008899527224
  78    -0.003505171688
  79     0.011629147248
  80    -1.219668763629
  81    -0.175705493583
  82     0.021148439905
  83    -0.036851930837
  84    -0.015656379867
  85    -0.014638183961
  86    -0.457976998109
  87    -0.107664081920
  88    -0.003398637567
  89     0.017837230403
  90    -0.000119865210
  91    -0.031851533313
  92     0.231795094935
  93     0.055341625763
  94    -0.010222344719
  95    -0.006303057326
  96     0.007047577945
  97     0.029157404663
  98     0.462165347481
  99     0.061341114036
  100    0.000622451959
  101   -0.021565868237
  102    0.009393521190
 Sym=     1a
 Ene= 8.04022376217396E-01
Spin= Alpha
 Occup= 0
  1      0.006210480120
  2     -0.005567636275
  3     -0.029955486557
  4      0.681108792722
  5      0.097840107956
  6      0.016503481912
  7      0.015502993020
  8     -0.076873871949
  9     -0.451365907462
  10     0.502659280956
  11     0.840676721543
  12    -0.283035483014
  13     0.189946402933
  14     0.579646411497
  15    -0.002881122884
  16     0.004152072122
  17    -0.001270949238
  18    -0.000123421597
  19    -0.000703472515
  20    -0.001778108650
  21    -0.056729976275
  22     0.133430552489
  23    -0.076700576214
  24    -0.045008242852
  25    -0.027227246173
  26     0.052418779175
  27     0.008247833750
  28     0.011441109662
  29    -0.002523964924
  30    -0.002850541805
  31    -0.002927893888
  32    -0.005703525244
  33    -0.008215088354
  34    -0.012421965477
  35     0.009089779529
  36    -0.005757842832
  37    -0.029528547230
  38    -0.426412624423
  39    -0.056659018072
  40     0.001927246176
  41    -0.020714496526
  42     0.010235455689
  43     0.009674512824
  44    -0.011258369961
  45     0.182332374224
  46    -0.725852052836
  47    -0.170255494348
  48    -0.003838768685
  49    -0.014182632175
  50     0.993449279314
  51     0.434338066835
  52     0.358216597171
  53    -1.998959882933
  54     0.278592687470
  55     0.110182897442
  56    -1.492025193556
  57     0.000554085728
  58    -0.003580432214
  59     0.003026346486
  60     0.003631616113
  61    -0.000564908813
  62    -0.001967825166
  63     0.003707124497
  64    -0.142600250269
  65     0.138893125772
  66     0.155124163319
  67    -0.082944756524
  68    -0.010503080470
  69    -0.022374603629
  70    -0.003233936047
  71     0.016579465914
  72     0.002523741520
  73    -0.010814166082
  74     0.005659138085
  75     0.027494939291
  76     0.015152946584
  77    -0.027902825773
  78     0.015340334442
  79     0.014269891021
  80     0.494029571334
  81     0.112930860541
  82    -0.004254946523
  83     0.018031092947
  84    -0.000802864267
  85    -0.014772377957
  86     1.232674155572
  87     0.178427825816
  88     0.021681295045
  89    -0.034887989817
  90    -0.013951262702
  91    -0.026714708801
  92     0.395064126940
  93     0.073679722646
  94    -0.026339292199
  95     0.019932258109
  96    -0.004650025803
  97     0.017402027907
  98    -1.484318637618
  99    -0.247626498726
  100    0.012986522194
  101    0.034361069223
  102   -0.036351991718
 Sym=     1a
 Ene= 1.05883685858345E+00
Spin= Alpha
 Occup= 0
  1      0.001486162457
  2      0.002010265877
  3     -0.099080509466
  4      0.400661729604
  5      0.337543863389
  6     -0.011172532953
  7      0.011294048928
  8     -0.007277616433
  9      0.130236502869
  10    -0.021859589113
  11     0.070903980071
  12     0.228201884340
  13     0.113541208339
  14     0.105440290690
  15    -0.001133375410
  16    -0.002153598732
  17     0.003286974142
  18    -0.002728486832
  19    -0.003168939049
  20    -0.000444953241
  21     0.003245125686
  22    -0.052041209009
  23     0.048796083323
  24    -0.054039941184
  25    -0.027573536287
  26    -0.011988930243
  27     0.006631269608
  28     0.014533960116
  29     0.017061556187
  30    -0.016782436592
  31    -0.019820063302
  32    -0.011978889132
  33     0.007885654820
  34     0.000320709620
  35    -0.010911590530
  36    -0.007682288604
  37    -0.023723529461
  38    -0.048450695331
  39     0.026987076406
  40    -0.006202531309
  41    -0.006464944909
  42     0.004987264259
  43     0.001496500213
  44     0.002027878983
  45    -0.099019510264
  46     0.400142616965
  47     0.337729855113
  48    -0.006888950122
  49    -0.015979999267
  50    -0.001594878604
  51     0.113162968749
  52     0.085560281513
  53     0.048512369930
  54     0.244853841572
  55     0.009493317459
  56     0.126795658232
  57    -0.002206433576
  58    -0.000391719957
  59     0.002598153533
  60     0.001028651516
  61    -0.004290047538
  62     0.001267656116
  63    -0.024650195615
  64    -0.006237506721
  65     0.030887702336
  66     0.043703183594
  67    -0.056739461560
  68     0.032565011481
  69    -0.006732792567
  70    -0.018015167887
  71     0.010889643256
  72     0.009374404509
  73     0.014222586428
  74    -0.024530760666
  75    -0.000341415394
  76     0.009947297585
  77     0.009920771124
  78     0.004928639718
  79    -0.023753531362
  80    -0.048561285615
  81     0.027158751887
  82    -0.000193876663
  83    -0.007892391776
  84    -0.006539419235
  85    -0.023751003065
  86    -0.048573508232
  87     0.027139128985
  88    -0.008142823879
  89     0.005728415051
  90     0.002451006026
  91     1.135553298575
  92    -0.728986582648
  93    -1.487692336193
  94    -0.031967766690
  95    -0.008277883783
  96    -0.015698531810
  97    -0.023736415969
  98    -0.048500012013
  99     0.026994076534
  100   -0.002099282271
  101    0.004307848456
  102   -0.009068750987
 Sym=     1a
 Ene= 1.06040792111533E+00
Spin= Alpha
 Occup= 0
  1      0.027669014046
  2      0.016210070377
  3      0.277939250124
  4     -1.794340206933
  5     -0.241627353280
  6     -0.010543260143
  7     -0.081623580148
  8      0.006996724500
  9     -0.198795304028
  10     1.530023434620
  11    -0.245566374345
  12    -0.053406765239
  13     0.418338281742
  14    -0.065423028088
  15     0.022989434646
  16     0.006097428596
  17    -0.029086863242
  18     0.008168262526
  19     0.385105148306
  20    -0.008276990806
  21     0.276884588211
  22     0.374269382757
  23    -0.651153970968
  24     0.155469432504
  25     1.733698313935
  26    -0.220036217783
  27     0.021449443929
  28    -0.131849721505
  29    -0.065047755655
  30    -0.047373304611
  31     0.041503593695
  32     0.051698237471
  33     0.018595855788
  34     0.135391370365
  35     0.035572484586
  36    -0.101444912660
  37     0.203746058400
  38     1.734377595667
  39    -0.024251443946
  40     0.000682752212
  41     0.211886230389
  42    -0.309667819685
  43    -0.031975346595
  44     0.063789858496
  45    -0.435232181606
  46     0.123345797686
  47     0.247068151394
  48    -0.045806966234
  49     0.086545077656
  50    -0.034641136990
  51     0.274105794409
  52     0.400458295321
  53     0.163148252067
  54     0.152446888541
  55    -0.036694569487
  56     0.103120819190
  57     0.004276826055
  58    -0.005002531493
  59     0.000725705438
  60    -0.003586092430
  61     0.001144299262
  62    -0.002794547890
  63     0.023675807128
  64    -0.235478356456
  65     0.211802549328
  66    -0.266773730682
  67    -0.243457235788
  68    -0.138194966977
  69    -0.030155567788
  70     0.027162665768
  71    -0.043252929142
  72     0.060858799933
  73    -0.023383424841
  74     0.009325671494
  75    -0.020400860248
  76    -0.013059115424
  77     0.048704222378
  78    -0.000316587430
  79     0.226861439612
  80     1.911649393155
  81    -0.026609928565
  82    -0.125415608913
  83     0.307159549053
  84     0.219410010298
  85    -0.021790464182
  86    -0.332034792444
  87     0.009581321635
  88    -0.010523492959
  89     0.052976291440
  90     0.011921720023
  91    -0.041586665498
  92    -0.776564444889
  93    -0.027922180162
  94     0.104166614926
  95     0.087310454352
  96     0.015021340473
  97    -0.031078907952
  98    -0.308933862210
  99     0.015273401618
  100    0.000965590796
  101    0.038801686183
  102   -0.033510254971
 Sym=     1a
 Ene= 1.09047744834269E+00
Spin= Alpha
 Occup= 0
  1      0.027857052858
  2     -0.082833984961
  3     -0.127234710854
  4      4.955993910902
  5      0.596333172598
  6     -0.005929695278
  7      0.215408518400
  8     -0.062254924271
  9     -0.522926013970
  10     3.049992345460
  11    -1.018862548761
  12    -0.169040472371
  13     0.666610796659
  14    -0.223088063648
  15    -0.028609644290
  16     0.048779246237
  17    -0.020169601947
  18    -0.015012550930
  19    -0.001923150700
  20    -0.027208879298
  21    -0.341653660823
  22     0.900318485616
  23    -0.558664824793
  24    -0.187139588676
  25     0.239574860306
  26    -0.780844798204
  27     0.024992576001
  28     0.075613666785
  29     0.106017901381
  30    -0.032252799784
  31    -0.050153266945
  32     0.020419479244
  33    -0.001278259539
  34    -0.051293112431
  35    -0.162657419836
  36     0.035497974115
  37    -0.037695319371
  38     0.183401831765
  39     0.136626340633
  40    -0.011397299253
  41     0.035725873158
  42     0.019442566023
  43    -0.003547310537
  44    -0.032739859869
  45     0.528877018722
  46    -3.405969653935
  47    -0.668420889460
  48     0.037753128740
  49    -0.091996304831
  50     0.019036659441
  51    -0.466081008323
  52     4.098765258031
  53    -1.384304693249
  54    -0.128919094652
  55     1.209748125409
  56    -0.397973785698
  57    -0.162218942231
  58    -0.236532939077
  59     0.398751881308
  60     0.021335865454
  61    -0.028660664125
  62    -0.009733213718
  63    -0.228129633897
  64    -2.003194993472
  65     2.231324627369
  66     0.545059884795
  67    -0.658038854147
  68    -0.093501634857
  69    -0.025915697529
  70     0.068892245256
  71    -0.024564240368
  72    -0.061692858679
  73    -0.107433774157
  74     0.021963719361
  75     0.096462415495
  76     0.015005128048
  77     0.010992667406
  78    -0.050893620042
  79     0.017873626864
  80     0.196018502970
  81     0.110112121249
  82    -0.015199170262
  83     0.005740350996
  84     0.007540337299
  85    -0.046153084804
  86    -0.533214972575
  87    -0.138888024933
  88    -0.088145486433
  89     0.169665196604
  90    -0.070517945937
  91     0.064867845276
  92     0.436264578939
  93    -0.018048495214
  94    -0.064955464131
  95     0.051765400326
  96    -0.070103179826
  97    -0.278222641981
  98    -2.254222929930
  99    -0.088098008843
  100    0.188253248664
  101    0.239341550417
  102   -0.310237907806
 Sym=     1a
 Ene= 1.11160434355048E+00
Spin= Alpha
 Occup= 0
  1      0.043477889109
  2     -0.046602038349
  3      1.589027863913
  4     -9.936221100305
  5     -1.772444425642
  6      0.018205785932
  7      0.089251483819
  8     -0.000536446114
  9      0.596292810104
  10    -6.048463599455
  11     1.161036915054
  12     0.178295401496
  13    -1.839743483459
  14     0.349419794910
  15     0.357877933637
  16    -0.402753924761
  17     0.044875991124
  18     0.023805657342
  19     0.009888370043
  20     0.028823104023
  21     1.977363399851
  22    -3.110143739001
  23     1.132780339150
  24     0.400121278895
  25    -0.057654692440
  26     0.610629267782
  27    -0.015893121636
  28    -0.303893574059
  29    -0.063730703123
  30     0.035305500175
  31     0.188384329784
  32    -0.047148370658
  33    -0.013982639963
  34     0.219331683929
  35     0.132652081320
  36    -0.038748995945
  37     0.005415405655
  38     0.085255628554
  39    -0.263579433012
  40     0.065052978032
  41    -0.024362292858
  42    -0.059631396384
  43     0.006545583652
  44    -0.065851232636
  45    -0.934782197744
  46     10.122382952486
  47     1.588062652135
  48     0.024476018868
  49    -0.286030050307
  50     0.054617622864
  51     1.346756335323
  52    -5.677851641911
  53     1.446672413800
  54     0.390295644151
  55    -1.466683947173
  56     0.387149904371
  57    -0.055998352933
  58     0.095365848623
  59    -0.039367495690
  60    -0.039386234484
  61    -0.000739267445
  62    -0.041389879443
  63    -0.970990259858
  64     1.744440605901
  65    -0.773450346043
  66    -0.856923200724
  67     0.204821801345
  68    -0.874756638748
  69    -0.115683742756
  70    -0.200202008141
  71    -0.129468176624
  72     0.187710431642
  73     0.141489392466
  74    -0.015023828667
  75    -0.032504404025
  76     0.127109787196
  77     0.188723614980
  78    -0.103188947426
  79     0.037740389078
  80     0.319385440778
  81    -0.272250941781
  82    -0.126046378497
  83    -0.013077964359
  84     0.084030998755
  85    -0.062532204298
  86    -0.118874432281
  87     0.268998509520
  88    -0.026439925181
  89     0.041905845663
  90     0.033479560129
  91     0.079047359126
  92    -0.163111018785
  93    -0.077420706514
  94     0.003211073419
  95    -0.090770412039
  96     0.033919912705
  97    -0.068235139483
  98    -0.134616027316
  99     0.270871542901
  100    0.027381060241
  101    0.031860027361
  102   -0.048491007402
 Sym=     1a
 Ene= 1.11274374675547E+00
Spin= Alpha
 Occup= 0
  1     -0.010899150329
  2      0.037966903012
  3     -0.434781842927
  4      1.715464418441
  5      0.508143519202
  6      0.003201993204
  7     -0.050558834155
  8      0.007664339992
  9     -0.040102564646
  10     0.820177201198
  11    -0.316391796791
  12     0.234031465299
  13     0.570180514728
  14    -0.766595393081
  15    -0.001875626359
  16     0.005059345468
  17    -0.003183719109
  18    -0.005245084790
  19    -0.000777770886
  20     0.002220727764
  21    -0.215782997696
  22     0.298236948106
  23    -0.082453950410
  24    -0.028536664995
  25    -0.032342722788
  26    -0.209742987459
  27     0.003704045800
  28     0.047588960206
  29     0.015050138394
  30    -0.009347282424
  31    -0.023268931076
  32     0.008621594305
  33     0.004377783503
  34    -0.040578358923
  35    -0.028813473817
  36     0.025536184034
  37    -0.042369243900
  38    -0.005132059568
  39     0.550443354441
  40    -0.011552208762
  41    -0.000058249248
  42     0.023528536516
  43     0.008465803143
  44     0.047636192694
  45    -0.087608444885
  46    -1.004852582327
  47     0.253844899849
  48     0.049656767955
  49    -0.047831267422
  50    -0.086742066857
  51    -0.197275391868
  52     0.846012373403
  53    -0.015938752940
  54    -0.878175501576
  55     1.047806435020
  56     1.216980368495
  57     0.006817218384
  58    -0.007217518212
  59     0.000400299828
  60     0.011998235663
  61     0.010296679539
  62    -0.007763454556
  63     0.173713906709
  64    -0.287386404010
  65     0.113672497301
  66     0.190373082240
  67     0.115420344216
  68    -0.095709877429
  69    -0.018617791770
  70     0.048674867988
  71     0.017854761145
  72     0.000467543118
  73    -0.019658610667
  74     0.005092465907
  75     0.024510845675
  76    -0.045645577503
  77    -0.029047141693
  78     0.045257672305
  79    -0.013107766026
  80    -0.125110699136
  81    -0.063510591117
  82     0.015525795229
  83    -0.036550463838
  84    -0.010143150959
  85     1.120117957927
  86    -0.662353335447
  87    -2.451114136425
  88     0.055508529440
  89    -0.049959385363
  90    -0.082688817839
  91    -0.063427961701
  92    -0.049134151653
  93     0.048038750238
  94     0.020841875107
  95     0.005867136868
  96     0.000930800403
  97    -0.050677657653
  98     0.204753128511
  99     0.482943002761
  100    0.015729745086
  101   -0.057058987499
  102    0.001939389339
 Sym=     1a
 Ene= 1.11300253800587E+00
Spin= Alpha
 Occup= 0
  1     -0.010918465025
  2      0.037987312109
  3     -0.434520142019
  4      1.712445419725
  5      0.507309193527
  6      0.002894799760
  7     -0.050571923812
  8      0.008243140889
  9     -0.196276374357
  10     0.856575370771
  11    -0.017353858795
  12    -0.428990169133
  13     0.729204927469
  14     0.500235399237
  15    -0.003493755760
  16     0.003055949863
  17     0.000437805897
  18    -0.000235405391
  19    -0.000067699796
  20    -0.006648225707
  21    -0.181394665253
  22     0.343295143634
  23    -0.161900478381
  24    -0.142595625191
  25    -0.045888220341
  26    -0.006098885192
  27     0.013871640693
  28     0.048147308632
  29     0.015794137752
  30    -0.011471611705
  31    -0.020184491128
  32     0.005867701602
  33    -0.007139147224
  34    -0.044411901892
  35    -0.027057760998
  36     0.021333603078
  37    -0.013134535307
  38    -0.124599733454
  39    -0.062610473837
  40    -0.003026419707
  41    -0.032033446627
  42     0.025244363048
  43     0.008428730194
  44     0.047701684894
  45    -0.088382622162
  46    -1.001852332771
  47     0.254370599398
  48    -0.046796735255
  49    -0.024687375898
  50     0.097374321708
  51    -0.040227345938
  52     0.807764567020
  53    -0.315271963620
  54     0.589304704813
  55     0.695124609585
  56    -1.584359146377
  57     0.010862247390
  58    -0.002523177061
  59    -0.008339070329
  60     0.000132932593
  61     0.008472335312
  62     0.013206134292
  63     0.227782572265
  64    -0.207019614158
  65    -0.020762958107
  66    -0.010408407678
  67     0.095724982978
  68     0.262851865533
  69     0.029370386216
  70     0.049695994431
  71     0.024261820953
  72    -0.005241932183
  73    -0.009446958509
  74    -0.005922742420
  75    -0.034162575879
  76    -0.057227214546
  77    -0.026627906125
  78     0.027794551893
  79    -0.042434092875
  80    -0.004951525439
  81     0.549914806408
  82     0.012414189037
  83    -0.005773130388
  84    -0.022276418391
  85    -0.050680728723
  86     0.204024533805
  87     0.482381018601
  88     0.004759096357
  89    -0.054260916932
  90     0.022792106662
  91    -0.063406007570
  92    -0.049748681008
  93     0.047700607113
  94     0.013428464054
  95     0.007673335386
  96     0.015258254642
  97     1.120229726876
  98    -0.663697046652
  99    -2.449146220678
  100   -0.040237694263
  101   -0.026903578683
  102    0.100045356383
 Sym=     1a
 Ene= 1.11307451239529E+00
Spin= Alpha
 Occup= 0
  1      0.008465505326
  2      0.047610586345
  3     -0.087642491032
  4     -1.003771222167
  5      0.253422397157
  6     -0.057839723942
  7      0.045703431416
  8      0.082731841953
  9      0.219978078391
  10    -0.840138242854
  11     0.026400407866
  12     0.864787679591
  13    -1.050812182290
  14    -1.222700951332
  15     0.008410175749
  16    -0.008374418370
  17    -0.000035757379
  18     0.009632900508
  19     0.010226822885
  20    -0.009159984099
  21     0.166162156187
  22    -0.272253327225
  23     0.106091171038
  24     0.222330702980
  25     0.104344456261
  26    -0.081481671122
  27     0.018813756647
  28    -0.047259676785
  29    -0.026998545171
  30     0.002058767945
  31     0.020234129046
  32     0.006176827866
  33    -0.027300071210
  34     0.043171380886
  35     0.030045521512
  36    -0.043720227965
  37    -0.050641632173
  38     0.204952294160
  39     0.482596595178
  40    -0.012872192447
  41     0.057774217434
  42    -0.000576820426
  43    -0.010893330994
  44     0.037942527520
  45    -0.434566580829
  46     1.714688123345
  47     0.508067595311
  48    -0.012624836775
  49     0.048085765584
  50    -0.012302514847
  51     0.067101735245
  52    -0.812861342432
  53     0.329604489364
  54    -0.224988535197
  55    -0.567693266568
  56     0.770556241596
  57    -0.002813467316
  58     0.006114499784
  59    -0.003301032468
  60    -0.003048196138
  61    -0.001177483324
  62     0.003320870560
  63    -0.200359088398
  64     0.279330354448
  65    -0.078971266050
  66    -0.067866461254
  67    -0.023876651422
  68    -0.229035437166
  69    -0.003006487323
  70    -0.046400407420
  71    -0.026739771526
  72     0.011766838834
  73     0.025040957320
  74     0.006415218352
  75    -0.007733212817
  76     0.037211721785
  77     0.029459949749
  78    -0.023475331547
  79     1.120321589016
  80    -0.663597770587
  81    -2.449760370453
  82    -0.052468425545
  83     0.050646001398
  84     0.084021517479
  85    -0.013084162070
  86    -0.125006076659
  87    -0.063462939784
  88    -0.013913477754
  89     0.036943590762
  90     0.010923144844
  91    -0.063390926891
  92    -0.049123509330
  93     0.048019987039
  94     0.014041789423
  95     0.003201748035
  96     0.016184054883
  97    -0.042343665191
  98    -0.005028008987
  99     0.550112324505
  100    0.011523395150
  101    0.000049618255
  102   -0.023520143075
 Sym=     1a
 Ene= 1.11440295536430E+00
Spin= Alpha
 Occup= 0
  1      0.008416495658
  2      0.047636439416
  3     -0.088630123091
  4     -0.997549341118
  5      0.254007613733
  6      0.038507556471
  7      0.022449111692
  8     -0.101318946971
  9      0.062251754236
  10    -0.800315882278
  11     0.326968897163
  12    -0.600343689460
  13    -0.696598801001
  14     1.575346589525
  15     0.010585665934
  16    -0.003559523036
  17    -0.007026142898
  18    -0.002245576852
  19     0.009904645191
  20     0.012410744121
  21     0.216306255620
  22    -0.191163181247
  23    -0.025143074373
  24     0.021931692175
  25     0.087241818037
  26     0.277417182899
  27    -0.029786643448
  28    -0.048504436622
  29    -0.032573015215
  30     0.007787335129
  31     0.012014900899
  32     0.017283540010
  33     0.032175640614
  34     0.053060629599
  35     0.026417745742
  36    -0.027775965067
  37     1.121066630247
  38    -0.666906026615
  39    -2.444132296917
  40     0.042985100825
  41     0.027512267210
  42    -0.098266434687
  43    -0.010905707593
  44     0.037924533159
  45    -0.433658998494
  46     1.708392157022
  47     0.506249400626
  48    -0.012347486392
  49     0.048046717934
  50    -0.012899374094
  51     0.223066190263
  52    -0.847648081191
  53     0.030514831809
  54     0.437294048054
  55    -0.725205698268
  56    -0.494515726453
  57    -0.003803971521
  58     0.004068353515
  59    -0.000264381994
  60     0.001967255295
  61    -0.000975468774
  62    -0.005733299840
  63    -0.173696845324
  64     0.324221954912
  65    -0.150525109588
  66    -0.181780520910
  67    -0.030705402240
  68    -0.022595222812
  69    -0.013724880503
  70    -0.047116806070
  71    -0.026733371317
  72     0.013912730839
  73     0.023588631839
  74     0.009221650438
  75     0.004501128633
  76     0.039625196914
  77     0.026644930881
  78    -0.020517523166
  79    -0.050585846529
  80     0.203877941064
  81     0.481375623705
  82    -0.001933031769
  83     0.054894741326
  84    -0.021351822640
  85    -0.042327166186
  86    -0.004807932401
  87     0.548557958647
  88    -0.012415838904
  89     0.005745975170
  90     0.022205463564
  91    -0.063308231711
  92    -0.049823493064
  93     0.047579501800
  94     0.021566270047
  95     0.001450845418
  96     0.001927159353
  97    -0.013121013439
  98    -0.124167640350
  99    -0.062460871734
  100    0.004607491316
  101    0.032371779941
  102   -0.024395796507
 Sym=     1a
 Ene= 1.11649922786289E+00
Spin= Alpha
 Occup= 0
  1      0.002582238986
  2     -0.041746763795
  3      0.619234673524
  4     -3.633362440452
  5     -0.717128959986
  6      0.031065576337
  7      0.128394743800
  8      0.013430885856
  9      0.058089557242
  10    -4.347033059356
  11     1.137109199451
  12    -0.002654191692
  13    -1.291294424611
  14     0.322482419307
  15    -0.160668129523
  16    -0.238391045892
  17     0.399059175415
  18     0.015800234158
  19    -0.029103252530
  20    -0.010321402868
  21    -0.171793001277
  22    -2.133874331038
  23     2.305667332315
  24     0.274370416765
  25    -0.650981398864
  26    -0.177472934986
  27     0.027571347660
  28    -0.071682328785
  29     0.069816488431
  30     0.035698418982
  31     0.085344885893
  32    -0.075512850903
  33    -0.072689263541
  34     0.010827050077
  35    -0.018155797547
  36     0.043319242720
  37    -0.277982187977
  38    -2.198239270572
  39    -0.092056585535
  40    -0.190584045799
  41    -0.238433772879
  42     0.297095575416
  43     0.031646575048
  44    -0.088474534007
  45    -0.089793706203
  46     4.979631659059
  47     0.587416566284
  48     0.044192020856
  49    -0.216910447935
  50     0.074154547499
  51     0.421782801685
  52    -3.114091781638
  53     1.012026274747
  54     0.080903994785
  55    -0.681450601824
  56     0.201527950207
  57    -0.029199868677
  58     0.048888538581
  59    -0.019688669904
  60    -0.016483336917
  61    -0.003317815051
  62    -0.028121312430
  63    -0.367488290905
  64     0.931543331353
  65    -0.564055040448
  66    -0.159420407341
  67     0.225169265394
  68    -0.769122385925
  69    -0.033359466310
  70    -0.069285408704
  71    -0.097807703218
  72     0.038594128120
  73     0.042054276673
  74    -0.034323648143
  75     0.006162292497
  76     0.050901853553
  77     0.165546452014
  78    -0.038264154558
  79    -0.062334364229
  80    -0.584341363484
  81    -0.133929881776
  82     0.092254116369
  83    -0.176356185067
  84     0.063484821092
  85     0.016812554501
  86     0.193919560928
  87     0.111708802489
  88     0.017969451036
  89    -0.004420715917
  90    -0.006663648398
  91     0.085429915489
  92     0.711631794870
  93    -0.013111672707
  94    -0.076473041376
  95    -0.165354272921
  96    -0.054629556062
  97    -0.041982503009
  98     0.230197006556
  99     0.142420255324
  100    0.014755950853
  101   -0.038902112862
  102   -0.014316595291
 Sym=     1a
 Ene= 1.12310403964166E+00
Spin= Alpha
 Occup= 0
  1     -0.038061675714
  2      0.072864791973
  3     -0.495520137438
  4      0.085335191570
  5      0.261148093809
  6     -0.016380502798
  7     -0.120041993217
  8     -0.000997702632
  9      0.003497079708
  10    -0.393970244113
  11     0.014832525179
  12     0.000803980354
  13     0.086082867966
  14    -0.009167595835
  15     0.005917673211
  16    -0.005485672889
  17    -0.000432000322
  18    -0.001807389731
  19     0.003166357302
  20    -0.001924415154
  21     0.013175185475
  22    -0.207833709233
  23     0.194658523758
  24    -0.147110556133
  25    -0.264612886969
  26    -0.080115294076
  27     0.032713475811
  28    -0.026613056915
  29     0.020210529233
  30    -0.062186846326
  31     0.031582043882
  32     0.024969918928
  33     0.018297112910
  34     0.004123118728
  35    -0.052085189264
  36     0.009483875953
  37    -0.025310764620
  38    -0.366077373853
  39     0.007506998436
  40    -0.007315161515
  41    -0.045138328686
  42     0.034814524466
  43     0.017722401601
  44     0.030772575679
  45     0.131545097050
  46    -1.425932269237
  47    -0.162576466961
  48    -0.096664279693
  49     0.083564182676
  50    -0.062375756266
  51     0.907261354355
  52    -1.565431390505
  53     0.563853296628
  54     0.315430651852
  55    -0.424298684073
  56     0.188424017376
  57     0.025194464420
  58     0.003536464113
  59    -0.028730928533
  60     0.004152574647
  61     0.388602298940
  62    -0.012089884347
  63     0.404282973603
  64     0.253015649042
  65    -0.657298622645
  66    -0.129820011705
  67     1.923215940076
  68    -0.395520603335
  69    -0.020944884677
  70     0.150419503901
  71     0.002007998765
  72     0.050743134720
  73    -0.050112101446
  74     0.037417957351
  75    -0.022642623169
  76    -0.151696840073
  77    -0.040111970394
  78     0.093089736641
  79    -0.018789603359
  80    -0.346392768065
  81     0.005426528310
  82     0.005517229201
  83    -0.055410274813
  84    -0.015779770889
  85     0.246830647179
  86     1.953719761117
  87    -0.031235867844
  88     0.133654897165
  89    -0.312131485905
  90    -0.222449713882
  91    -0.075199740453
  92    -1.222330168922
  93    -0.035663880956
  94     0.214302190221
  95    -0.118858820987
  96     0.098918489351
  97     0.209397492893
  98     1.682549279191
  99    -0.021069739080
  100    0.006654165982
  101   -0.209474772425
  102    0.301817451054
 Sym=     1a
 Ene= 1.12571080324823E+00
Spin= Alpha
 Occup= 0
  1     -0.002391485111
  2     -0.052534736865
  3     -1.022984534683
  4      10.065257287937
  5      1.608631799424
  6     -0.066997311698
  7      0.252948609688
  8     -0.067327144418
  9     -1.046593943913
  10     5.643173270740
  11    -1.310026504583
  12    -0.276575448107
  13     1.501120488072
  14    -0.346635536477
  15    -0.054124499393
  16     0.095460273440
  17    -0.041335774047
  18    -0.034677189765
  19     0.001619290536
  20    -0.039440540370
  21    -0.971771893744
  22     1.760795512690
  23    -0.789023618946
  24    -0.732426527439
  25     0.188897214178
  26    -0.811860888824
  27     0.115045543734
  28     0.209720314546
  29     0.109343484015
  30    -0.177141431565
  31    -0.140616468132
  32     0.041570714538
  33     0.022791637787
  34    -0.140752859621
  35    -0.188270392430
  36     0.105153615547
  37    -0.062882096570
  38    -0.171152309990
  39     0.263308437023
  40    -0.030897433544
  41    -0.035064890613
  42     0.050131118667
  43     0.028887020466
  44    -0.025233388119
  45     1.374112349502
  46    -9.393927353805
  47    -1.656263584348
  48    -0.048170627744
  49    -0.053846518382
  50    -0.020223957656
  51    -0.403991991677
  52     5.801792338981
  53    -0.986764345245
  54    -0.055434996860
  55     1.769745064837
  56    -0.265386691545
  57     0.359395302076
  58    -0.402210919652
  59     0.042815617576
  60     0.023942228450
  61     0.012470853591
  62     0.029814175871
  63     2.047582970496
  64    -3.073361243451
  65     1.025778272955
  66     0.390142717300
  67     0.087686084107
  68     0.596695919377
  69     0.034816104055
  70     0.315055020223
  71     0.057955768922
  72    -0.063940903097
  73    -0.209784380191
  74     0.066689770174
  75     0.017230197869
  76    -0.212906284932
  77    -0.144445593573
  78     0.017993192613
  79    -0.055150277400
  80    -0.187360749899
  81     0.258924713204
  82     0.026509200543
  83    -0.049213470958
  84    -0.037322806787
  85     0.050940206859
  86     0.276171278081
  87    -0.270259865204
  88     0.120743195057
  89     0.014934969141
  90    -0.077099555947
  91     0.030133181464
  92    -0.816021458063
  93    -0.089016214835
  94     0.106118429799
  95    -0.023012963721
  96     0.079948954659
  97     0.029602521704
  98     0.112966375597
  99    -0.267715055998
  100   -0.068052601429
  101    0.019581001422
  102    0.063437589879
 Sym=     1a
 Ene= 1.12599199375052E+00
Spin= Alpha
 Occup= 0
  1     -0.017591442315
  2      0.014470413783
  3      0.105525319641
  4     -1.723164128308
  5     -0.461043031473
  6     -0.893966105590
  7     -0.031267025398
  8     -0.052178323253
  9      3.153882107625
  10    -1.384483230355
  11    -0.397671958045
  12    -3.328129988640
  13     0.311158292950
  14     2.649429401341
  15     0.011658165882
  16    -0.011424886226
  17    -0.000233279656
  18     0.015599684367
  19    -0.008998979551
  20     0.054640644614
  21     0.251385990794
  22    -0.318952791727
  23     0.067566800933
  24     0.365050462729
  25    -0.076706084595
  26     0.565386438713
  27    -0.234031600030
  28    -0.036766569001
  29    -0.036855173053
  30     0.289113819397
  31     0.027142082225
  32     0.020909950159
  33     0.024872520533
  34     0.022185446327
  35     0.028536453202
  36     0.040870378323
  37     0.183746071267
  38     0.408845848332
  39    -2.015897691772
  40     0.013650049726
  41     0.058663315044
  42    -0.209453062653
  43    -0.009831445266
  44    -0.015144783999
  45    -0.103248119408
  46     1.904113251314
  47    -0.315990819827
  48    -0.050704061147
  49     0.013117798270
  50     0.025055432153
  51    -0.016547642971
  52    -1.764243714363
  53    -0.088485033100
  54     1.451123295584
  55    -0.166699532981
  56    -2.113172409168
  57    -0.014098883736
  58     0.029330398337
  59    -0.015231514601
  60     0.014662071570
  61     0.003820234497
  62    -0.014113041770
  63    -0.437878210119
  64     0.659467218549
  65    -0.221589008430
  66     0.423214624716
  67    -0.002175236926
  68    -0.466992281063
  69     0.044206171494
  70    -0.099991138327
  71    -0.012380460253
  72    -0.139030098341
  73     0.105301494028
  74    -0.022219054572
  75     0.079721295650
  76     0.028850695439
  77     0.038829185003
  78     0.076475927168
  79    -0.256489178288
  80    -0.525629266706
  81     2.365089518522
  82     0.081834310659
  83    -0.165914139824
  84    -0.245391843016
  85     0.005413433283
  86     0.838232575087
  87     0.916337003063
  88     0.039760176816
  89    -0.046806925311
  90    -0.087327284852
  91    -0.189411731126
  92    -0.273188719661
  93     0.703482370038
  94     0.131696975124
  95     0.263057193464
  96     0.045676878031
  97     0.028220037548
  98    -0.499028880121
  99    -1.129822218620
  100    0.014005557766
  101   -0.020906538707
  102   -0.054278672762
 Sym=     1a
 Ene= 1.16552562919374E+00
Spin= Alpha
 Occup= 0
  1      0.003656819732
  2     -0.021044828744
  3     -0.325815239045
  4      3.493426532457
  5      0.568605701305
  6     -0.002472187470
  7      0.090507754394
  8     -0.054882384708
  9      0.703241718380
  10     2.133923318331
  11    -0.478281377947
  12     0.216836674936
  13     0.575956293229
  14    -0.053719111358
  15    -0.027904635650
  16     0.039698490312
  17    -0.011793854662
  18     0.009882591395
  19    -0.008256507445
  20    -0.015190683372
  21    -0.640575648874
  22     0.849276351659
  23    -0.208700702785
  24     0.696029410876
  25    -0.217445002321
  26    -0.418581810752
  27    -0.104731978738
  28     0.176507789648
  29     0.022510661655
  30     0.212206346976
  31    -0.169003799746
  32     0.051634478927
  33    -0.071693652650
  34    -0.067806249981
  35    -0.081835700734
  36    -0.064333037330
  37    -0.076640285631
  38    -0.052217748279
  39     0.123333243447
  40    -0.009154539732
  41     0.012372840989
  42     0.048353992387
  43     0.033667360893
  44    -0.031721608225
  45     0.789263878707
  46    -4.219367956703
  47    -0.753961415635
  48     0.100227442881
  49    -0.029073335133
  50     0.036758202659
  51    -0.749749626513
  52     1.672948451063
  53    -1.496437227842
  54    -0.301693888689
  55     0.512801072359
  56    -0.478457798475
  57     0.009357830658
  58    -0.030545716781
  59     0.021187886123
  60     0.403406621501
  61     0.003846301766
  62    -0.019881045745
  63     0.072810883714
  64    -0.619429722253
  65     0.546618838539
  66     2.226555939358
  67    -0.126593444519
  68    -0.380957693152
  69     0.028893639435
  70     0.016087140475
  71     0.090368924373
  72    -0.178948256224
  73     0.020830218001
  74    -0.054830565705
  75     0.140183371088
  76    -0.042413381801
  77    -0.066412069066
  78     0.151139907909
  79     0.009843041354
  80    -0.071078461580
  81     0.080051788492
  82     0.013747117330
  83    -0.033991669077
  84     0.024511993313
  85     0.203948086081
  86     1.711550615391
  87    -0.129583274851
  88     0.125444013139
  89    -0.147340006109
  90    -0.302150021752
  91     0.062601582522
  92     0.375249741265
  93    -0.021615475904
  94    -0.104193669989
  95     0.129137126353
  96    -0.066127560719
  97    -0.133528581591
  98    -0.800800924323
  99    -0.059834956796
  100    0.016795293413
  101   -0.028147695672
  102   -0.160210054209
 Sym=     1a
 Ene= 1.18240219727893E+00
Spin= Alpha
 Occup= 0
  1     -0.021971978418
  2     -0.055953675491
  3     -0.292881736676
  4      4.852789511243
  5     -0.235926736968
  6     -0.031039628855
  7     -0.052210066699
  8      0.092396287922
  9     -0.754733851860
  10     1.618962643831
  11     0.655077627831
  12     1.334477882051
  13     1.608217668554
  14    -3.468606693834
  15    -0.029011181173
  16     0.010585258569
  17     0.018425922604
  18     0.006754613928
  19    -0.026772689441
  20    -0.034614165173
  21    -0.622073077709
  22     0.569181073816
  23     0.052892003893
  24    -0.060254496161
  25    -0.261986102054
  26    -0.722082520527
  27     0.045981208628
  28     0.083872856727
  29     0.043372697851
  30    -0.038017217781
  31    -0.045652331965
  32    -0.013816601155
  33    -0.023673047127
  34    -0.066874913500
  35    -0.044373979302
  36     0.019162615199
  37     0.989837217756
  38    -3.630988078101
  39     5.562848980178
  40    -0.160757289164
  41    -0.147360344580
  42     0.384622060924
  43     0.019133372662
  44    -0.076059291373
  45     0.993402766919
  46    -4.405548747669
  47    -1.278430020937
  48     0.020230996437
  49    -0.093612538864
  50     0.015862619506
  51    -0.393483218204
  52     2.049502643869
  53    -0.339035693437
  54    -1.067861382427
  55     1.799778517186
  56     1.253301468062
  57     0.010170768510
  58    -0.009029946381
  59    -0.001140822129
  60    -0.007014368076
  61     0.002850018819
  62     0.016938649516
  63     0.493994568039
  64    -0.855394851717
  65     0.361400283678
  66     0.427411330819
  67     0.113571322902
  68     0.141519154714
  69     0.034328580961
  70     0.120340592388
  71     0.072227865072
  72    -0.037870645650
  73    -0.069595917555
  74    -0.014094482927
  75    -0.008185978710
  76    -0.091857929465
  77    -0.082809366775
  78     0.045170196023
  79     0.115514210637
  80    -0.290091850954
  81    -1.269227857870
  82     0.001794867797
  83    -0.114957882011
  84     0.047344698955
  85     0.088502519987
  86     0.240233541956
  87    -1.508735309309
  88     0.035524157253
  89    -0.028159923984
  90    -0.065401053190
  91     0.099793645779
  92     0.014145768606
  93    -0.109265177628
  94    -0.039190953248
  95     0.008006894985
  96    -0.025121490473
  97    -0.001709909923
  98     0.422983384620
  99     0.177740669145
  100   -0.011426147539
  101   -0.082378474069
  102    0.060912436965
 Sym=     1a
 Ene= 1.18349784640659E+00
Spin= Alpha
 Occup= 0
  1     -0.022038071493
  2     -0.055781030774
  3     -0.294750541894
  4      4.859864212463
  5     -0.234264762206
  6      0.051730489977
  7     -0.072069905827
  8     -0.065795860065
  9      0.261645815348
  10     1.376616921379
  11    -1.287131729782
  12    -1.886961673897
  13     2.384231044546
  14     2.684828120588
  15    -0.023267066233
  16     0.023953894813
  17    -0.000686828580
  18    -0.026235703948
  19    -0.027325015910
  20     0.025453812094
  21    -0.487182689445
  22     0.774943350619
  23    -0.287760661174
  24    -0.572032705890
  25    -0.309731337239
  26     0.193907683731
  27    -0.007456284898
  28     0.079805516423
  29     0.042756239826
  30    -0.026642624270
  31    -0.054519840522
  32     0.000408553404
  33     0.036646280205
  34    -0.052550495299
  35    -0.057772068632
  36     0.035296338721
  37     0.115547749317
  38    -0.291891566933
  39    -1.270449564004
  40     0.027748807803
  41    -0.121627322643
  42    -0.002029692070
  43     0.019104474111
  44    -0.076038714947
  45     0.994322796501
  46    -4.412870879107
  47    -1.280976724349
  48     0.014943571893
  49    -0.092384422905
  50     0.025915901240
  51    -0.293577949409
  52     2.028231934297
  53    -0.530939551680
  54     0.588606460131
  55     1.403083772088
  56    -1.909509170424
  57     0.006559704830
  58    -0.015461375032
  59     0.008901670202
  60     0.008906912519
  61     0.003843201141
  62    -0.011691708328
  63     0.548641159013
  64    -0.773358993350
  65     0.224717834337
  66     0.220190420246
  67     0.095902465637
  68     0.513943878695
  69     0.017177768531
  70     0.124952891164
  71     0.060870920525
  72    -0.045665679697
  73    -0.070377450399
  74    -0.014054455228
  75     0.022619284816
  76    -0.097264444777
  77    -0.067612454460
  78     0.051421952367
  79     0.990357564001
  80    -3.632937184912
  81     5.566073824274
  82     0.204929177730
  83    -0.235274557985
  84    -0.313961417261
  85    -0.001788150481
  86     0.424264680519
  87     0.180199246368
  88     0.034598230729
  89    -0.093622301628
  90    -0.026904970175
  91     0.099871719559
  92     0.013001021482
  93    -0.110177581296
  94    -0.041891576776
  95     0.008707950112
  96    -0.019596579622
  97     0.088403375652
  98     0.240841282073
  99    -1.510295296132
  100   -0.035591038116
  101   -0.011258243264
  102    0.070461492540
 Sym=     1a
 Ene= 1.18386676160544E+00
Spin= Alpha
 Occup= 0
  1      0.019123674004
  2     -0.076031826369
  3      0.993142259765
  4     -4.404778522261
  5     -1.277909066844
  6     -0.014586355881
  7      0.095019798672
  8     -0.013067991072
  9      0.351604357836
  10    -2.059879493380
  11     0.318361238469
  12     1.090557334881
  13    -1.793232094486
  14    -1.241628740530
  15     0.008927983045
  16    -0.006114268904
  17    -0.002813714141
  18    -0.000746087082
  19     0.000539784031
  20     0.019601275519
  21     0.512795367261
  22    -0.887377758647
  23     0.374582391386
  24     0.358650646993
  25     0.134640398134
  26     0.110366021495
  27    -0.033543225125
  28    -0.124568966974
  29    -0.044267072846
  30     0.029197328350
  31     0.064387878257
  32    -0.022088107571
  33     0.015805630588
  34     0.102738928567
  35     0.081478618001
  36    -0.047069851067
  37    -0.001690044355
  38     0.422975435660
  39     0.177653354253
  40     0.006964845775
  41     0.081206016811
  42    -0.063120541537
  43    -0.021937651345
  44    -0.055946031179
  45    -0.293025639393
  46     4.852567288813
  47    -0.236013929222
  48     0.032147699897
  49     0.052542030985
  50    -0.091778126464
  51     0.735743649030
  52    -1.623292607972
  53    -0.664711553439
  54    -1.258289754910
  55    -1.588590527152
  56     3.504304926717
  57    -0.029859876253
  58     0.007392672224
  59     0.022467204029
  60    -0.000529983213
  61    -0.022241075504
  62    -0.036900246210
  63    -0.628605926268
  64     0.582379851807
  65     0.046226074461
  66    -0.031741436932
  67    -0.271499841869
  68    -0.709794118234
  69    -0.043742593773
  70    -0.087348548070
  71    -0.025448104725
  72     0.030676316720
  73     0.040843554602
  74    -0.010033823790
  75     0.028010531194
  76     0.076346820129
  77     0.044176039028
  78    -0.018032368297
  79     0.088533744369
  80     0.240208558604
  81    -1.508333001254
  82    -0.041461976135
  83     0.026606132279
  84     0.062455464776
  85     0.115479639979
  86    -0.289756835683
  87    -1.268546888644
  88    -0.009162563917
  89     0.112984634127
  90    -0.050967158958
  91     0.099741667838
  92     0.013878167523
  93    -0.109276159309
  94    -0.036317292985
  95    -0.027671767607
  96    -0.011948659818
  97     0.990778816822
  98    -3.631985452577
  99     5.561084069064
  100    0.145147469293
  101    0.143355511433
  102   -0.392265900005
 Sym=     1a
 Ene= 1.18395277037180E+00
Spin= Alpha
 Occup= 0
  1      0.019102954091
  2     -0.076024207797
  3      0.993911075733
  4     -4.410681630439
  5     -1.279870131139
  6     -0.009352589874
  7      0.093782918909
  8     -0.023136684886
  9      0.251884375956
  10    -2.037895552559
  11     0.510206081624
  12    -0.564406161321
  13    -1.395911450967
  14     1.920251485712
  15     0.004226566039
  16    -0.012473853675
  17     0.008247287636
  18     0.015134128745
  19     0.002430376057
  20    -0.008669370865
  21     0.568713093122
  22    -0.805128383395
  23     0.236415290273
  24     0.151684814111
  25     0.115647707855
  26     0.482228001213
  27    -0.016574944100
  28    -0.129243074772
  29    -0.032717313140
  30     0.036982824145
  31     0.065767084325
  32    -0.022033408814
  33    -0.014745203106
  34     0.107630696162
  35     0.065928290548
  36    -0.053752194031
  37     0.088385335596
  38     0.240785177812
  39    -1.509538964479
  40     0.029596335529
  41     0.009699785207
  42    -0.073371475542
  43    -0.022014465163
  44    -0.055796580539
  45    -0.294581532989
  46     4.857939907860
  47    -0.235041706521
  48    -0.050631884790
  49     0.072319847785
  50     0.066277187751
  51    -0.281134188274
  52    -1.380557316800
  53     1.277773366923
  54     1.963333354895
  55    -2.362722921839
  56    -2.645733134370
  57    -0.018285549331
  58     0.020386406424
  59    -0.002100857093
  60    -0.033423192973
  61    -0.027579086955
  62     0.021125351468
  63    -0.496144958481
  64     0.787722254951
  65    -0.291577296470
  66    -0.543993439664
  67    -0.316940934464
  68     0.207277830166
  69     0.008074429908
  70    -0.083958067335
  71    -0.022861045376
  72     0.019417304864
  73     0.054495562240
  74    -0.024042487337
  75    -0.030250289356
  76     0.058146005253
  77     0.054713798236
  78    -0.037837226953
  79    -0.001729944031
  80     0.424052091466
  81     0.180103505229
  82    -0.039069947626
  83     0.092415829045
  84     0.024690575305
  85     0.990662504957
  86    -3.633282636791
  87     5.564440690654
  88    -0.220700829403
  89     0.231159201748
  90     0.306213504817
  91     0.099845373427
  92     0.012829728018
  93    -0.110125176941
  94    -0.033340425956
  95    -0.028272020061
  96    -0.017329177207
  97     0.115517979372
  98    -0.291333903241
  99    -1.269980017385
  100   -0.035167943261
  101    0.119613209924
  102   -0.001546164591
 Sym=     1a
 Ene= 1.19428311563262E+00
Spin= Alpha
 Occup= 0
  1     -0.073026863227
  2      0.043898372782
  3     -0.167087636112
  4      1.042249749652
  5     -2.278395897939
  6     -0.054942228076
  7     -0.019359728792
  8     -0.026329626147
  9      0.671383678806
  10     0.689626313076
  11     0.265013799839
  12    -1.011228320868
  13    -0.709980447125
  14    -0.442380089728
  15     0.010869933029
  16     0.023498392243
  17    -0.034368325272
  18     0.037455347516
  19     0.030351334096
  20     0.009440581251
  21     0.139397944702
  22    -0.035245397084
  23    -0.104152547618
  24     0.274651771343
  25     0.144522165654
  26     0.125471249950
  27    -0.021222805789
  28    -0.094932333324
  29    -0.056794861688
  30     0.057145194231
  31     0.108225512650
  32     0.028129688278
  33    -0.028671812379
  34     0.019139577694
  35     0.048068614626
  36     0.043965074382
  37    -0.042178067661
  38     0.359275291385
  39    -0.048104668222
  40    -0.003047018694
  41    -0.011780671492
  42    -0.038047846990
  43    -0.073010078883
  44     0.043862521585
  45    -0.167304534406
  46     1.044249473858
  47    -2.280716747379
  48    -0.056472800249
  49    -0.009583881902
  50    -0.028374554394
  51     0.828332292381
  52    -0.300874651976
  53     0.471479109843
  54    -1.148937222899
  55     0.148928103061
  56    -0.618262521885
  57     0.026747831342
  58    -0.002604105756
  59    -0.024143725586
  60    -0.018145809465
  61     0.046909325700
  62    -0.015897088433
  63     0.238699121225
  64    -0.198339838101
  65    -0.040359283124
  66    -0.073014719475
  67     0.248065951031
  68    -0.032950713022
  69     0.047648346241
  70     0.077807137955
  71    -0.021692511639
  72    -0.076826685242
  73    -0.067515721339
  74     0.091166053804
  75     0.012899720515
  76    -0.036873508422
  77    -0.062062495427
  78    -0.015262655389
  79    -0.041895435538
  80     0.359460472377
  81    -0.049885505236
  82    -0.033796332650
  83    -0.004470954503
  84     0.021024117372
  85    -0.041924073159
  86     0.359484015003
  87    -0.049755032917
  88    -0.003914324067
  89    -0.005299370857
  90    -0.039536109449
  91     1.011592673109
  92    -3.554578107690
  93     5.244116124452
  94     0.437284872965
  95     0.113491180840
  96     0.214700731676
  97    -0.042167342057
  98     0.359422695954
  99    -0.048149270394
  100   -0.034903649797
  101    0.001957186531
  102    0.019448985540
 Sym=     1a
 Ene= 1.19446828712667E+00
Spin= Alpha
 Occup= 0
  1     -0.011863385823
  2      0.019513696148
  3      0.235625089434
  4     -2.970982040967
  5     -0.513239064237
  6     -0.041597280959
  7      0.009620213381
  8      0.030299288915
  9      0.006084836127
  10    -2.403492237793
  11     0.002764972492
  12     1.457790177431
  13    -0.439413378118
  14    -2.076371034327
  15     0.029529084768
  16    -0.036543297589
  17     0.007014212821
  18    -0.009767979144
  19     0.012600271232
  20     0.015223376702
  21     0.456273761898
  22    -0.830707459165
  23     0.374433697267
  24    -0.458742646502
  25    -0.086890254936
  26     0.503361721724
  27     0.041527425939
  28    -0.113959818157
  29    -0.007604290917
  30    -0.134438497811
  31     0.122502385144
  32    -0.031727416290
  33     0.078723609413
  34     0.030390754918
  35     0.041929643137
  36     0.085303083794
  37    -0.068930904556
  38     0.600145331735
  39     1.099697063681
  40     0.017142287096
  41    -0.016556536731
  42    -0.054483061030
  43    -0.022761863126
  44     0.021514110092
  45    -0.457005158867
  46     3.116265665422
  47    -0.027176265548
  48    -0.929241573215
  49     0.067715301361
  50    -0.082966874052
  51     3.497625641704
  52    -2.623038473823
  53    -0.062976631746
  54    -3.350923237611
  55     0.279847410215
  56     2.642390057850
  57    -0.007839148616
  58     0.013419005083
  59    -0.005579856467
  60    -0.013817900589
  61     0.024877354780
  62    -0.054957110258
  63    -0.096940774607
  64     0.555515711155
  65    -0.458574936548
  66    -0.390330487220
  67     0.534418629819
  68    -0.703626784486
  69    -0.184772788824
  70     0.070385573029
  71    -0.057160087550
  72     0.194362527691
  73    -0.110639035352
  74     0.106602364131
  75     0.053536182031
  76     0.016206879796
  77    -0.029914059314
  78    -0.041285771212
  79    -0.046010752260
  80    -0.737324781159
  81    -0.947025387407
  82     0.037366430265
  83    -0.043542009122
  84    -0.087613371715
  85     0.289623442180
  86     0.939584028426
  87    -2.429927268629
  88     0.118918065935
  89    -0.221057402970
  90    -0.262306495353
  91    -0.243463640055
  92    -0.349305540223
  93     0.827493050628
  94     0.270791500081
  95    -0.269942048895
  96     0.185147888757
  97    -0.150677688616
  98     0.004398403413
  99     1.952418590408
  100    0.003548083785
  101    0.008837460972
  102   -0.165480157987
 Sym=     1a
 Ene= 1.22038431988580E+00
Spin= Alpha
 Occup= 0
  1      0.000272092062
  2      0.017226715475
  3      0.297589027136
  4     -2.983957760958
  5     -0.488969835673
  6     -0.114466457875
  7     -0.074077044871
  8     -0.031330842436
  9      0.835146747080
  10    -0.953476372364
  11     1.451904629785
  12     0.354337594486
  13    -0.261119088879
  14     0.474760490690
  15     0.013428521631
  16    -0.029332852013
  17     0.015904330382
  18     0.406233954096
  19     0.008516159631
  20    -0.019948361923
  21     0.201829407969
  22    -0.475103736585
  23     0.273274328616
  24     2.374390291090
  25     0.151806226701
  26    -0.386274252218
  27    -0.050407406240
  28    -0.048183188702
  29    -0.100722182791
  30     0.233309246727
  31     0.039134897911
  32     0.042673989771
  33    -0.165680614573
  34     0.025509633275
  35     0.092458998766
  36    -0.093006513900
  37    -0.090493694232
  38    -0.818050543705
  39    -0.062377307719
  40    -0.023972650432
  41     0.031922956697
  42     0.161808694151
  43    -0.016825918841
  44     0.009489853936
  45    -0.529163009560
  46     3.369078953086
  47     0.617000603426
  48    -0.034467730124
  49    -0.046841841791
  50     0.030193196071
  51    -0.589021690322
  52    -1.861600198651
  53     0.503423268879
  54    -0.143182218646
  55    -0.575920890995
  56     0.091895071484
  57    -0.020590599994
  58     0.036078667940
  59    -0.015488067946
  60     0.012078133500
  61    -0.000858065724
  62    -0.014699929159
  63    -0.561424333429
  64     0.743667114534
  65    -0.182242781105
  66     0.673294701528
  67    -0.157195010665
  68    -0.414038690174
  69     0.104063737264
  70    -0.183387590983
  71    -0.039715540646
  72    -0.208445800674
  73     0.173677524928
  74    -0.034105706475
  75     0.068829646366
  76     0.072362746872
  77     0.087389695664
  78     0.059209546890
  79     0.247037015171
  80     1.695692518855
  81    -0.132293133683
  82    -0.119037149945
  83     0.152422374081
  84     0.299209013043
  85     0.024535085374
  86    -0.191334129728
  87     0.060081471255
  88    -0.022007437172
  89     0.044325405584
  90    -0.021096961041
  91    -0.049815912260
  92    -1.122116513180
  93    -0.047959496306
  94     0.144597216522
  95     0.227306027934
  96     0.043546348301
  97    -0.061947524075
  98    -0.173504771779
  99     0.103365033517
  100    0.009967509965
  101   -0.003312590516
  102   -0.058163149395
 Sym=     1a
 Ene= 1.31828650818597E+00
Spin= Alpha
 Occup= 0
  1     -0.006499417697
  2      0.004092992383
  3      0.283913287212
  4     -2.837067963649
  5     -0.406425562111
  6     -0.051130440049
  7      0.027059467372
  8     -0.817006877740
  9     -0.373490300889
  10    -2.092035280689
  11     4.310504792859
  12     2.661245368748
  13    -0.671958568734
  14    -6.986362571476
  15     0.008877906546
  16    -0.048986155903
  17     0.040108249357
  18     0.055081019404
  19    -0.010200778193
  20    -0.041194337370
  21     0.250336687087
  22    -0.838170654018
  23     0.587833966931
  24     0.557954311416
  25    -0.148275822516
  26    -0.075914355733
  27     0.135249178328
  28     0.002764301054
  29    -0.091484600782
  30     0.027145119548
  31     0.126183802348
  32    -0.122734497846
  33    -0.208600933533
  34    -0.129892501388
  35     0.245473969592
  36    -0.040969379835
  37    -0.481835931895
  38    -1.141753020453
  39     4.440349005354
  40    -0.233676241715
  41    -0.196270667856
  42     0.481309276188
  43    -0.003913706132
  44    -0.021807942544
  45    -0.190382597551
  46     2.948254054033
  47    -0.072143995927
  48     0.022175733344
  49     0.002815896303
  50    -0.090425010934
  51    -0.017900254100
  52    -2.387838258970
  53     0.862962202212
  54    -2.082970039188
  55     0.525892450611
  56     4.370809056708
  57    -0.017125013245
  58     0.043236242112
  59    -0.026111228867
  60    -0.015621045107
  61     0.001361044630
  62     0.010301799920
  63    -0.288278121911
  64     1.078619583651
  65    -0.790341461740
  66    -0.486897645011
  67     0.054983797049
  68     0.538550470327
  69     0.051189783067
  70    -0.128426388210
  71     0.082600469585
  72     0.049553125551
  73     0.073846534249
  74     0.006431495262
  75    -0.118231426367
  76     0.098455546236
  77    -0.117251654241
  78     0.025159472437
  79     0.359076036081
  80     0.644370289756
  81    -3.928791925956
  82    -0.218272061036
  83     0.197682143979
  84     0.272355125049
  85     0.060618081467
  86    -1.097080235498
  87    -2.083853462828
  88    -0.063879383498
  89     0.004774200180
  90     0.104151828337
  91    -0.070940529149
  92    -0.100183293149
  93     0.295931465349
  94     0.059218550199
  95     0.075585243484
  96     0.003063953433
  97     0.017078393846
  98     1.457132730776
  99     1.824050561480
  100   -0.079226366806
  101   -0.028828237143
  102    0.164568058304
 Sym=     1a
 Ene= 1.36254320552399E+00
Spin= Alpha
 Occup= 0
  1     -0.006721104722
  2      0.023945320482
  3      0.255123451243
  4     -3.470311264145
  5     -0.334346090486
  6      0.033241942718
  7      0.002764559445
  8     -0.084658067363
  9     -0.067890470543
  10    -2.715963773107
  11     0.877607340547
  12    -2.106645315881
  13     0.386087290911
  14     4.374854782324
  15     0.023008348944
  16    -0.047569013261
  17     0.024560664317
  18     0.015922605169
  19     0.009163758119
  20    -0.009898020408
  21     0.326964915341
  22    -1.180627764425
  23     0.853662849084
  24     0.433083043708
  25    -0.103569606082
  26    -0.544011178700
  27     0.054169513485
  28    -0.137749067677
  29     0.086482251787
  30     0.046579207073
  31     0.079420712820
  32    -0.001270094602
  33    -0.119255235749
  34     0.105389054678
  35    -0.114758021704
  36     0.034845692450
  37    -0.037043184720
  38    -1.406981160505
  39    -1.838110131604
  40    -0.082221907581
  41    -0.027735986406
  42     0.162242986645
  43    -0.013315568034
  44     0.013586024393
  45    -0.456292909229
  46     3.519129279026
  47     0.166000422933
  48    -0.084017845341
  49     0.071509303021
  50    -0.839952272310
  51    -0.087659910393
  52    -2.668628449602
  53     4.532339839447
  54     2.630320095792
  55    -0.690632569005
  56    -6.998411566416
  57     0.001303986073
  58     0.048845182458
  59    -0.050149168531
  60    -0.055369355427
  61     0.011884600498
  62     0.037673019420
  63    -0.166825277797
  64     0.920703477670
  65    -0.753878199873
  66    -0.642763561394
  67     0.405163828202
  68    -0.019701506555
  69     0.151087316806
  70     0.060466367609
  71    -0.115689391232
  72    -0.007382269735
  73     0.070386022485
  74    -0.057768960481
  75    -0.195322636815
  76    -0.151510167481
  77     0.212982566323
  78    -0.091850445339
  79    -0.080568444448
  80     1.146787540715
  81     2.068931695711
  82    -0.058939661936
  83     0.007989008514
  84     0.107004752629
  85    -0.342694854660
  86    -0.441549946484
  87     3.895955483435
  88    -0.210658034901
  89     0.167843328486
  90     0.258891955591
  91    -0.141632636673
  92    -0.205505136217
  93     0.455818497905
  94     0.171638122830
  95    -0.174555364410
  96     0.093171602341
  97     0.498081536063
  98     1.345154108203
  99    -4.471567484410
  100   -0.220182517591
  101   -0.216011075186
  102    0.511915967730
 Sym=     1a
 Ene= 1.37501522699780E+00
Spin= Alpha
 Occup= 0
  1      0.004365522867
  2     -0.007017893186
  3      0.477341462463
  4     -3.526162401454
  5     -0.626326095207
  6     -0.031632215970
  7      0.001166271456
  8     -0.051262327763
  9      1.449119444833
  10    -2.552309141459
  11    -0.539209118185
  12     0.472796706504
  13    -0.747428014274
  14    -0.121984092662
  15     0.030345989277
  16    -0.020233389816
  17    -0.010112599461
  18    -0.020044471509
  19    -0.007958008384
  20     0.441553580145
  21     0.615200960987
  22    -0.435529416585
  23    -0.179671544402
  24    -0.385262259914
  25    -0.223394964492
  26     3.031335792290
  27    -0.191004526074
  28    -0.041069006515
  29    -0.126563193381
  30     0.089029155803
  31     0.054088597936
  32     0.005871725568
  33     0.167230306784
  34     0.001011256266
  35     0.163930616742
  36     0.016334161138
  37     0.296212387897
  38     2.092051880702
  39    -0.172419969473
  40     0.199663654341
  41    -0.000193738677
  42    -0.406517722272
  43     0.000951769419
  44    -0.026998714842
  45    -0.391250106720
  46     4.165593361517
  47     0.642804907582
  48     0.040598483446
  49    -0.125124121890
  50    -0.040531879931
  51     0.511996549052
  52    -2.561158491579
  53    -0.444245346726
  54     0.075196443785
  55    -0.662197441681
  56    -0.044448757334
  57    -0.021439670686
  58     0.047796370828
  59    -0.026356700142
  60    -0.015511894827
  61    -0.002380718051
  62     0.005287491219
  63    -0.303504918003
  64     1.093779188475
  65    -0.790274270472
  66    -0.415440384471
  67    -0.075354070903
  68     0.659599895217
  69    -0.005645330891
  70    -0.215271124564
  71     0.079254319584
  72     0.071152282947
  73     0.072551139111
  74     0.041876774465
  75    -0.063578276771
  76     0.216265381759
  77    -0.148207602125
  78     0.020612634053
  79    -0.311698498929
  80    -2.433127300172
  81    -0.045611548324
  82     0.265967724605
  83    -0.168257359502
  84    -0.334658579990
  85    -0.096570979537
  86    -0.033093867654
  87     0.143324263584
  88    -0.033291558305
  89    -0.018343613195
  90     0.068048506536
  91     0.005200233971
  92    -0.408687110988
  93    -0.036416528423
  94     0.053332522771
  95     0.067123921197
  96     0.014754860790
  97     0.057929946753
  98    -0.057819564683
  99     0.066243457067
  100   -0.033427193851
  101    0.050484923902
  102    0.014921878373
 Sym=     1a
 Ene= 1.37903330872152E+00
Spin= Alpha
 Occup= 0
  1      0.010273067750
  2     -0.040889118240
  3     -0.298701468923
  4      4.222141134144
  5      0.620851560745
  6     -0.052050320680
  7      0.145777801039
  8      0.028863973945
  9     -0.458694315068
  10     2.688102047853
  11     0.470609476957
  12    -0.054092130607
  13     0.660786135028
  14     0.064389705499
  15    -0.023718503617
  16     0.049662629029
  17    -0.025944125412
  18    -0.015855480588
  19    -0.006951463505
  20     0.004942707918
  21    -0.352410806850
  22     1.144012554629
  23    -0.791601747779
  24    -0.401631653685
  25    -0.094345587971
  26     0.662858145354
  27     0.001958976108
  28     0.214083993719
  29    -0.087398815030
  30    -0.066260493763
  31    -0.071594827639
  32    -0.034345012627
  33     0.063632251516
  34    -0.215628990071
  35     0.151602827563
  36    -0.024631753733
  37     0.051793235133
  38    -0.012447647171
  39     0.074525984745
  40     0.032355025938
  41    -0.047707451927
  42    -0.019445101155
  43     0.019592880320
  44    -0.029296909096
  45     0.701485963293
  46    -4.090174350797
  47    -0.747217676065
  48     0.042487018821
  49    -0.043603651147
  50     0.062606028950
  51    -1.508883127246
  52     2.848337411013
  53     0.446470477112
  54    -0.473711671592
  55     0.854059272139
  56     0.101743425518
  57     0.030483093098
  58    -0.020514327999
  59    -0.009968765099
  60    -0.019774515313
  61    -0.012371972056
  62     0.440709937297
  63     0.565646895727
  64    -0.474626781109
  65    -0.091020114618
  66    -0.382079985132
  67    -0.392548825550
  68     3.043833125853
  69     0.176500060721
  70     0.022010898058
  71     0.138910033218
  72    -0.069096915205
  73    -0.018833692014
  74    -0.026833219870
  75    -0.167702765079
  76    -0.010697026569
  77    -0.159534146350
  78     0.003379022142
  79    -0.103895339305
  80     0.031063098813
  81     0.153255573684
  82     0.031695145692
  83     0.024688222521
  84    -0.065044474101
  85    -0.328078418770
  86    -2.404179028932
  87    -0.046172878171
  88    -0.272232263819
  89     0.165351231571
  90     0.324761095700
  91     0.056450823566
  92     0.273650624824
  93    -0.024427915916
  94    -0.062315125703
  95     0.083104269186
  96    -0.062731712646
  97     0.273619967140
  98     2.080306172894
  99    -0.169543754426
  100   -0.192880944714
  101    0.005250598903
  102    0.407925570186
 Sym=     1a
 Ene= 1.71072549395137E+00
Spin= Alpha
 Occup= 0
  1      0.003694912123
  2     -0.109312749537
  3     -1.055469223952
  4      15.303973930353
  5      0.519960729528
  6     -0.014576163355
  7     -0.086043384053
  8     -0.009673681187
  9     -1.833054315995
  10     12.253891800204
  11    -2.418378316745
  12    -0.187647520322
  13     0.645968114056
  14     0.516473616150
  15    -0.100963786127
  16     0.180133175679
  17    -0.079169389552
  18    -0.049195839704
  19    -0.002008563960
  20    -0.067686687470
  21    -1.807950462834
  22     4.174288694343
  23    -2.366338231509
  24    -0.891094961424
  25     0.809366615294
  26    -1.621752957881
  27     0.117392770382
  28     0.246246361025
  29     0.059720302222
  30    -0.204841761466
  31    -0.253425108039
  32     0.107585810813
  33     0.047342832681
  34    -0.076949053439
  35    -0.187709004056
  36    -0.078260949131
  37     0.232805460820
  38     0.603898546416
  39    -0.834515681166
  40     0.027752943313
  41     0.109069966993
  42    -0.131576028286
  43     0.011072258714
  44    -0.017836721971
  45     1.735561845580
  46    -15.132726017866
  47    -1.440159298740
  48     0.075576280344
  49    -1.074366319586
  50     0.075637960332
  51    -2.425935117206
  52     14.616866905134
  53    -2.566978216154
  54     0.376505352559
  55    -1.796350925892
  56    -0.640822791767
  57     0.081055838327
  58    -0.197685203387
  59     0.116629365060
  60     0.038388626140
  61    -0.048130308960
  62     0.080073379894
  63     1.526998210080
  64    -4.042937684926
  65     2.515939474846
  66     1.029927211449
  67    -1.175486988562
  68     1.662639034861
  69     0.157213861276
  70     0.318681003036
  71     0.100436327001
  72    -0.291957252073
  73    -0.353556441793
  74     0.046919536833
  75     0.081032723582
  76    -0.073998989763
  77    -0.181669009583
  78    -0.166414254436
  79     0.227103828862
  80     0.925200023008
  81    -0.342024505211
  82    -0.097286000145
  83     0.145457700543
  84     0.105421335073
  85    -0.383538231846
  86    -1.739737796250
  87     1.826310717303
  88    -0.280871689798
  89     0.313067006343
  90     0.323402733261
  91     0.113981761196
  92     0.162964960483
  93    -0.189875930747
  94    -0.159303355162
  95     0.249000098169
  96    -0.116702627502
  97    -0.277959784350
  98    -1.517417851450
  99     0.775500149042
  100    0.092378844608
  101    0.174762752355
  102   -0.359493765571
 Sym=     1a
 Ene= 1.82305157387136E+00
Spin= Alpha
 Occup= 0
  1     -0.021607974650
  2      0.027242289028
  3     -1.827045001237
  4      15.496647605373
  5      1.313667330435
  6     -0.039131314059
  7     -1.132132067555
  8      0.022900914353
  9     -1.580356447817
  10     15.183355331615
  11    -2.194947732567
  12     0.215124503818
  13    -1.831960608615
  14    -0.722401230331
  15    -0.081397062785
  16     0.203002052904
  17    -0.121604990119
  18    -0.027415826823
  19     0.047750725701
  20    -0.076000482200
  21    -1.653020488696
  22     4.373819234747
  23    -2.720798746051
  24    -0.464829730169
  25     1.126461607594
  26    -1.437609175666
  27     0.112149887584
  28     0.345005299708
  29    -0.048901212768
  30    -0.174472670821
  31    -0.321714542964
  32     0.203391236663
  33     0.024007807436
  34    -0.141158638682
  35    -0.137783375104
  36    -0.154930833273
  37     0.286481878903
  38     1.624734481091
  39    -0.791281705594
  40     0.124278846887
  41     0.195197741483
  42    -0.356549145104
  43    -0.009387432049
  44     0.110495818022
  45     1.090296106876
  46    -15.584364011999
  47    -0.734941767862
  48     0.037211471214
  49    -0.071158470064
  50     0.015552143866
  51    -2.334305852746
  52     12.293435002246
  53    -2.685556336242
  54    -0.418195632805
  55     0.657373798778
  56     0.395296564070
  57     0.099982385505
  58    -0.174537713319
  59     0.074555327814
  60     0.066531836483
  61     0.001884726417
  62     0.075481007305
  63     1.732868698732
  64    -4.081148903669
  65     2.348280204937
  66     1.177119670365
  67    -0.923859600358
  68     1.764338616803
  69     0.138849087509
  70     0.224372260406
  71     0.088442262940
  72    -0.246708657825
  73    -0.242686891067
  74     0.085183342637
  75     0.060423058855
  76    -0.058340084853
  77    -0.203841089847
  78    -0.067303667066
  79     0.392294798751
  80     1.847525276390
  81    -1.844048079591
  82    -0.254910413467
  83     0.336732412149
  84     0.345303046015
  85    -0.237689589777
  86    -0.898968359813
  87     0.333663920860
  88    -0.091557366462
  89     0.145924416171
  90     0.108057252159
  91    -0.226120828830
  92    -0.323874000989
  93     0.587284273668
  94     0.152278792051
  95     0.477985255754
  96     0.017769678468
  97    -0.243439701822
  98    -0.577659766159
  99     0.826863659133
  100    0.034396300284
  101    0.110022001644
  102   -0.127806449180
 Sym=     1a
 Ene= 1.95398067258152E+00
Spin= Alpha
 Occup= 0
  1     -0.027116817456
  2      0.027272547148
  3     -0.246741765679
  4      0.039300248239
  5      0.097480515308
  6     -0.027456684029
  7     -0.062709165699
  8      0.052688478720
  9      0.345042062998
  10     0.048442390883
  11    -0.131925873288
  12     0.130840657003
  13     0.034047033839
  14    -0.098775694720
  15     0.005205303461
  16    -0.004898645634
  17    -0.000306657827
  18     0.002711990870
  19     0.010388481023
  20     0.010355590139
  21     0.242813082926
  22     0.040761841860
  23    -0.283574924786
  24     0.200061226917
  25    -0.030524516416
  26    -0.031577201801
  27     0.043106044064
  28    -0.011892982642
  29    -0.011754270664
  30     0.061752361594
  31     0.102872128886
  32     0.013661707146
  33    -0.119585188454
  34    -0.086916018300
  35     0.002108301792
  36     0.003930272017
  37    -0.041144582273
  38     0.223576670598
  39     0.001715353127
  40     0.048262427340
  41     0.050319128015
  42     0.018942118743
  43    -0.040134413421
  44     0.041868985749
  45    -0.499484899226
  46     1.174349141600
  47     0.301104193626
  48    -0.089418248874
  49     0.084165188983
  50     0.002019682000
  51     0.928986340689
  52    -0.592710407865
  53     0.252725180594
  54     0.278915304550
  55    -0.193886499671
  56     0.006198663798
  57     0.005267829192
  58    -0.009587904636
  59     0.004320075444
  60    -0.001117475201
  61     0.014192935865
  62    -0.006119588506
  63     0.492327528098
  64    -0.078569488405
  65    -0.413758039693
  66    -0.335590153121
  67     0.370089004358
  68    -0.265055063888
  69     0.123293598316
  70     0.086759524985
  71    -0.114757643895
  72    -0.054908092864
  73    -0.111495955253
  74     0.164183386171
  75    -0.110507627351
  76    -0.004904162085
  77    -0.010219850558
  78    -0.093141960640
  79     0.064146831622
  80    -0.237641622508
  81    -0.079945834343
  82    -0.033902076317
  83    -0.052477189349
  84    -0.035853748400
  85    -0.014278539258
  86     0.311820308302
  87     0.015011784588
  88     0.063707178077
  89    -0.033628330441
  90     0.029086096716
  91     0.031585069423
  92    -1.763606195970
  93    -0.146689965468
  94     0.398411946634
  95    -0.004779236027
  96     1.465111781169
  97     0.091172963335
  98    -0.150971733248
  99    -0.067172520106
  100   -0.048760040549
  101    0.012301208327
  102   -0.043373838646
 Sym=     1a
 Ene= 1.96810976054376E+00
Spin= Alpha
 Occup= 0
  1     -0.000598911589
  2      0.001489571792
  3      0.025610951468
  4     -0.224138448665
  5     -0.073449765046
  6     -0.002686908652
  7     -0.013738895037
  8     -0.006836559703
  9     -0.019970826161
  10    -0.086101371384
  11    -0.094471368763
  12    -0.026114386230
  13    -0.079369201804
  14     0.053129459726
  15     0.000212480185
  16    -0.004922215722
  17     0.004709735537
  18    -0.002014184115
  19     0.002581592712
  20     0.004457652442
  21     0.078730325533
  22    -0.102280893202
  23     0.023550567669
  24     0.070615267463
  25    -0.022396829045
  26    -0.212628486483
  27     0.000979037263
  28    -0.023895278973
  29    -0.004723961230
  30    -0.009111418341
  31     0.006427056537
  32    -0.008266272073
  33     0.007797902017
  34     0.025631824338
  35     0.014604131133
  36    -0.013695441947
  37    -0.000570036843
  38    -0.055089023455
  39    -0.022871552121
  40     0.007560772430
  41     0.022490245352
  42     0.019454229781
  43    -0.008794110460
  44    -0.043713098427
  45     0.008311338852
  46     1.021499999284
  47     0.079331871617
  48     0.063850097119
  49     0.038085037824
  50    -0.093203637981
  51    -0.012199477987
  52     0.294586799863
  53    -0.869784855530
  54    -0.043747317648
  55     0.016668988269
  56    -0.124150748441
  57    -0.018413961669
  58    -0.007748341792
  59     0.026162303461
  60     0.005091644145
  61    -0.017772297018
  62    -0.024615389683
  63    -0.565129717711
  64    -0.092905249360
  65     0.658034967071
  66     0.029657091435
  67     0.220231863791
  68    -0.697282952112
  69    -0.009346945584
  70    -0.062715702851
  71    -0.197503552451
  72     0.042485240258
  73    -0.123256565059
  74     0.257191793849
  75    -0.029944996833
  76     0.207398509957
  77     0.007787027598
  78     0.053237193910
  79     0.011176541565
  80     0.169429515198
  81    -0.035424014210
  82    -0.038905381632
  83    -0.005167607015
  84     0.029579059403
  85     0.057074312426
  86     0.219261600790
  87    -0.044562536756
  88    -0.020868922734
  89     0.001342418009
  90    -0.041405991635
  91    -0.051969113093
  92     0.181771439197
  93     0.044197129322
  94     0.035595803268
  95     0.003287857076
  96    -0.046036951990
  97    -0.079154241771
  98    -1.527603051025
  99     0.057666103843
  100    1.491782936156
  101    0.096694624406
  102   -0.277522761372
 Sym=     1a
 Ene= 1.96873991761692E+00
Spin= Alpha
 Occup= 0
  1      0.012257642493
  2      0.034013233413
  3      0.071733884167
  4     -1.198444873918
  5     -0.150921348932
  6      0.057442326704
  7      0.045824062134
  8     -0.095825807471
  9      0.038650217020
  10     0.316415867012
  11    -0.913707798250
  12    -0.026912435405
  13    -0.015585036498
  14    -0.128607559727
  15     0.019087490885
  16     0.007285310599
  17    -0.026372801484
  18    -0.007335291568
  19     0.019474449989
  20     0.026384226081
  21     0.550676975048
  22     0.116394542899
  23    -0.667071517947
  24    -0.041600089844
  25    -0.201672973373
  26     0.711960774559
  27    -0.010882638675
  28    -0.071575453487
  29    -0.198504430697
  30     0.044509508921
  31    -0.116315877235
  32     0.258561579096
  33    -0.029908917010
  34     0.212344424945
  35     0.007760061428
  36     0.041300987894
  37     0.070007634832
  38     1.653516641680
  39    -0.062354070782
  40     1.499505404487
  41     0.113158564028
  42    -0.291765089506
  43     0.002781396964
  44    -0.011755039868
  45     0.041489107996
  46     0.109684281820
  47     0.019901483207
  48    -0.008090495296
  49    -0.023154618243
  50    -0.001928808703
  51    -0.006028039888
  52    -0.063404793081
  53    -0.131767785615
  54    -0.020063336599
  55    -0.054681752104
  56     0.035246058886
  57    -0.000656613527
  58     0.004955222579
  59    -0.004298609052
  60     0.004057164182
  61    -0.002521373834
  62    -0.004925608065
  63    -0.097536608770
  64     0.108781507560
  65    -0.011244898790
  66    -0.088148422839
  67    -0.009720604508
  68     0.212371624122
  69     0.015136087756
  70    -0.022904955293
  71    -0.003077721687
  72    -0.014744378375
  73     0.007472199920
  74    -0.008151852819
  75    -0.005562814307
  76     0.023258022314
  77     0.012281049763
  78    -0.019871783381
  79    -0.052268360408
  80    -0.197771371486
  81     0.034711066323
  82    -0.022277248838
  83     0.005789475736
  84    -0.041923984096
  85    -0.024931563295
  86    -0.119424367462
  87     0.037321740831
  88    -0.037387831905
  89    -0.013588836255
  90     0.029533613670
  91    -0.062849749167
  92     0.138795400027
  93     0.063268434751
  94    -0.030457448958
  95     0.006502453685
  96     0.045571083358
  97     0.000051776018
  98     0.047931527712
  99     0.015739852865
  100    0.007561428586
  101    0.026329178781
  102    0.014899176532
 Sym=     1a
 Ene= 2.03329910414881E+00
Spin= Alpha
 Occup= 0
  1     -0.015894539525
  2     -0.059807627471
  3     -0.059985989113
  4      1.814659481933
  5      0.193935916896
  6      0.093134734461
  7     -0.067365621757
  8     -0.090428198870
  9      0.403334520484
  10    -0.834436986236
  11    -1.158952091579
  12     0.056609514202
  13    -0.076250043483
  14    -0.275466384012
  15    -0.018180378554
  16     0.008704082751
  17     0.009476295803
  18    -0.029620503941
  19    -0.033637752732
  20     0.040443385318
  21    -0.579271883891
  22     0.221185970624
  23     0.358085913267
  24    -0.278903234198
  25    -0.268260329689
  26     0.894175387677
  27    -0.146632451866
  28     0.065308134875
  29    -0.002914422719
  30     0.087820027050
  31     0.145057473096
  32     0.190991640307
  33     0.108908050999
  34    -0.232677530535
  35    -0.187081531918
  36     0.097392671640
  37     0.005158256692
  38     0.149743958181
  39     0.018487005492
  40    -0.022303743730
  41    -0.050451870333
  42    -0.013065842709
  43     0.009984363874
  44    -0.018731934134
  45     0.193271665630
  46    -0.484909286578
  47    -0.193533998235
  48     0.011319352535
  49    -0.018392007840
  50    -0.031378390386
  51    -0.119575508662
  52     0.086347785076
  53     0.032706529665
  54    -0.113209654870
  55     0.174019236387
  56     0.105906562943
  57    -0.000723545782
  58    -0.005139254294
  59     0.005862800076
  60     0.001829008302
  61     0.000860492003
  62     0.005499675852
  63     0.159366328310
  64    -0.022124663677
  65    -0.137241664633
  66     0.048998171149
  67     0.018332717929
  68     0.099455828912
  69     0.018162248678
  70     0.036190250566
  71     0.017829461305
  72    -0.028242091219
  73    -0.014015384409
  74    -0.017313708295
  75     0.003874877617
  76    -0.034538931824
  77    -0.006607024193
  78     0.012694404998
  79    -0.099488767174
  80    -2.395903793188
  81     0.048867614558
  82     1.607650290976
  83    -0.286208002022
  84    -0.318196203218
  85     0.017035503892
  86    -0.002317764031
  87    -0.062795497569
  88     0.019789213039
  89    -0.013110377762
  90     0.015314512010
  91    -0.032051954041
  92     0.182981387850
  93     0.030520478422
  94     0.030462757327
  95    -0.016864387675
  96    -0.032049606374
  97     0.015198867629
  98     0.298550165704
  99    -0.030263031608
  100   -0.038955033171
  101   -0.028216571620
  102    0.038347186085
 Sym=     1a
 Ene= 2.04623163665079E+00
Spin= Alpha
 Occup= 0
  1     -0.007817204869
  2      0.008501027693
  3     -0.126365076181
  4      0.370252562518
  5      0.139986043775
  6      0.001964691204
  7     -0.010201154898
  8     -0.030732757425
  9     -0.109628147352
  10     0.052627150639
  11     0.000081760428
  12    -0.106224574380
  13     0.145422696815
  14     0.094988609102
  15     0.001493990399
  16     0.003944752663
  17    -0.005438743062
  18    -0.004918403786
  19     0.000391934772
  20    -0.005188026969
  21    -0.173947369634
  22     0.027506346598
  23     0.146441023036
  24    -0.057423263122
  25    -0.056349745392
  26    -0.110581707768
  27     0.030817995119
  28     0.032392489401
  29     0.016873257901
  30    -0.029229891297
  31    -0.005383909902
  32    -0.016214090953
  33    -0.012116787913
  34    -0.038075175054
  35    -0.006423760048
  36     0.012597532458
  37    -0.028990248609
  38    -0.248548243397
  39     0.032191328182
  40    -0.037427713616
  41    -0.019721815424
  42     0.036233597599
  43     0.019338390204
  44     0.050195207217
  45     0.139610874820
  46    -1.991368228649
  47    -0.265244935861
  48     0.084367987251
  49    -0.078291864260
  50    -0.092020144625
  51     0.492661766122
  52    -0.848784502598
  53    -1.178685304295
  54     0.060930759080
  55    -0.045776068427
  56    -0.294106101687
  57     0.016572564599
  58    -0.008189304577
  59    -0.008383260022
  60     0.033699775766
  61     0.034826606175
  62    -0.040805968954
  63     0.563445534827
  64    -0.214095543933
  65    -0.349349990894
  66     0.267839638487
  67     0.296737895493
  68    -0.921821287335
  69    -0.143161453206
  70     0.075438436408
  71    -0.003488112731
  72     0.091040015553
  73     0.135646360172
  74     0.193323188447
  75     0.101031229123
  76    -0.236857643327
  77    -0.188643394139
  78     0.108736067690
  79    -0.017557889410
  80    -0.005016370639
  81     0.055598212790
  82     0.019786789326
  83    -0.018630839403
  84     0.011918017565
  85     0.090494025948
  86     2.522931486891
  87    -0.053703141759
  88     1.626417558926
  89    -0.302556458721
  90    -0.322807816373
  91    -0.083035821694
  92     0.136168756590
  93     0.077045699478
  94    -0.031491877582
  95    -0.002454769110
  96     0.060218727909
  97    -0.000352359824
  98    -0.128022776877
  99    -0.028277259598
  100   -0.020892996701
  101   -0.054586270631
  102   -0.011012044955
 Sym=     1a
 Ene= 2.18842347170285E+00
Spin= Alpha
 Occup= 0
  1      0.033086915721
  2     -0.064802287470
  3      0.523459413071
  4     -0.770889444865
  5     -0.362470721188
  6      0.026633867234
  7      0.068039233133
  8     -0.093613396825
  9     -0.246083761838
  10    -0.028810508666
  11     0.521881551070
  12    -0.113770749866
  13    -0.185937681140
  14     0.350925288999
  15    -0.003156217924
  16    -0.005734203568
  17     0.008890421492
  18     0.008648130868
  19    -0.001513860963
  20    -0.010821869640
  21     0.266413800329
  22     0.020027807886
  23    -0.286441608215
  24    -0.107480862883
  25     0.208271828370
  26     0.364192398276
  27     0.008447424065
  28    -0.029256813798
  29    -0.018661895890
  30     0.004180105779
  31     0.048935376971
  32    -0.036149719630
  33    -0.015513514446
  34    -0.009683242297
  35     0.061187280309
  36     0.001592082524
  37     0.053774493524
  38     0.172533149818
  39    -0.117492515105
  40     0.026326894020
  41    -0.002182699334
  42    -0.035200551585
  43    -0.018625618324
  44    -0.041264000152
  45    -0.189252045370
  46     2.130160624190
  47     0.312259985720
  48     0.027640630172
  49     0.030677255576
  50    -0.039682206983
  51     0.540976628467
  52     0.200090181244
  53    -1.506755704308
  54     0.251225550789
  55    -0.129564498270
  56    -0.482620630940
  57    -0.025533125374
  58    -0.007708405952
  59     0.033241531326
  60     0.007536243522
  61    -0.026649331194
  62    -0.036490792363
  63    -0.240421952426
  64    -0.596409266944
  65     0.836831219370
  66    -0.218994084549
  67    -0.758153583606
  68     0.410469059946
  69    -0.093299497662
  70    -0.073068073211
  71    -0.203682931681
  72    -0.070083062169
  73     0.008465023499
  74     0.050824424128
  75     0.195257473592
  76     0.089566083712
  77     0.222444904529
  78    -0.026193164107
  79     0.006287636097
  80     0.365925769599
  81     0.024677831585
  82    -0.028180607174
  83     0.102265309796
  84    -0.021091290096
  85    -0.170981347250
  86    -0.259602620684
  87     0.201015202469
  88    -0.054523373569
  89     0.088979830411
  90     0.036372254017
  91     0.045044722706
  92     0.041592416022
  93    -0.025740313368
  94    -0.024136798034
  95     0.022546315000
  96     0.011614226133
  97    -0.045260472931
  98    -2.252862175014
  99    -0.041903690272
  100    0.096694624406
  101    1.647020706943
  102   -0.357207972803
 Sym=     1a
 Ene= 2.19787476209014E+00
Spin= Alpha
 Occup= 0
  1      0.019532123866
  2      0.038701545925
  3      0.210300472055
  4     -2.176749140244
  5     -0.331071157044
  6      0.012406168712
  7      0.029167323967
  8     -0.046943429249
  9      0.634581393690
  10     0.225754969613
  11    -1.478211816689
  12     0.245435492307
  13    -0.140894702085
  14    -0.488708886014
  15     0.025157578658
  16     0.006393871593
  17    -0.031551450251
  18    -0.010815189375
  19     0.028929975838
  20     0.036193885182
  21     0.221495999284
  22     0.628247875465
  23    -0.849743874749
  24     0.272128151675
  25     0.745745044288
  26    -0.382066334529
  27    -0.095733147232
  28    -0.072979122763
  29    -0.213161208588
  30    -0.064743714340
  31     0.013307681420
  32     0.063712076701
  33     0.193183209287
  34     0.084604086242
  35     0.222273694840
  36    -0.030927474522
  37     0.042836058039
  38     2.284791438434
  39     0.040663545449
  40     0.113158564028
  41     1.654954154182
  42    -0.353695648869
  43    -0.032519338324
  44     0.062133911703
  45    -0.506139365612
  46     0.742173209551
  47     0.348777626481
  48     0.023930514837
  49     0.065259609701
  50    -0.092965029215
  51    -0.281739713690
  52    -0.033756555026
  53     0.493193587451
  54    -0.135952932311
  55    -0.185874865847
  56     0.334568678582
  57     0.001454663454
  58     0.007408880853
  59    -0.008863544307
  60    -0.004649523830
  61     0.000974387613
  62     0.012475124715
  63    -0.254545257665
  64    -0.016031668959
  65     0.270576926624
  66     0.110351641841
  67    -0.234150806216
  68    -0.368053237266
  69     0.016040949476
  70    -0.029725711982
  71    -0.028040961556
  72     0.001105839954
  73     0.048435944491
  74    -0.024526927788
  75    -0.022627032025
  76    -0.008554716888
  77     0.062147825504
  78     0.006083339410
  79     0.172265447215
  80     0.265499700923
  81    -0.203684501787
  82    -0.050391937935
  83     0.091270259139
  84     0.038491069893
  85    -0.009847209676
  86    -0.352750928087
  87    -0.024176576275
  88    -0.019700800522
  89     0.102181177752
  90    -0.017158541542
  91    -0.074848773385
  92     0.041643893602
  93     0.053653535034
  94    -0.016550877006
  95     0.029870273263
  96     0.047513092558
  97    -0.053906805593
  98    -0.174493244032
  99     0.115671249667
  100    0.022492197152
  101   -0.002182888757
  102   -0.038267630183
 Sym=     1a
 Ene= 2.21499969758278E+00
Spin= Alpha
 Occup= 0
  1      0.000373350034
  2      0.004264894643
  3      0.050259133147
  4     -0.425204241230
  5     -0.137660688853
  6     -0.004733081458
  7     -0.018956958467
  8      0.018382530320
  9     -0.077262945863
  10    -0.099730914587
  11     0.123457302836
  12     0.070965092946
  13    -0.174775400995
  14    -0.075243679285
  15     0.005416782828
  16    -0.010370078236
  17     0.004953295408
  18     0.005071901853
  19    -0.002351794277
  20    -0.001527982789
  21     0.103381293709
  22    -0.018156878595
  23    -0.085224415114
  24    -0.158098614888
  25     0.083924919816
  26     0.353779763735
  27    -0.014463441501
  28    -0.047809800267
  29    -0.011391586224
  30     0.008505631544
  31     0.009829119765
  32     0.004327628759
  33     0.010899111487
  34     0.054314458267
  35     0.010955787942
  36    -0.030282573022
  37     0.032113086675
  38     0.325704099640
  39    -0.067565891853
  40     0.029565117263
  41    -0.017176844609
  42    -0.076938881123
  43    -0.021390851733
  44    -0.081262742947
  45    -0.061983975712
  46     2.313376422322
  47     0.236697596870
  48    -0.097727033910
  49     0.122325215699
  50     0.172443547851
  51    -1.042313162306
  52     1.053015466766
  53     1.140443631358
  54    -0.157564552652
  55     0.074703060522
  56     0.173174015015
  57    -0.017230884639
  58     0.008179960897
  59     0.009050923742
  60    -0.045888281220
  61    -0.048668249122
  62     0.051390945687
  63     0.025064394603
  64     0.420428018610
  65    -0.445492413213
  66    -1.016829509926
  67    -0.591808243914
  68     1.071129603458
  69     0.151416993520
  70    -0.080960659190
  71    -0.201496860205
  72    -0.155645163925
  73     0.112055821960
  74     0.082073305981
  75    -0.047502050350
  76    -0.003435699488
  77     0.188263100022
  78    -0.274617058365
  79     0.004358497128
  80    -0.085001168890
  81    -0.050550746525
  82     0.015312636342
  83     0.034386560219
  84    -0.024067917783
  85    -0.150809642476
  86    -3.263814505619
  87     0.111008052745
  88    -0.322807816373
  89     0.354515770146
  90     1.840863645228
  91    -0.011962296640
  92     0.120016897033
  93     0.004069109429
  94     0.001988142665
  95     0.018232169969
  96     0.027493412782
  97     0.090307572036
  98     0.383099239252
  99    -0.059661031269
  100   -0.041453756751
  101    0.036414212314
  102    0.024428526406
 Sym=     1a
 Ene= 2.21753114142281E+00
Spin= Alpha
 Occup= 0
  1      0.023068180527
  2      0.076570362070
  3      0.100899012510
  4     -2.400513468393
  5     -0.271772320950
  6     -0.107917267188
  7      0.124021315199
  8      0.166192697075
  9     -0.996868373588
  10     1.083134929745
  11     1.193947722652
  12    -0.150004639301
  13     0.062163666409
  14     0.187148930366
  15     0.019824139192
  16    -0.010102446083
  17    -0.009721693109
  18     0.043548982725
  19     0.048790113936
  20    -0.054294194432
  21    -0.005100425079
  22    -0.412346856120
  23     0.417447281199
  24     1.026454918502
  25     0.575216956937
  26    -1.089252546623
  27     0.153050183880
  28    -0.081854969007
  29    -0.210098600088
  30    -0.154388937968
  31     0.101430949961
  32     0.083087989431
  33    -0.050949431106
  34     0.008389015037
  35     0.198788861634
  36    -0.270314591540
  37    -0.087921297653
  38    -0.372528401326
  39     0.054810728316
  40    -0.041973845344
  41     0.038536848290
  42     0.023539898981
  43     0.000693230945
  44    -0.009292852178
  45    -0.017436905574
  46     0.369382809069
  47     0.111539655213
  48    -0.011006906567
  49    -0.025802229740
  50     0.012709983488
  51    -0.088963545460
  52    -0.085172717286
  53     0.136129807793
  54     0.068623093492
  55    -0.160551957241
  56    -0.069388411949
  57    -0.005518433615
  58     0.011617740384
  59    -0.006099306769
  60    -0.002589183862
  61     0.001234607710
  62     0.003257101596
  63    -0.121095825067
  64     0.019395495783
  65     0.101700329284
  66     0.149000758236
  67    -0.091367122980
  68    -0.357317062135
  69    -0.016735898452
  70    -0.049180789721
  71    -0.014231652851
  72     0.004150688918
  73     0.008711914409
  74     0.009932724560
  75     0.018302875044
  76     0.057271038993
  77     0.009161041364
  78    -0.026371055453
  79     0.146416191396
  80     3.326372632378
  81    -0.113407977809
  82    -0.318196203218
  83     0.366106063843
  84     1.849912048134
  85    -0.004613993067
  86     0.081433199131
  87     0.047020098163
  88     0.011919477421
  89     0.036207313404
  90    -0.024070865899
  91    -0.044498170408
  92     0.036562604520
  93     0.048698788523
  94    -0.000416819116
  95     0.002665530717
  96    -0.033894635612
  97    -0.038897541036
  98    -0.301255236128
  99     0.068519477724
  100    0.029616808572
  101   -0.021118207067
  102   -0.075526700590
 Sym=     1a
 Ene= 2.28362328224891E+00
Spin= Alpha
 Occup= 0
  1     -0.049009310271
  2      0.053389346205
  3     -0.803588068396
  4      3.041702003390
  5      0.593234999756
  6     -0.093087141139
  7     -0.132909645604
  8     -0.024706609348
  9      1.063588079870
  10     2.284848932331
  11     0.233186935551
  12     0.247740872800
  13     0.611405299513
  14     0.033111587341
  15    -0.004091184315
  16     0.011822949433
  17    -0.007731765118
  18     0.020098104837
  19    -0.000332957567
  20     0.008956478971
  21     0.064433485853
  22     0.722260464422
  23    -0.786693950275
  24     0.981727023579
  25     0.461883753780
  26     0.258091181898
  27    -0.075480535856
  28    -0.073231049371
  29    -0.167547810854
  30     0.214608931234
  31     0.194328970440
  32     0.133562784121
  33    -0.113341165742
  34    -0.096079207766
  35     0.091226192609
  36     0.122192683429
  37     0.071813475283
  38     0.262115408276
  39     0.018749320453
  40     0.006886476585
  41     0.031634356411
  42    -0.018409707279
  43     0.013385189884
  44    -0.016679292694
  45     0.408202408793
  46    -2.400398369909
  47    -0.382137243610
  48     0.073134151692
  49    -0.003185429720
  50     0.046110381088
  51    -1.099039819638
  52     1.302959784125
  53    -0.776330946725
  54    -0.246422635551
  55     0.341753095808
  56    -0.192285521212
  57     0.002081390289
  58    -0.001937596372
  59    -0.000143793917
  60     0.018623638775
  61    -0.000612775937
  62     0.009380054908
  63    -0.262576717518
  64    -0.010857574519
  65     0.273434292037
  66     0.482147842818
  67    -0.617900145821
  68     0.337721617981
  69    -0.014596634345
  70    -0.090726268289
  71     0.085210925395
  72     0.030711159880
  73     0.074392505224
  74    -0.154580907045
  75    -0.011127719897
  76     0.047329556720
  77     0.040258454080
  78     0.044539282160
  79     0.084877892021
  80     0.205457228891
  81     0.008687825030
  82    -0.017839150700
  83     0.022583483537
  84     0.002819598617
  85    -0.058487938397
  86    -0.165912909595
  87    -0.043081499559
  88    -0.002596973039
  89     0.023018021022
  90     0.019288353296
  91     0.016906326260
  92    -0.932576453222
  93    -0.077739216398
  94     0.122964251299
  95     1.809021139081
  96    -0.004779236027
  97    -0.045343858359
  98    -0.223289490406
  99    -0.053422237619
  100    0.003482334025
  101    0.023879930928
  102   -0.027779157714
 Sym=     1a
 Ene= 2.29639225905589E+00
Spin= Alpha
 Occup= 0
  1      0.034846381041
  2     -0.066557897488
  3      0.559922604041
  4     -0.909842598361
  5     -0.413331010612
  6     -0.056313056296
  7      0.086855977900
  8      0.068442497269
  9      0.281061945879
  10    -0.179759701219
  11    -0.468945359126
  12     0.230760785361
  13    -0.317411609950
  14    -0.281101681361
  15     0.003842956389
  16    -0.002527733254
  17    -0.001315223135
  18    -0.004499211621
  19    -0.005259557186
  20     0.015076718775
  21     0.150600967908
  22    -0.142511891530
  23    -0.008089076378
  24     0.267339609074
  25     0.318275746292
  26    -0.249781511836
  27    -0.046599404519
  28    -0.065386482852
  29     0.010063382605
  30     0.057842634709
  31     0.028891577425
  32    -0.005472279423
  33     0.004677027021
  34     0.058833594855
  35    -0.008029165130
  36     0.012173419367
  37     0.016192355951
  38     0.467174255798
  39     0.008603034626
  40    -0.013603331506
  41     0.102290174717
  42    -0.051294364248
  43    -0.025350716629
  44    -0.063843173519
  45    -0.219790220615
  46     2.847650504581
  47     0.393880852262
  48    -0.041747968823
  49     0.073837499879
  50     0.083334520325
  51    -1.173937211389
  52     0.858913179969
  53     1.609253163245
  54    -0.304900607173
  55     0.013442260802
  56     0.571626052038
  57    -0.018098719203
  58     0.010557150687
  59     0.007541568516
  60    -0.045258923241
  61    -0.046445934807
  62     0.048468152616
  63    -0.166327503047
  64    -0.596657968110
  65     0.762985471157
  66    -0.254784453587
  67    -1.060515440755
  68     0.310406211287
  69     0.128786999583
  70    -0.190988709319
  71    -0.027028201074
  72     0.038636587866
  73     0.083494932524
  74     0.073048146239
  75    -0.211422479278
  76     0.172743309660
  77    -0.036786009292
  78    -0.225751062075
  79     0.058030589837
  80     0.161491885699
  81    -0.136592100128
  82    -0.013108772049
  83     0.016751485256
  84     0.036202878859
  85    -0.086008375226
  86    -3.223336703044
  87    -0.015227083138
  88    -0.302556458721
  89     1.830538134373
  90     0.354515770146
  91     0.052420209936
  92     0.053201575802
  93    -0.033378949844
  94     0.001184610502
  95     0.021757610158
  96    -0.031786924833
  97    -0.157187825920
  98    -0.176624562556
  99     0.196864876174
  100    0.001343966595
  101    0.089082475746
  102   -0.077661706605
 Sym=     1a
 Ene= 2.30677163463901E+00
Spin= Alpha
 Occup= 0
  1      0.026232121733
  2      0.061384488120
  3      0.240222967090
  4     -2.893649252979
  5     -0.412364672100
  6     -0.060086936974
  7      0.071345855267
  8      0.073760825468
  9     -1.073066944864
  10     0.895185621125
  11     1.675208992492
  12    -0.312071765706
  13     0.004030941831
  14     0.573449156523
  15     0.021321403506
  16    -0.012788526920
  17    -0.008532876586
  18     0.041662699481
  19     0.046249472593
  20    -0.051526018762
  21     0.156920890763
  22     0.628506522512
  23    -0.785427413275
  24     0.317798626803
  25     1.037479304148
  26    -0.292532900930
  27     0.128837368887
  28    -0.188858271092
  29    -0.042440354764
  30     0.043896108610
  31     0.077929883011
  32     0.086468194134
  33    -0.216749577533
  34     0.175450076354
  35    -0.029528483189
  36    -0.222689335511
  37     0.158444898738
  38     0.182403572457
  39    -0.199407477256
  40     0.005796361306
  41     0.091378809152
  42    -0.075880429102
  43    -0.034287209108
  44     0.063906618193
  45    -0.542575434991
  46     0.879937971659
  47     0.399543398415
  48    -0.059930274552
  49     0.083179901214
  50     0.065295144374
  51     0.234050900573
  52    -0.182465627370
  53    -0.482192412842
  54     0.204577667957
  55    -0.316348782746
  56    -0.290202733101
  57    -0.004276680092
  58     0.004682824197
  59    -0.000406144105
  60     0.009068614741
  61     0.003244434939
  62    -0.012864990452
  63    -0.180845191694
  64     0.148060537009
  65     0.032784654685
  66    -0.264336214066
  67    -0.309341248586
  68     0.258130924333
  69    -0.047424247866
  70    -0.067939576203
  71     0.002726855202
  72     0.054593017300
  73     0.036765827252
  74     0.009296774824
  75     0.009033287907
  76     0.054384679200
  77    -0.012955234982
  78     0.012928661897
  79     0.083710422159
  80     3.256693027745
  81     0.013938691432
  82    -0.286208002022
  83     1.840370844827
  84     0.366106063843
  85    -0.058160085638
  86    -0.163408532401
  87     0.134700654708
  88    -0.018633121523
  89     0.016753537170
  90     0.034390772281
  91    -0.082287286907
  92     0.029473394485
  93     0.061282183253
  94     0.029669442592
  95     0.021349481700
  96    -0.049609742085
  97    -0.019737110118
  98    -0.454202911486
  99    -0.008121574590
  100   -0.005174201981
  101    0.102395822075
  102   -0.046391737603
 Sym=     1a
 Ene= 2.39066651752912E+00
Spin= Alpha
 Occup= 0
  1     -0.030696252502
  2     -0.102673244358
  3     -0.150792649773
  4      3.357076704932
  5      0.387282888855
  6     -0.075102876923
  7     -0.083606449557
  8      0.244485410487
  9     -1.085595833322
  10    -0.926617616311
  11     2.222370003261
  12    -0.257140015329
  13     0.010251973144
  14     0.414428049191
  15    -0.046334574822
  16    -0.016806214828
  17     0.063140789650
  18     0.022953634608
  19    -0.059536794824
  20    -0.070414065662
  21    -0.504501908200
  22    -0.303418952954
  23     0.807920861154
  24     0.560428319214
  25    -0.908192656888
  26    -1.273765294666
  27     0.228067590218
  28     0.224711218469
  29    -0.000793179044
  30    -0.025491990415
  31     0.020755392502
  32    -0.052631102278
  33    -0.280492790701
  34    -0.322237128383
  35     0.053695263635
  36     0.238355443709
  37    -0.177400726685
  38    -4.409318758351
  39     0.099188466891
  40    -0.291765089506
  41    -0.353695648869
  42     2.143105618603
  43     0.014459423634
  44    -0.022630551860
  45     0.272832244358
  46    -0.768577090283
  47    -0.296539752217
  48    -0.022973649299
  49    -0.005014841208
  50     0.050070757659
  51    -0.000719776334
  52     0.130229774770
  53    -0.131073501415
  54     0.078869039409
  55     0.231730219841
  56    -0.293429651102
  57     0.006722133864
  58    -0.012087655227
  59     0.005365521363
  60     0.002129106146
  61    -0.003538131829
  62     0.002217878626
  63     0.096302346606
  64    -0.136211833625
  65     0.039909487019
  66     0.217405339929
  67     0.209953731519
  68    -0.119812743875
  69    -0.010898676022
  70     0.052211578801
  71     0.047382180191
  72     0.001839770746
  73    -0.039495162331
  74     0.001968699640
  75     0.012782337524
  76    -0.030554021316
  77    -0.065538565138
  78     0.035706111422
  79     0.021683781132
  80     0.291150447207
  81     0.023997169328
  82    -0.013050321634
  83    -0.075790289806
  84     0.023511935645
  85     0.037648463520
  86     0.496567115148
  87    -0.060660561194
  88     0.036194988297
  89    -0.051239706701
  90    -0.076856897643
  91     0.014644676624
  92     0.122300130168
  93    -0.014049192905
  94     0.010991357776
  95    -0.017383093874
  96     0.017885815526
  97     0.027732563618
  98    -0.014854624736
  99    -0.102817611086
  100    0.019455918102
  101   -0.035203606439
  102    0.006791894748
 Sym=     1a
 Ene= 2.40089810965612E+00
Spin= Alpha
 Occup= 0
  1     -0.013370852198
  2      0.017558972947
  3     -0.239646188651
  4      0.712150956535
  5      0.269983221878
  6     -0.032067606480
  7     -0.003418160098
  8      0.041854846823
  9     -0.025380559432
  10     0.114393361421
  11    -0.121273224926
  12     0.070716186412
  13     0.218121108723
  14    -0.286991926273
  15    -0.004642616089
  16     0.009655486598
  17    -0.005012870509
  18    -0.006190522056
  19     0.004394089991
  20    -0.005076110058
  21    -0.123790474140
  22     0.141971371814
  23    -0.018180897674
  24    -0.223118579592
  25    -0.212370917340
  26     0.127413748922
  27    -0.013357495896
  28     0.047853407423
  29     0.041386639431
  30    -0.000850535289
  31    -0.035008398071
  32     0.011383706833
  33     0.018771496589
  34    -0.029193685101
  35    -0.066909710310
  36     0.042928281346
  37    -0.027987258454
  38     0.011354408304
  39     0.099232436088
  40     0.014897883630
  41    -0.038264309443
  42     0.006791305369
  43     0.032379625860
  44     0.097932124200
  45     0.189979620627
  46    -3.443946147875
  47    -0.422270536255
  48    -0.090704390422
  49    -0.092378014790
  50     0.236630177799
  51    -0.996783107548
  52    -0.908356925442
  53     2.299441231369
  54    -0.257936473546
  55     0.027819342570
  56     0.419987691922
  57     0.047734492306
  58     0.018863062761
  59    -0.066597555067
  60    -0.018802855709
  61     0.056730085993
  62     0.072822058128
  63     0.538912787498
  64     0.298129396604
  65    -0.837042184102
  66    -0.596484413273
  67     0.899233640554
  68     1.255955249683
  69     0.221367955056
  70     0.229669410255
  71     0.000582906571
  72    -0.021456013999
  73     0.031893963832
  74    -0.047011174456
  75    -0.275540263328
  76    -0.340027812042
  77     0.046229123226
  78     0.231428171095
  79    -0.044413618073
  80    -0.471963812573
  81     0.061624002111
  82     0.038298309299
  83    -0.046332607345
  84    -0.075430435317
  85    -0.019409326598
  86    -0.280517886372
  87    -0.028713947357
  88    -0.010999356319
  89    -0.077572220858
  90     0.024400378622
  91    -0.071034615069
  92     0.035235344082
  93     0.066861155106
  94     0.015255960031
  95    -0.026227782742
  96    -0.040951551822
  97     0.172990905927
  98     4.471186945560
  99    -0.101539885868
  100   -0.277522761372
  101   -0.357207972803
  102    2.158897145041
 Sym=     1a
 Ene= 2.50462868486870E+00
Spin= Alpha
 Occup= 0
  1     -0.063567490856
  2      0.064943785918
  3     -0.664465824862
  4      0.805613335827
  5      0.328995288036
  6     -0.015464740719
  7     -0.165757423285
  8     -0.018430426384
  9      0.606755945030
  10     0.711759998588
  11     0.389448395596
  12     0.145839246618
  13     0.250559187695
  14     0.131136756792
  15     0.016861928778
  16    -0.010234346206
  17    -0.006627582572
  18     0.017832636571
  19     0.012306719152
  20     0.004515639089
  21     0.037791548341
  22     0.293904567200
  23    -0.331696115541
  24     0.571362086520
  25     0.417287884825
  26     0.232446780947
  27    -0.105695827991
  28    -0.031200171949
  29    -0.127110341190
  30     0.184216836833
  31     0.128121097265
  32     0.099552397037
  33    -0.042411003037
  34    -0.086261674033
  35     0.070984021089
  36     0.165525105290
  37     0.068203244035
  38    -0.080630200157
  39    -0.092914131641
  40    -0.032256209617
  41    -0.017528341220
  42     0.011640487057
  43    -0.073427681037
  44     0.075923117284
  45    -0.855680418340
  46     1.666336656008
  47     0.482956380263
  48    -0.094011797665
  49     0.145825240218
  50    -0.098443750963
  51     1.204768946525
  52    -0.747576569427
  53     0.884522745779
  54     0.310180160085
  55    -0.249284674921
  56     0.278551421127
  57     0.022538464946
  58    -0.016318684422
  59    -0.006219780524
  60    -0.005306796276
  61     0.018147355378
  62     0.000914663243
  63     0.415911261548
  64    -0.140230529391
  65    -0.275680732157
  66    -0.491414067940
  67     0.934530604440
  68    -0.336972204121
  69     0.006220213516
  70     0.131268358885
  71    -0.195132887168
  72    -0.077663230796
  73    -0.153013001081
  74     0.321175585245
  75     0.069317938641
  76    -0.023101983176
  77    -0.059377345033
  78    -0.159165318654
  79     0.012925396548
  80     0.161823648004
  81    -0.049641213646
  82     0.032223507262
  83     0.031384338869
  84    -0.000440911296
  85     0.088684357311
  86    -0.011592446738
  87    -0.082748944337
  88    -0.033316191205
  89     0.001253234580
  90     0.002103315085
  91     0.064387966692
  92    -3.592143966616
  93    -0.298832673191
  94     2.046516749802
  95     0.122964251299
  96     0.398411946634
  97     0.033660119392
  98     0.229338197030
  99    -0.040270438589
  100    0.037701297234
  101   -0.025564491131
  102    0.016158351011
 Sym=     1a
 Ene= 2.84757348672068E+00
Spin= Alpha
 Occup= 0
  1     -0.006127477065
  2     -0.044928942450
  3      0.117651849031
  4      0.818426797016
  5     -0.317590924458
  6      0.004562492719
  7     -0.130498885127
  8      0.014247731825
  9      0.003290392018
  10     0.692943067016
  11    -0.100395187996
  12    -0.059044335347
  13     0.539808544903
  14    -0.108514482810
  15    -0.045777675780
  16    -0.015446025430
  17     0.061223701210
  18    -0.017746626930
  19    -1.234445507377
  20     0.016269385012
  21    -0.035504657109
  22     0.353717851784
  23    -0.318213194675
  24     0.049971418878
  25     1.320540939629
  26    -0.130587434704
  27    -0.014871972061
  28     0.043229907385
  29     0.025399801126
  30     0.032775356196
  31     0.028503901054
  32    -0.008915934794
  33    -0.012822511903
  34    -0.086502907997
  35    -0.025161474366
  36     0.099904040023
  37    -0.010366802050
  38     0.306676112307
  39     0.232990359778
  40    -0.181545582195
  41    -0.044181064413
  42     0.226083011853
  43    -0.019134395893
  44     0.032134431104
  45    -0.179270023943
  46    -0.335965611882
  47     0.024336228717
  48    -0.009079129468
  49     0.031724754971
  50    -0.014180798091
  51    -0.081066848742
  52     0.789973235903
  53    -0.064650913310
  54     0.096790471778
  55     0.153957868856
  56     0.082176769758
  57    -0.005509875888
  58     0.001878508457
  59     0.003631367431
  60     0.012682745848
  61     0.001453409836
  62     0.012515817989
  63     0.021806479196
  64    -0.307513414806
  65     0.285706935610
  66    -0.076006015406
  67    -0.409773846149
  68     0.011589734043
  69     0.009854553896
  70    -0.060166992105
  71     0.010992282234
  72    -0.025924347813
  73     0.045596049750
  74    -0.003730271389
  75     0.012703076373
  76     0.035126440859
  77    -0.011017422793
  78     0.014329805230
  79    -0.012263859317
  80     0.349521328823
  81     0.229299565119
  82     0.180344244955
  83    -0.103885342658
  84    -0.221478161729
  85    -0.040492897343
  86    -0.450196592879
  87    -0.028106974599
  88    -0.014918557785
  89     0.105829655616
  90     0.034738076580
  91    -0.015049196517
  92    -0.343528921032
  93    -0.136493772744
  94     0.002633881859
  95     0.096314375621
  96    -0.075747089239
  97    -0.051031488216
  98    -0.393823107635
  99     0.007579463951
  100   -0.023132501617
  101    0.055665967066
  102   -0.076967717549
 Sym=     1a
 Ene= 2.85840681961264E+00
Spin= Alpha
 Occup= 0
  1     -0.022712197504
  2      0.044951494873
  3     -0.261560056283
  4     -0.330288846673
  5      0.127154396639
  6     -0.018671421874
  7     -0.069527574101
  8     -0.004510151931
  9      0.031206238098
  10    -0.707700596963
  11     0.081436598921
  12     0.059675180571
  13    -0.062667164256
  14     0.041214848074
  15    -0.001672955852
  16    -0.010323338767
  17     0.011996294619
  18    -0.008648713241
  19     0.003621258777
  20    -0.000162701622
  21     0.051181216314
  22    -0.282503743715
  23     0.231322527401
  24    -0.047055727009
  25    -0.338964057883
  26     0.004710020963
  27    -0.012368192455
  28     0.039793573020
  29    -0.017902934070
  30     0.012681780764
  31    -0.027926519877
  32     0.018294893666
  33     0.003911890689
  34    -0.025462160726
  35     0.005724412881
  36     0.004185536310
  37    -0.030192142308
  38    -0.405396968726
  39    -0.031201109465
  40     0.015775062291
  41    -0.057471851460
  42     0.070421118979
  43    -0.010096503481
  44    -0.031124130021
  45     0.025883543738
  46     0.847599871662
  47    -0.204448197154
  48    -0.095114782409
  49     0.135642893136
  50    -0.064834438178
  51     0.393335259599
  52    -0.686211478873
  53     0.339735902764
  54     0.325686871813
  55    -0.529024206747
  56     0.203266211492
  57    -0.050252874082
  58    -0.009561390116
  59     0.059814264198
  60    -0.007809002277
  61    -1.242699889974
  62     0.027331121918
  63     0.079532143422
  64     0.247673597722
  65    -0.327205741144
  66    -0.188569378024
  67     1.487793468546
  68    -0.273370368685
  69     0.007295527257
  70    -0.027444972602
  71    -0.085880824120
  72    -0.026129433687
  73    -0.027139090244
  74     0.094224825627
  75     0.016341456759
  76     0.063960384871
  77     0.020996390791
  78    -0.091983777317
  79    -0.034112267827
  80    -0.368726752037
  81    -0.041326389247
  82    -0.002138638130
  83    -0.089694916863
  84    -0.028448917138
  85     0.010296172646
  86     0.382054097869
  87     0.225814578764
  88    -0.182613698669
  89     0.100135894337
  90     0.216981681359
  91    -0.092732537056
  92    -0.667919294722
  93    -0.176927515973
  94     0.069082007789
  95    -0.121891463556
  96    -0.019540827494
  97    -0.002845584930
  98     0.358155076997
  99     0.186936133326
  100    0.173562767632
  101    0.025199682625
  102   -0.207994311483
 Sym=     1a
 Ene= 2.89078500269384E+00
Spin= Alpha
 Occup= 0
  1      0.049892162212
  2     -0.054925579581
  3      0.408264408189
  4      0.259187829508
  5     -0.002742255395
  6     -0.015857305426
  7      0.146559104038
  8     -0.024198981512
  9      0.031332934675
  10     0.241772651417
  11    -0.347217432659
  12    -0.050037300339
  13     0.073997462713
  14    -0.182742503487
  15     0.014804746442
  16    -0.034277107988
  17     0.019472361546
  18     0.016138416872
  19     0.000796719152
  20     0.029908285369
  21     0.281129334404
  22    -0.164173576530
  23    -0.116955757874
  24     0.179261158996
  25     0.192842555612
  26    -0.234680756864
  27    -0.069481594805
  28    -0.149545336639
  29    -0.102976545673
  30     0.073835103378
  31     0.106153933021
  32    -0.040402340486
  33     0.019384238123
  34     0.094482190045
  35     0.178559874214
  36    -0.038350873160
  37     0.031675671506
  38     0.323657509183
  39     0.152319824774
  40     0.028044845965
  41     0.121264805236
  42    -0.029418212022
  43     0.020636695189
  44    -0.035553614929
  45     0.263108750921
  46    -0.309931934711
  47    -0.061392383393
  48     0.048537638249
  49    -0.246915331793
  50     0.079652313745
  51    -0.292373273251
  52     0.546390866336
  53     0.029418135336
  54    -0.101130298867
  55     0.757624365082
  56    -0.264400471019
  57     0.572385184546
  58     0.680070401601
  59    -1.252455586147
  60    -0.037566186658
  61     0.059889524332
  62     0.032972827482
  63    -0.566890617140
  64    -0.996816465667
  65     1.563707082807
  66     0.236237538778
  67    -0.324735122287
  68    -0.094339264437
  69    -0.002243150922
  70     0.022056572356
  71     0.039282630187
  72     0.016689260951
  73     0.014260875997
  74    -0.046571914437
  75    -0.013679758184
  76    -0.043852873080
  77    -0.006131264423
  78     0.046928273684
  79     0.046689571873
  80     0.303898257088
  81    -0.001205340322
  82    -0.071114276669
  83     0.009947128421
  84     0.065122943403
  85     0.010933705193
  86    -0.298680546662
  87    -0.108651615053
  88    -0.015994742736
  89     0.111183679491
  90    -0.160194881767
  91     0.041411087493
  92     0.305219521997
  93     0.100429193860
  94    -0.014579140564
  95     0.056717275339
  96    -0.113285055902
  97    -0.038731022195
  98    -0.532446256196
  99    -0.266273133959
  100   -0.043369076292
  101   -0.054944596657
  102    0.291382870928
 Sym=     1a
 Ene= 2.89884778064347E+00
Spin= Alpha
 Occup= 0
  1      0.023103165262
  2     -0.044096901235
  3      0.319745834531
  4     -0.326750424687
  5     -0.131339293672
  6      0.018633929079
  7      0.281839957917
  8     -0.051803326421
  9     -0.038231791571
  10    -0.687527723657
  11    -0.147176351779
  12    -0.049259455108
  13    -0.837375478850
  14     0.146206755729
  15     0.567777536964
  16     0.684599458660
  17    -1.252376995624
  18    -0.024130772354
  19     0.061206174136
  20     0.032600837738
  21    -0.516775901318
  22    -1.113940608949
  23     1.630716510267
  24    -0.012508560556
  25    -0.318789075813
  26    -0.180084471061
  27    -0.010068407891
  28    -0.023696059580
  29     0.015006995323
  30    -0.036766569937
  31    -0.032278553962
  32    -0.020370345462
  33     0.050274756619
  34     0.064070153973
  35     0.000236348453
  36    -0.049785104299
  37    -0.039450671318
  38    -0.569402316212
  39    -0.226592562926
  40     0.043027620412
  41     0.040326836252
  42    -0.273260497109
  43     0.052117511969
  44    -0.062877374059
  45     0.459486293018
  46     0.254298130246
  47    -0.066585285711
  48     0.053245047278
  49    -0.156778220236
  50     0.034906322551
  51    -0.083780914954
  52    -0.189909344386
  53     0.373822287608
  54    -0.108820458019
  55    -0.078327899044
  56     0.160501011619
  57     0.020136087691
  58    -0.040137570269
  59     0.020001482578
  60    -0.000999928730
  61     0.008905097077
  62     0.026253053426
  63     0.259599654435
  64    -0.160211286649
  65    -0.099388367786
  66     0.201860495195
  67     0.129662154082
  68    -0.211478979474
  69     0.044490857531
  70     0.151878135402
  71     0.115674810607
  72    -0.060089338418
  73    -0.117898201994
  74     0.016119920986
  75     0.000398589328
  76    -0.085867699039
  77    -0.171313964867
  78     0.038287197669
  79    -0.006905504764
  80    -0.313770437040
  81    -0.117576826555
  82     0.010068353778
  83    -0.108828665798
  84     0.158776497777
  85     0.046504717218
  86     0.228952629844
  87     0.000358873638
  88     0.070067898010
  89     0.007569412427
  90    -0.053438397291
  91     0.089342550595
  92     0.506105993336
  93     0.125519333517
  94    -0.023208786581
  95    -0.108501839303
  96    -0.055711898568
  97     0.014939154462
  98     0.355248433503
  99     0.183031846030
  100   -0.028305366195
  101   -0.124822024958
  102    0.031612732811
 Sym=     1a
 Ene= 2.95474165400699E+00
Spin= Alpha
 Occup= 0
  1      0.001880692955
  2     -0.032586138988
  3      0.096964335490
  4      0.467593823665
  5     -0.073195496597
  6     -0.087772235364
  7     -0.005800962171
  8     -0.082413387404
  9      0.450396778892
  10     0.380647358898
  11    -0.162458121951
  12     0.315057799849
  13     0.081374613604
  14     0.293354763684
  15    -0.015559076296
  16     0.039578525804
  17    -0.024019449508
  18    -1.271841731898
  19    -0.017374577934
  20     0.053147445928
  21    -0.059124446984
  22     0.067975310411
  23    -0.008850863427
  24     1.657060738842
  25     0.062195707011
  26    -0.267312009632
  27    -0.041939556855
  28     0.017532284158
  29    -0.043144759935
  30     0.060757368962
  31     0.022901620701
  32     0.054765738304
  33    -0.004489548918
  34    -0.046423648208
  35     0.003119031348
  36     0.045550574363
  37    -0.021107728581
  38    -0.137296669819
  39    -0.097323462672
  40     0.043019508850
  41     0.135366458186
  42    -0.041798126075
  43     0.012434979878
  44     0.011203882330
  45    -0.013837943417
  46    -0.069806331284
  47     0.207354082981
  48    -0.035605339909
  49    -0.032629295112
  50    -0.025811806732
  51    -0.535755573218
  52     0.217475197152
  53     0.241486186835
  54    -0.218612765537
  55    -0.065252982698
  56     0.160823371667
  57     0.015642320365
  58    -0.031282464313
  59     0.015640143948
  60    -0.003694657773
  61    -0.007627347838
  62     0.027023571684
  63     0.048536969437
  64    -0.211326926933
  65     0.162789957496
  66     0.436243963461
  67    -0.013514804121
  68    -0.157009808100
  69    -0.030368739039
  70     0.162011102116
  71     0.032043956635
  72     0.106936166956
  73    -0.141514436750
  74     0.063338709794
  75    -0.066192228027
  76    -0.075846265714
  77    -0.106330188976
  78    -0.030236865697
  79     0.040915935374
  80     0.232192239468
  81     0.104131673411
  82     0.149609785845
  83    -0.226484768661
  84    -0.087141975072
  85     0.034451064641
  86    -0.099270882460
  87    -0.131538979227
  88     0.022450664517
  89     0.089469152163
  90    -0.069982648997
  91    -0.127347716398
  92    -0.657609436095
  93    -0.111141569279
  94    -0.002965639046
  95     0.065463285375
  96     0.022601430215
  97    -0.000724668865
  98     0.009943744189
  99     0.121417202103
  100    0.029513349488
  101   -0.084493815201
  102   -0.004254293735
 Sym=     1a
 Ene= 2.96962258008295E+00
Spin= Alpha
 Occup= 0
  1      0.024524894124
  2     -0.031981246803
  3      0.263684148134
  4     -0.091461724377
  5     -0.138773769237
  6      0.014243015937
  7      0.124066719019
  8      0.003319351552
  9      0.554549679810
  10    -0.498219956519
  11    -0.197443990835
  12     0.291552080781
  13    -0.050378142685
  14    -0.109550460497
  15     0.026035032455
  16    -0.030038069488
  17     0.004003037033
  18    -0.006033744299
  19     0.007681906000
  20     0.022500027579
  21    -0.074195904933
  22    -0.292252667083
  23     0.366448572016
  24     0.359843736395
  25    -0.240445547913
  26    -0.136524345002
  27     0.045090037115
  28    -0.145566641634
  29    -0.021039277559
  30    -0.133844320941
  31     0.119130078501
  32    -0.062298843660
  33     0.073349688083
  34     0.076168065068
  35     0.090525996552
  36     0.026987183672
  37    -0.046569827753
  38    -0.106783771457
  39     0.209342385839
  40    -0.047796992174
  41     0.056791009197
  42     0.031854808940
  43     0.015283237738
  44    -0.079085127635
  45     0.405760295347
  46     0.370822951800
  47    -0.454706591662
  48     0.082608654488
  49    -0.093739775682
  50     0.092219729967
  51    -0.421506785306
  52    -0.028001329380
  53     0.132909375428
  54    -0.275171793874
  55     0.095769580445
  56    -0.293398801156
  57    -0.008024839467
  58     0.045749526631
  59    -0.037724687164
  60    -1.265533295775
  61    -0.008137050839
  62     0.052012232428
  63    -0.199430122180
  64    -0.031604205838
  65     0.231034328018
  66     1.532703500737
  67    -0.199338465415
  68    -0.261884983543
  69     0.029940024190
  70    -0.050873758116
  71     0.029494779815
  72    -0.035354416242
  73     0.015662406154
  74    -0.055378059127
  75    -0.004814341360
  76     0.052591902697
  77     0.015806659539
  78    -0.033027124482
  79    -0.011167646861
  80    -0.217900311863
  81    -0.044489205410
  82    -0.002382095701
  83    -0.121226718697
  84     0.050471271053
  85    -0.009661594793
  86     0.091396784656
  87     0.187309247871
  88    -0.180867891308
  89     0.265540458593
  90     0.105610686510
  91     0.133498062811
  92     0.434405660792
  93     0.025049099161
  94    -0.064679644101
  95    -0.026349446113
  96    -0.060948572800
  97    -0.071627993834
  98    -0.278194828311
  99    -0.012900958562
  100   -0.029693234913
  101   -0.100725012586
  102    0.004485738990
 Sym=     1a
 Ene= 2.99060427327751E+00
Spin= Alpha
 Occup= 0
  1      0.004819814715
  2     -0.015096005720
  3      0.037006706329
  4      0.393521986230
  5      0.023498841541
  6      0.046204978947
  7      0.034825416594
  8     -0.082063183629
  9      0.087716816229
  10     0.253175313094
  11     0.036101063092
  12    -0.083267701422
  13     0.032411617523
  14     0.215458088732
  15    -0.006677555017
  16     0.005978171378
  17     0.000699383639
  18     0.015791632829
  19    -0.003899354683
  20    -0.018388096627
  21    -0.093371163626
  22     0.068438326494
  23     0.024932837132
  24     0.194462361453
  25    -0.065863945338
  26    -0.139599894914
  27    -0.017761140359
  28     0.015890635339
  29     0.022506500281
  30     0.068037121309
  31    -0.017408068465
  32     0.030927767335
  33    -0.044208050989
  34    -0.003911456029
  35    -0.061123406073
  36    -0.075601249066
  37    -0.006223792495
  38    -0.193752782036
  39    -0.033257810242
  40    -0.005881355831
  41    -0.023922715984
  42     0.013514288126
  43    -0.002301194945
  44    -0.006188015385
  45     0.025077853807
  46    -0.093588531493
  47    -0.029543378733
  48    -0.002632546275
  49    -0.015115760147
  50     0.029740126595
  51     0.367823565731
  52     0.241571619798
  53    -1.124805627261
  54     0.119420374466
  55     0.025452847353
  56    -0.335150836675
  57    -0.004597877724
  58    -0.008612221792
  59     0.013210099516
  60     0.017496480350
  61    -0.004583312424
  62    -0.026450127683
  63    -0.126236644004
  64    -0.240445868983
  65     0.366682512987
  66     0.550798992725
  67    -0.070453275314
  68    -0.600784890306
  69    -0.741677770208
  70    -0.010160129591
  71    -0.041849712334
  72    -0.376873656891
  73     0.011162163417
  74     0.013915001071
  75     1.371938803842
  76     0.002469080838
  77     0.042232279899
  78    -0.001583072945
  79     0.016667629493
  80     0.130531469135
  81     0.044381530468
  82     0.004091896807
  83     0.009539212742
  84     0.019327959060
  85     0.238704606037
  86     0.887712178239
  87    -0.022933890876
  88     0.106702725563
  89    -0.223290906980
  90    -0.050168628910
  91     0.009163098915
  92    -0.020337887407
  93    -0.002112667922
  94     0.069200419052
  95    -0.011108854289
  96    -0.110320275979
  97    -0.376602266727
  98    -1.197748055440
  99     0.030013305043
  100   -0.031662474462
  101    0.206456350809
  102   -0.291343712592
 Sym=     1a
 Ene= 3.00404924655089E+00
Spin= Alpha
 Occup= 0
  1      0.064973554333
  2     -0.045136345468
  3      0.444936103062
  4     -0.025856044014
  5      0.130597412421
  6     -0.050540717643
  7      0.203296769125
  8     -0.047714005109
  9     -0.027304720128
  10    -0.642471334580
  11     0.003416865545
  12    -0.038306131886
  13     0.058698428132
  14    -0.068166297037
  15     0.051574040889
  16    -0.090351021665
  17     0.038776980776
  18     0.024967466607
  19    -0.008265260041
  20     0.034796440828
  21     0.272395307658
  22    -0.645577036897
  23     0.373181729239
  24     0.080265915501
  25     0.058929201320
  26     0.174761805800
  27    -0.105505748412
  28    -0.296150548922
  29    -0.130854229261
  30     0.178180711938
  31     0.201418791607
  32    -0.043156772301
  33    -0.036629896658
  34     0.195908863772
  35     0.218716143363
  36    -0.088041707064
  37     0.011642240886
  38    -0.010465618134
  39     0.124896181542
  40    -0.002754663954
  41    -0.005367390070
  42    -0.047996896414
  43     0.027472270274
  44    -0.131630098533
  45     0.632057101481
  46     0.749056850541
  47    -0.536866384269
  48     0.000329710480
  49    -0.285714916700
  50     0.039864290460
  51     0.144854272760
  52    -0.051386977350
  53     0.096950668904
  54     0.066868083505
  55     0.673543216817
  56    -0.044019162068
  57    -1.088421638460
  58     1.150689685671
  59    -0.062268047211
  60    -0.030078473480
  61    -0.023529012552
  62    -0.039271056195
  63     1.024739687355
  64    -1.269807403926
  65     0.245067716571
  66    -0.065111479753
  67    -0.098250870867
  68     0.021742511112
  69     0.009798297659
  70    -0.017781617445
  71    -0.036469833153
  72    -0.011073555898
  73    -0.011816773441
  74     0.035275593707
  75    -0.002072239879
  76     0.035673316654
  77     0.013653821928
  78    -0.052142354620
  79     0.019857114673
  80    -0.053755601385
  81     0.095185384753
  82     0.004549474312
  83    -0.004331830113
  84     0.052557665381
  85    -0.032621520355
  86    -0.236384715930
  87    -0.019367691163
  88    -0.004400749145
  89     0.170755382733
  90     0.054652259265
  91    -0.014408211430
  92    -0.255381149748
  93    -0.060733684138
  94    -0.084697167982
  95    -0.045165546144
  96     0.009796723853
  97    -0.032004017075
  98    -0.272992309000
  99    -0.019112237000
  100   -0.015224002130
  101    0.117348207729
  102   -0.088154635245
 Sym=     1a
 Ene= 3.00865456935350E+00
Spin= Alpha
 Occup= 0
  1      0.008942921120
  2     -0.003716546134
  3      0.073111961348
  4     -0.145140968321
  5     -0.025488136624
  6      0.009249173779
  7      0.014145447734
  8      0.034230771737
  9      0.277760862625
  10     0.016963288270
  11    -1.172986720943
  12     0.104678250070
  13    -0.030030709963
  14    -0.344797149457
  15     0.006032232455
  16     0.008429390603
  17    -0.014461623058
  18    -0.019509536916
  19     0.003695250762
  20     0.025684368890
  21     0.063517786922
  22     0.165223965138
  23    -0.228741752060
  24    -0.663023533117
  25     0.058564780097
  26     0.606128271922
  27    -0.727057752794
  28    -0.001879405156
  29    -0.021948041851
  30    -0.404005092558
  31    -0.019031960305
  32    -0.005346621531
  33     1.379455427847
  34     0.021553446916
  35     0.034793009663
  36    -0.015062058207
  37     0.371441983878
  38     1.190174110463
  39    -0.022483464558
  40    -0.031625433758
  41     0.204270277868
  42    -0.296590684603
  43    -0.001388463723
  44     0.009966963895
  45    -0.012846432891
  46    -0.276216505353
  47    -0.024405621923
  48     0.051663336650
  49     0.024049276604
  50    -0.076250098977
  51     0.086791734010
  52     0.195988237136
  53     0.030518393561
  54    -0.085297586005
  55     0.025836779261
  56     0.210963270831
  57     0.007141133344
  58    -0.004797660389
  59    -0.002343472955
  60    -0.016953894892
  61     0.001771278468
  62     0.016721589656
  63     0.031640241988
  64    -0.049624568541
  65     0.017984326553
  66    -0.197399938667
  67     0.077301669811
  68     0.157568018806
  69    -0.019862717582
  70     0.011458472257
  71     0.033951576871
  72     0.070862069249
  73    -0.004585664774
  74     0.018828809700
  75    -0.044213437210
  76    -0.010787488956
  77    -0.064379629996
  78    -0.078772291367
  79    -0.250808078508
  80    -0.943973373088
  81     0.030296995020
  82     0.115021646130
  83    -0.228916898036
  84    -0.053809496924
  85    -0.022490171454
  86    -0.129113602613
  87    -0.030181389854
  88    -0.012798535960
  89     0.004940178778
  90     0.011512347274
  91     0.056773333415
  92     0.259988991144
  93    -0.021121931005
  94    -0.042344259186
  95    -0.113162796325
  96    -0.119396992575
  97     0.005115618996
  98     0.181273697593
  99     0.043876449551
  100    0.008246150660
  101   -0.016405281459
  102    0.019850542959
 Sym=     1a
 Ene= 3.03285663447349E+00
Spin= Alpha
 Occup= 0
  1      0.033290330377
  2     -0.151891657873
  3      0.766482049606
  4      0.708351613289
  5     -0.702781080387
  6     -0.012936061609
  7      0.325502387622
  8     -0.049591778673
  9     -0.115838947438
  10    -0.095031650651
  11    -0.088102342746
  12    -0.023553043057
  13    -0.727940814645
  14     0.105754099808
  15    -1.085205817279
  16     1.152650157199
  17    -0.067444339920
  18    -0.032777617275
  19    -0.017366795489
  20    -0.037255712359
  21     0.966331686670
  22    -1.311197810627
  23     0.344866123957
  24    -0.104394740654
  25    -0.219947228450
  26     0.014950003216
  27     0.009355311226
  28     0.026271852971
  29     0.054368780801
  30    -0.009848901874
  31     0.000022620613
  32    -0.046488189812
  33    -0.002702565237
  34    -0.035270010096
  35    -0.026455184023
  36     0.045242462148
  37    -0.059650715484
  38    -0.326808220425
  39     0.001636139334
  40     0.005791945551
  41    -0.127449781975
  42     0.095795574616
  43     0.070219008743
  44    -0.063914123566
  45     0.565852603320
  46    -0.036885682935
  47    -0.020335712974
  48     0.056801410143
  49    -0.242528924878
  50     0.062538909054
  51    -0.040436279301
  52     0.742247816372
  53    -0.091103488179
  54     0.085892134380
  55     0.004477806116
  56     0.045848534889
  57     0.053037061602
  58    -0.087095964604
  59     0.034058903002
  60     0.032024684983
  61    -0.002847156915
  62     0.033932470764
  63     0.207013267841
  64    -0.651789983808
  65     0.444776715967
  66     0.114440083084
  67    -0.064937353917
  68     0.207564598342
  69     0.117485703497
  70     0.277991988285
  71     0.155841973196
  72    -0.187548210396
  73    -0.189599470864
  74     0.007226406757
  75     0.029924598753
  76    -0.183365918939
  77    -0.216310354246
  78     0.090246177635
  79    -0.049016574361
  80    -0.304846937393
  81     0.033007793545
  82     0.010310094941
  83    -0.198091744622
  84    -0.071661931346
  85    -0.005470488403
  86    -0.070252087023
  87     0.142612600040
  88    -0.015046019373
  89     0.010425507620
  90    -0.049415079415
  91     0.099193219489
  92     0.220101336033
  93    -0.001380586521
  94    -0.134824813720
  95    -0.015870016560
  96    -0.015280706168
  97    -0.002887139977
  98    -0.096472613492
  99     0.153423336724
  100    0.001532404400
  101    0.020139582154
  102    0.025414086221
 Sym=     1a
 Ene= 3.03848901484286E+00
Spin= Alpha
 Occup= 0
  1     -0.017439670142
  2      0.024129567016
  3     -0.416208721289
  4      1.948041209758
  5      0.396792657796
  6     -0.005819686194
  7     -0.067369963704
  8      0.048611525857
  9      0.071945132232
  10     1.116205825712
  11    -1.132293689653
  12     0.046092805600
  13     0.323594520346
  14    -0.299749636859
  15    -0.009203219272
  16     0.012113536539
  17    -0.002910317267
  18    -0.007494240133
  19     0.000071428807
  20    -0.011324351009
  21    -0.324228489804
  22     0.483731427158
  23    -0.159502937354
  24    -0.086133741806
  25     0.052707198309
  26    -0.404748648725
  27    -0.025615290956
  28    -0.002612289696
  29     0.137887577468
  30     0.059753050907
  31    -0.050820206708
  32     1.047345248582
  33    -0.025386531802
  34     0.054324961110
  35    -1.232340846465
  36     0.053385832899
  37     0.046714294554
  38     0.323602142622
  39     0.051873172879
  40     0.167724288776
  41    -0.106038571364
  42    -0.071106085269
  43    -0.020098440648
  44     0.067010961919
  45    -0.138506690172
  46    -1.819092223958
  47    -0.174748874363
  48    -0.060372002134
  49     0.200312327568
  50     0.009502776495
  51    -0.255480865863
  52     1.084988640291
  53     0.438191229030
  54    -0.038386734545
  55     0.206592002561
  56     0.125249457389
  57     0.016601655625
  58    -0.046243652865
  59     0.029641997240
  60     0.021124024581
  61     0.004996553450
  62    -0.020145964722
  63     0.181713453512
  64    -0.476704450511
  65     0.294990996999
  66     0.220181411255
  67     0.202954088744
  68    -0.404554090971
  69     0.038322949372
  70     0.163885319060
  71    -0.082089686961
  72    -0.109640998987
  73    -0.019177942843
  74    -0.072938060658
  75     0.058225367051
  76    -0.200697285516
  77     0.183072932836
  78    -0.079600290271
  79    -0.073542259729
  80    -0.446936940453
  81     0.028759643145
  82     0.252537251550
  83     0.077480985779
  84    -0.077283400185
  85     0.045260271103
  86     0.033743819877
  87    -0.096727950676
  88    -0.006540337402
  89     0.001708103167
  90    -0.004427878674
  91    -0.022314332247
  92    -0.227581158344
  93    -0.022870318665
  94     0.018039792735
  95     0.026733873055
  96     0.007295515795
  97     0.003242139293
  98     0.203641848057
  99    -0.077659920127
  100   -0.015295980045
  101   -0.065100068209
  102    0.052363508218
 Sym=     1a
 Ene= 3.08977364991502E+00
Spin= Alpha
 Occup= 0
  1      0.018289350346
  2     -0.053197181749
  3      0.095103316761
  4      1.631969993019
  5      0.187417106870
  6     -0.014269570911
  7      0.177464043262
  8      0.032148412625
  9     -0.160692066604
  10     0.935332873200
  11     0.255984753910
  12    -0.057014585868
  13     0.259443257216
  14    -0.004027902842
  15    -0.017909299968
  16     0.045165812257
  17    -0.027256512289
  18    -0.009220684993
  19    -0.007083855851
  20     0.016633392874
  21    -0.174382084286
  22     0.448927279994
  23    -0.274545195708
  24    -0.130929459957
  25    -0.173738593268
  26     0.279881291666
  27    -0.009215190445
  28     0.164479327905
  29    -0.061722788596
  30    -0.024824082816
  31    -0.001767588903
  32    -0.029678188355
  33     0.037187558172
  34    -0.218904585950
  35     0.112487998992
  36    -0.025751693886
  37    -0.028751626583
  38    -0.104338594042
  39     0.118872400455
  40    -0.003564534812
  41    -0.032476290518
  42     0.054876771831
  43     0.037726175231
  44    -0.026116351461
  45     0.608603803577
  46    -2.702344902802
  47    -0.516310996593
  48     0.047693122838
  49    -0.063473680428
  50     0.052592549148
  51    -0.362978779492
  52     0.825322070120
  53    -0.654798769260
  54    -0.128463421889
  55     0.311020275392
  56    -0.196395623966
  57     0.014611892750
  58    -0.006499131385
  59    -0.008112761365
  60     0.008323753832
  61     0.010887980940
  62     0.015526977337
  63     0.204944124540
  64    -0.149301624431
  65    -0.055642500109
  66     0.431436577262
  67    -0.103169247082
  68     0.634396806320
  69    -0.006240207821
  70     0.029131948549
  71     1.330105073337
  72     0.054216180269
  73     0.008147669365
  74    -0.812911199848
  75    -0.045844062941
  76    -0.047232279729
  77    -0.971612016871
  78     0.151704513505
  79    -0.064648146894
  80    -0.050758759249
  81     0.118233102983
  82     0.020625074552
  83     0.003154419019
  84    -0.016463139072
  85     0.155647232006
  86     0.433153612084
  87    -0.040285469036
  88    -0.004035534010
  89    -0.031269982674
  90    -0.233119596462
  91     0.107979842105
  92     0.606002980843
  93    -0.007005095345
  94    -0.213394970090
  95     0.093185639488
  96    -0.125497574201
  97     0.213209139700
  98     0.420686712980
  99    -0.065762379578
  100   -0.228763175080
  101   -0.235920587669
  102    0.000675165364
 Sym=     1a
 Ene= 3.09000379532898E+00
Spin= Alpha
 Occup= 0
  1     -0.010272245891
  2     -0.019277443917
  3     -0.190872170348
  4      1.782774836569
  5      0.278455344269
  6      0.026815626330
  7      0.038482344851
  8      0.030947069888
  9     -0.221410139619
  10     0.128821102919
  11    -0.524135090423
  12    -0.074340431624
  13     0.115853256664
  14    -0.153037844480
  15    -0.016822873481
  16     0.009440104136
  17     0.007382769345
  18    -0.007990837175
  19    -0.011752188102
  20    -0.014888094778
  21    -0.340221339720
  22     0.017071678302
  23     0.323149661418
  24    -0.494207798554
  25    -0.249759460203
  26    -0.569962023624
  27     0.026973410348
  28     0.076557854529
  29     1.321790967282
  30    -0.012145752245
  31    -0.068684755213
  32    -0.767270191513
  33    -0.024042875230
  34    -0.034028384950
  35    -1.006098481420
  36     0.084374755707
  37    -0.245572477080
  38    -0.506491036727
  39     0.096765796339
  40    -0.229930525001
  41    -0.246907680741
  42    -0.000918750646
  43    -0.003182284118
  44     0.025611534537
  45     0.047693747717
  46    -1.266014844287
  47    -0.219143772590
  48    -0.009758987759
  49     0.118076404308
  50     0.043689583714
  51    -0.099830664742
  52     0.809913030128
  53     0.290131091372
  54    -0.035075519192
  55     0.267200782381
  56     0.001842991749
  57     0.013171813661
  58    -0.039956355647
  59     0.026784541986
  60     0.005585004769
  61     0.004892295901
  62    -0.019524600967
  63     0.100727171959
  64    -0.427650601705
  65     0.326923429746
  66     0.070491184621
  67     0.064574046989
  68    -0.296435590430
  69    -0.015095456089
  70     0.154128925987
  71    -0.061730308779
  72    -0.004404960082
  73     0.019622202401
  74    -0.039252913439
  75     0.024657639661
  76    -0.226407855885
  77     0.122072813460
  78    -0.006696320676
  79    -0.195184223027
  80    -0.570557072347
  81     0.070999088076
  82    -0.003371807400
  83    -0.049100873839
  84    -0.243071126854
  85     0.041858469325
  86     0.027206408991
  87    -0.065992507468
  88     0.019523710282
  89     0.011644139359
  90    -0.013180977283
  91     0.138796240383
  92     0.479326886082
  93    -0.068992126299
  94    -0.139023271119
  95    -0.183250587763
  96    -0.012855894666
  97     0.011035229650
  98     0.065741065257
  99    -0.070446645852
  100   -0.005472306817
  101   -0.021618217238
  102    0.047942897509
 Sym=     1a
 Ene= 3.10066993429706E+00
Spin= Alpha
 Occup= 0
  1      0.013759746086
  2     -0.048727253477
  3      0.047963572659
  4      1.740186752564
  5      0.188541544775
  6      0.025214548354
  7      0.164345784812
  8     -0.032589087153
  9      0.710133969636
  10     1.090735782582
  11    -0.315830909419
  12     0.189215341848
  13     0.159794422680
  14    -0.117544484623
  15    -0.031593403853
  16     0.043599281110
  17    -0.012005877257
  18     0.034404275970
  19    -0.009610482386
  20    -0.015180799978
  21    -0.400559791060
  22     0.491390641646
  23    -0.090830850586
  24     0.672903650282
  25    -0.200624779624
  26    -0.139260553248
  27    -0.175366159954
  28     0.158943502000
  29    -0.001658623128
  30     0.297041037749
  31    -0.217484699060
  32     0.078739477841
  33    -0.061762644983
  34     0.004239614027
  35    -0.076514201403
  36    -0.117251901630
  37    -0.010760825912
  38     0.005318076143
  39     0.067531439694
  40     0.017618479689
  41     0.004969312055
  42    -0.005498286423
  43    -0.000366484000
  44    -0.004306551783
  45     0.161192059542
  46    -1.201966918182
  47    -0.215572275530
  48     0.040320273892
  49    -0.038057905705
  50    -0.013594607544
  51    -1.071132939904
  52     1.191605231593
  53     0.381032448945
  54    -0.288079470569
  55     0.262195764934
  56     0.125954065790
  57     0.002159374789
  58    -0.008400094696
  59     0.006240719907
  60     0.013710402449
  61    -0.008201337480
  62     0.015202850488
  63     0.155195582033
  64    -0.292968114709
  65     0.137772532676
  66     0.634936196955
  67    -0.157765782423
  68     0.441136530497
  69     1.058014698647
  70     0.011642398843
  71    -0.040309955697
  72    -1.454476035605
  73     0.031954928241
  74     0.005800279166
  75     0.035000363184
  76    -0.047574845382
  77     0.048281201499
  78     0.013216910696
  79     0.017721013464
  80    -0.208826544447
  81     0.032683843350
  82     0.029745404373
  83    -0.062004290758
  84    -0.009517360996
  85    -0.187071674146
  86    -0.681277102798
  87    -0.035446328633
  88    -0.126854483906
  89     0.015509731104
  90     0.182726971536
  91    -0.027909911226
  92    -0.334853478168
  93     0.016786167360
  94     0.062206782418
  95    -0.028796281338
  96     0.085097264752
  97     0.052056174968
  98     0.397518635448
  99    -0.030608445918
  100   -0.038219981061
  101    0.023226071630
  102    0.098655254241
 Sym=     1a
 Ene= 3.11946473437759E+00
Spin= Alpha
 Occup= 0
  1     -0.027603384207
  2      0.105412926869
  3     -0.153004779948
  4     -3.198973789410
  5     -0.359844943591
  6      0.077014088776
  7     -0.316183466610
  8      0.083209923765
  9      0.701677753484
  10    -1.644568177423
  11     0.524614330775
  12     0.166900991929
  13    -0.329459789739
  14     0.092144428720
  15     0.030961752872
  16    -0.054054963282
  17     0.023093210410
  18     0.042647050377
  19    -0.009668555455
  20     0.032768333562
  21     0.337959407347
  22    -0.391318454106
  23     0.053359046759
  24     0.588978715204
  25    -0.042439963338
  26     0.340339036711
  27    -0.159096116439
  28    -0.026253193981
  29    -0.034860606216
  30     0.220970294397
  31     0.064368579060
  32    -0.033233782700
  33    -0.007520455608
  34    -0.029146223240
  35     0.080004193842
  36    -0.125617188350
  37     0.036936693192
  38     0.212059773017
  39    -0.134244236784
  40     0.014508234396
  41     0.050553658804
  42    -0.051466956834
  43    -0.018095029591
  44     0.014918749601
  45    -0.540400828543
  46     3.221293304893
  47     0.612186083201
  48     0.035289269263
  49     0.078269695524
  50     0.000393474808
  51    -0.354090576984
  52    -1.999368721231
  53     0.305483558810
  54    -0.055478238439
  55    -0.560499126255
  56     0.112065213675
  57    -0.021489034430
  58     0.034823505821
  59    -0.013334471391
  60    -0.002082217992
  61    -0.009695653300
  62    -0.003508442324
  63    -0.726465759740
  64     1.147531546980
  65    -0.421065787240
  66     0.077324719330
  67    -0.374660917733
  68    -0.079525666409
  69     0.008151889054
  70    -1.135810210764
  71    -0.003451058751
  72    -0.023102653580
  73     1.382295959968
  74    -0.069440767795
  75     0.012165746737
  76     0.141553344516
  77     0.074070848972
  78    -0.012367305735
  79     0.033541717551
  80     0.178701082556
  81    -0.140253335501
  82    -0.024703102525
  83     0.054926760708
  84     0.025117061984
  85    -0.117179489376
  86    -0.408262914049
  87     0.101046119507
  88     0.083369879602
  89     0.138179907684
  90     0.121290533635
  91     0.104044134793
  92     0.248893405396
  93    -0.085777218237
  94    -0.163718020318
  95     0.088901710714
  96    -0.116221403676
  97    -0.038697240657
  98    -0.089604493595
  99     0.097609386279
  100   -0.077978585087
  101    0.033696301187
  102   -0.058001027447
 Sym=     1a
 Ene= 3.12481122795721E+00
Spin= Alpha
 Occup= 0
  1      0.014575715203
  2     -0.003388854516
  3      0.471550741249
  4     -3.188764557162
  5     -0.568137967667
  6     -0.014109525043
  7      0.052046229951
  8     -0.018631326447
  9      0.083286413995
  10    -1.905597638070
  11     0.468843549417
  12     0.005788235061
  13    -0.519335845999
  14     0.122871139380
  15     0.020728758035
  16    -0.033612903339
  17     0.012884145304
  18     0.004360952753
  19     0.008599627167
  20     0.006078977581
  21     0.683679339527
  22    -1.024693002042
  23     0.341013662515
  24     0.200467370422
  25     0.317373664865
  26     0.230174733456
  27     0.005067219855
  28    -1.121294941011
  29    -0.072777175484
  30     0.007292659186
  31     1.392980178325
  32     0.018414924710
  33    -0.014091048018
  34     0.111394848232
  35     0.079225902246
  36    -0.010585199552
  37     0.049938729477
  38     0.122595503698
  39    -0.101380252863
  40    -0.069051286411
  41     0.037631288731
  42    -0.065309986793
  43     0.024535072467
  44    -0.093827144146
  45     0.080613461903
  46     3.302871582501
  47     0.399079880001
  48     0.064554459219
  49    -0.299475780136
  50     0.077590704778
  51     0.721679906107
  52    -1.735963006357
  53     0.523513437611
  54     0.159799854882
  55    -0.363933980176
  56     0.084587609348
  57    -0.032807454876
  58     0.055808911070
  59    -0.023001456194
  60    -0.039342729158
  61     0.008073089579
  62    -0.031606221229
  63    -0.308506895723
  64     0.407309976597
  65    -0.098803080874
  66    -0.592782302955
  67     0.091602817925
  68    -0.346831483379
  69    -0.150716756023
  70    -0.021939323144
  71    -0.053269293954
  72     0.221198970066
  73     0.066307073763
  74    -0.007487398509
  75    -0.018991222977
  76    -0.036872383004
  77     0.078955655946
  78    -0.125357829438
  79     0.115314533867
  80     0.351115936220
  81    -0.104988305143
  82     0.094775090391
  83     0.132847733866
  84     0.112925658895
  85    -0.027724561446
  86    -0.151332389334
  87     0.138357666573
  88    -0.016257442039
  89     0.047563455659
  90     0.025535627140
  91    -0.102095155654
  92    -0.506968608916
  93     0.069677895380
  94     0.109877041459
  95     0.175617740756
  96     0.083672372398
  97    -0.022357592725
  98    -0.210831106589
  99     0.125568198993
  100    0.014017938595
  101    0.050801534426
  102   -0.046205984618
 Sym=     1a
 Ene= 3.14632890482881E+00
Spin= Alpha
 Occup= 0
  1      0.010683083862
  2     -0.043241123840
  3      0.210730759291
  4      0.214078576588
  5     -0.135697151978
  6     -0.081710717576
  7      0.118076966027
  8      0.008593326962
  9     -0.138181514634
  10     0.076834274304
  11     0.553760855399
  12     0.299561332094
  13    -0.304368784074
  14    -0.061919862251
  15    -0.048325531548
  16     0.015501394746
  17     0.032824136802
  18     0.053044664173
  19     0.016610511995
  20    -1.347436828701
  21     0.110851281876
  22     0.061896327315
  23    -0.172747609191
  24    -0.270689075017
  25    -0.119379140729
  26     1.914547866346
  27     0.030038088482
  28     0.009377305884
  29    -0.015046557792
  30     0.008210757169
  31     0.012211222536
  32     0.004824368393
  33    -0.048511081825
  34    -0.024792198578
  35     0.015362707237
  36    -0.003321184311
  37     0.050984611249
  38     0.193379075741
  39     0.135411466197
  40    -0.033424613862
  41    -0.338972439769
  42     0.224317941528
  43     0.028243648748
  44    -0.018115433540
  45     0.177105899174
  46     0.038106752857
  47     0.091925215599
  48    -0.010117491752
  49    -0.082276562977
  50     0.023408633756
  51     0.244893193055
  52    -0.014604441859
  53    -0.843974546837
  54     0.129565235633
  55    -0.125291031048
  56    -0.385169362150
  57     0.014248478665
  58    -0.045086386134
  59     0.030837907469
  60     0.022164038408
  61    -0.000648334769
  62    -0.014274786061
  63     0.237885844101
  64    -0.034081247624
  65    -0.203804596477
  66    -0.147324445366
  67    -0.011237614246
  68     0.685884209455
  69    -0.000047967542
  70     0.216938152503
  71    -0.049665841122
  72    -0.094729786021
  73    -0.096945469795
  74    -0.007545696795
  75     0.094794141231
  76    -0.194107603752
  77     0.074179414940
  78     0.007453581897
  79    -0.063200039625
  80    -0.464354494076
  81    -0.234135251396
  82    -0.093657911611
  83     0.301758888762
  84     0.149684296044
  85    -0.012213704164
  86     0.146045673517
  87     0.261352620440
  88     0.012904084399
  89    -0.160580831066
  90     0.087058882846
  91    -0.034372172781
  92    -0.187245953003
  93    -0.022819319160
  94     0.017126715196
  95    -0.007371678203
  96    -0.075741385778
  97     0.047883947488
  98    -0.031550917767
  99    -0.187140293593
  100   -0.077473869577
  101    0.155288359673
  102    0.063472971688
 Sym=     1a
 Ene= 3.15290337283154E+00
Spin= Alpha
 Occup= 0
  1      0.007885443744
  2     -0.040264181398
  3     -0.008993702251
  4      1.654759201803
  5      0.224515906122
  6     -0.056741239580
  7      0.146604522703
  8      0.016690955987
  9     -0.255120866511
  10     1.063965166467
  11     0.451970355877
  12    -0.050525746530
  13     0.228987689808
  14     0.120177414083
  15    -0.012980800481
  16     0.041641575974
  17    -0.028660775493
  18    -0.021403723427
  19    -0.003529160745
  20     0.020361166969
  21    -0.116947070536
  22     0.477680449285
  23    -0.360733378749
  24    -0.177354653560
  25    -0.093369421985
  26     0.415687457484
  27     0.030037752981
  28     0.154994497620
  29    -0.093130105064
  30    -0.092919101509
  31    -0.001256213507
  32    -0.065516329007
  33     0.052619226975
  34    -0.206690726182
  35     0.190463476412
  36    -0.062184559031
  37     0.019748794116
  38    -0.178946819814
  39     0.038882771427
  40    -0.013662901985
  41    -0.057956947334
  42     0.045140191818
  43    -0.003238599259
  44     0.014251834702
  45     0.090341564439
  46    -1.317715439425
  47    -0.207484837931
  48    -0.046772006862
  49     0.002413511458
  50     0.016772947125
  51     0.374902226699
  52     0.728643457859
  53    -0.899424497188
  54     0.103087450035
  55     0.182290987182
  56    -0.244695344194
  57     0.010784644392
  58    -0.014511562864
  59     0.003726918472
  60     0.005968988093
  61     0.000700785189
  62     0.011671182515
  63     0.474627606899
  64    -0.471751380642
  65    -0.002876226257
  66    -0.024471674577
  67     0.249753412045
  68     0.317161315931
  69    -0.009378129579
  70     0.037816291756
  71     0.091625959429
  72     0.030491500791
  73    -0.100264784609
  74     1.126304373375
  75    -0.017909419647
  76     0.049528905195
  77    -1.249233497647
  78     0.011453731007
  79    -0.026457931320
  80     0.003661955712
  81     0.061359096110
  82    -0.007150751190
  83     0.014861612062
  84     0.000515389684
  85     0.097329767475
  86     0.489435680284
  87    -0.051777638302
  88     0.255138055446
  89     0.073364723882
  90    -0.070930439455
  91    -0.138612932660
  92    -0.677693524640
  93     0.060925941007
  94     0.240274759456
  95    -0.123018315987
  96     0.110115288622
  97    -0.016592756509
  98    -0.238083690633
  99    -0.075024834966
  100    0.166784361044
  101   -0.114767703104
  102   -0.062352551261
 Sym=     1a
 Ene= 3.15753630383050E+00
Spin= Alpha
 Occup= 0
  1      0.033744720950
  2     -0.037783171105
  3      0.303324994260
  4      0.029624602119
  5     -0.065644961047
  6      0.010934002627
  7      0.125868730697
  8     -0.032282304928
  9     -0.259573909793
  10    -0.113982809113
  11     0.875546809862
  12    -0.137360474781
  13     0.066792735603
  14     0.410802384446
  15     0.014169640302
  16    -0.042733615095
  17     0.028563974793
  18     0.025781011032
  19     0.008065844515
  20    -0.014644447310
  21     0.217038825678
  22    -0.081168240263
  23    -0.135870585415
  24    -0.198105303513
  25    -0.134661299585
  26     0.674487509161
  27    -0.002941746972
  28    -0.209679655310
  29     0.064228447840
  30     0.083873760163
  31     0.088343052043
  32    -0.001625252468
  33    -0.079926992442
  34     0.192971725620
  35    -0.084546252808
  36    -0.013475840415
  37     0.030081524344
  38    -0.105415469751
  39    -0.152537056468
  40     0.080779178958
  41    -0.167917357774
  42    -0.041596000804
  43     0.016800764791
  44    -0.064479738861
  45     0.351870343925
  46     0.168589518338
  47    -0.310015807018
  48     0.098616595704
  49    -0.158620771817
  50     0.004233386383
  51     0.053085076911
  52     0.062034927046
  53    -0.601317946054
  54    -0.317664759779
  55     0.371746955683
  56     0.025711710355
  57    -0.050713951289
  58     0.017993422643
  59     0.032720528646
  60     0.052126337062
  61     0.027028978069
  62    -1.344653524099
  63     0.058849148719
  64     0.043772512079
  65    -0.102621660798
  66    -0.258139188178
  67    -0.283289063331
  68     1.929965803889
  69    -0.039085118386
  70    -0.026787411566
  71     0.023247550973
  72    -0.002201730827
  73    -0.002579614309
  74    -0.026248586440
  75     0.054639919799
  76     0.038518698230
  77    -0.004941276132
  78     0.012926207917
  79    -0.036182756755
  80     0.112213169571
  81     0.306601764143
  82    -0.017489542271
  83     0.146769109601
  84    -0.100132568188
  85    -0.083078074807
  86    -0.532833317339
  87    -0.186822678942
  88     0.090115143209
  89    -0.276268084466
  90    -0.132864425006
  91     0.084518617603
  92     0.310428271867
  93     0.039237520560
  94    -0.074833013637
  95     0.006075521518
  96    -0.013083169061
  97     0.024701313100
  98     0.133952168768
  99     0.164612066160
  100    0.023925688040
  101    0.347355943288
  102   -0.245041466522
 Sym=     1a
 Ene= 3.16165672056870E+00
Spin= Alpha
 Occup= 0
  1      0.004497990919
  2      0.005550248747
  3     -0.119951480583
  4      0.943231696344
  5      0.198970416020
  6      0.079412858817
  7     -0.012443984150
  8      0.003026043485
  9     -1.369113542343
  10     0.863110880271
  11     0.275769328959
  12    -0.342533820797
  13     0.220315197011
  14     0.105644750723
  15    -0.001995738664
  16     0.007005944072
  17    -0.005010205408
  18    -0.016985365846
  19     0.008781148135
  20    -0.016782490346
  21    -0.080681003934
  22     0.122805367009
  23    -0.042124363075
  24    -0.859966013968
  25     0.138831642952
  26    -0.531587948443
  27     1.071570796117
  28     0.014267079787
  29     0.017118085071
  30    -1.498743891170
  31     0.001353902473
  32    -0.055089318220
  33     0.061080805476
  34    -0.020495198620
  35     0.032122997102
  36    -0.008755692954
  37    -0.058214508945
  38    -0.459247691575
  39     0.035337441366
  40    -0.040441812607
  41     0.017962258375
  42     0.104418403448
  43    -0.013093012447
  44     0.055973759022
  45    -0.102899659990
  46    -1.472512724359
  47    -0.143649021601
  48     0.033241678674
  49     0.173441033557
  50    -0.030047430961
  51     0.716333952348
  52     0.917603434483
  53    -0.287027612543
  54     0.194016191820
  55     0.118557372071
  56    -0.108483602040
  57     0.028995423810
  58    -0.042240264685
  59     0.013244840875
  60    -0.037739678125
  61     0.008789727554
  62     0.013741080095
  63     0.410552844915
  64    -0.447452408641
  65     0.036899563726
  66    -0.654777919824
  67     0.219468022074
  68     0.127980163071
  69    -0.177013724724
  70     0.157977894949
  71     0.014640961816
  72     0.296349970563
  73    -0.221505969603
  74     0.055313753171
  75    -0.058861137703
  76     0.009556382374
  77    -0.074956664697
  78    -0.111953968030
  79     0.183157066415
  80     0.635508080922
  81     0.040225943902
  82    -0.125490081992
  83     0.011225445676
  84     0.182296672669
  85    -0.009261384457
  86     0.216433539941
  87    -0.024059533914
  88     0.035191618222
  89    -0.064376399520
  90    -0.012251315885
  91     0.112192734908
  92     0.329536745907
  93    -0.064624253195
  94    -0.179025673299
  95    -0.192079827951
  96    -0.032849024646
  97     0.017674141199
  98     0.006907977885
  99    -0.057752098503
  100    0.007822016064
  101   -0.000329535547
  102   -0.004196464138
 Sym=     1a
 Ene= 3.21679295872504E+00
Spin= Alpha
 Occup= 0
  1      0.002496113773
  2     -0.006209710061
  3     -0.066010424768
  4      0.753983170594
  5      0.174417617584
  6      0.024947477214
  7      0.050535729317
  8     -0.009387749535
  9      0.177094611759
  10     0.481433063188
  11     0.143349402727
  12    -0.031850729935
  13     0.316147374820
  14     0.042140623200
  15    -0.016595968395
  16     0.026397129286
  17    -0.009801160891
  18     0.011576722722
  19    -0.001815063186
  20     0.001805369652
  21    -0.228476401596
  22     0.344960842634
  23    -0.116484441038
  24     0.218042559725
  25     0.017294202050
  26     0.099333786417
  27    -0.040264497340
  28     0.159295815375
  29    -0.006695504909
  30     0.140300701445
  31    -0.106021891050
  32    -0.064435994299
  33    -0.086280209566
  34    -0.107695871976
  35     0.073418956772
  36     0.102223656244
  37    -0.055699147205
  38    -0.039207977104
  39     0.090234626708
  40    -0.023014967190
  41     0.007045560745
  42     0.041353861760
  43     0.038895687710
  44     0.004422849667
  45     0.465381558548
  46    -2.483668569249
  47    -0.407202886699
  48     0.030197354101
  49     0.008381233993
  50     0.032201759136
  51    -0.204452182972
  52    -0.278088222243
  53    -0.637037966825
  54    -0.061081030647
  55     0.091661568414
  56    -0.210851777169
  57     0.013922617596
  58    -0.001376202220
  59    -0.012546415376
  60     0.024107348092
  61     0.023708987936
  62    -0.001151107178
  63     0.089020413371
  64     0.071163663893
  65    -0.160184077264
  66     0.614257955495
  67     0.284983804160
  68     0.031537736279
  69     0.011418315593
  70     0.092764333801
  71     0.151704513505
  72    -0.013585108388
  73     0.023995459753
  74    -0.091847259387
  75    -0.001734169524
  76    -0.148451873512
  77    -0.111685703427
  78     1.388294628961
  79    -0.051533980147
  80     0.066183874738
  81     0.111688778666
  82     0.014684854746
  83     0.014955842519
  84    -0.030505968488
  85     0.488611820464
  86     1.260506906173
  87    -0.081184270429
  88     0.125801008488
  89    -0.261180230989
  90    -0.317715212845
  91     0.043348901625
  92     0.316563861838
  93     0.003335949456
  94    -0.174061271302
  95     0.048707621366
  96    -0.101858923902
  97     0.287161248486
  98     0.492807401922
  99    -0.069956493162
  100    0.061663242813
  101   -0.030338853717
  102    0.268057169431
 Sym=     1a
 Ene= 3.23726186724414E+00
Spin= Alpha
 Occup= 0
  1     -0.042161390428
  2      0.005574076132
  3     -0.527380280683
  4      2.524918011803
  5      0.446493866332
  6     -0.013124568334
  7     -0.016710855862
  8      0.008985667732
  9      0.130462456967
  10    -0.174347013269
  11    -0.420046855049
  12     0.015006210533
  13     0.141262940027
  14    -0.160728634844
  15    -0.015237239670
  16     0.003342938462
  17     0.011894301208
  18    -0.017946187851
  19    -0.025789492903
  20     0.002572780427
  21    -0.156616429166
  22     0.033118712343
  23     0.123497716823
  24    -0.345078815513
  25    -0.310945587324
  26     0.066700664879
  27     0.002301606214
  28     0.105748113616
  29     0.084374755707
  30     0.013411729314
  31     0.032322261341
  32    -0.010366819311
  33    -0.016499658085
  34    -0.174198243663
  35    -0.102833794296
  36     1.395578181593
  37    -0.289168336540
  38    -0.546024309235
  39     0.066245009832
  40     0.047839525779
  41    -0.035823736674
  42     0.276090524107
  43    -0.005210938348
  44     0.015960719321
  45     0.005663685998
  46    -0.677330740558
  47    -0.142559941845
  48     0.008469775484
  49     0.062115568178
  50    -0.022533815067
  51     0.252263293018
  52     0.434809416001
  53     0.211993109739
  54     0.002450826417
  55     0.302000061294
  56     0.070168440665
  57     0.016773458163
  58    -0.026220589521
  59     0.009447131358
  60    -0.011861898568
  61     0.000738801159
  62    -0.001596591937
  63     0.244513844884
  64    -0.348932822092
  65     0.104418977208
  66    -0.244643562448
  67     0.046703804049
  68    -0.124695042421
  69    -0.046405299493
  70     0.164471118513
  71    -0.025754831422
  72     0.145086351750
  73    -0.104117455635
  74    -0.036583103094
  75    -0.082827109240
  76    -0.116543705163
  77     0.071136835380
  78     0.102236110972
  79    -0.477517834193
  80    -1.222229380262
  81     0.077788257552
  82     0.112677316426
  83    -0.257637831467
  84    -0.312737316398
  85     0.064495392620
  86    -0.067633223501
  87    -0.120211493149
  88     0.014576353625
  89     0.014085620824
  90    -0.035039361440
  91    -0.045887876364
  92    -0.541346788187
  93    -0.014974781201
  94     0.181038311867
  95     0.133644724718
  96     0.004298621710
  97     0.059752513501
  98     0.064427359345
  99    -0.091888030270
  100   -0.015865003263
  101    0.001844292031
  102    0.049728758389
 Sym=     1a
 Ene= 3.30973594035849E+00
Spin= Alpha
 Occup= 0
  1     -0.015798931097
  2      0.062926325873
  3     -0.023281747933
  4     -2.358590552698
  5     -0.347343332299
  6      0.034624268967
  7     -0.207207686096
  8      0.086510217520
  9      0.247673727829
  10    -1.162274124891
  11     0.792304940175
  12     0.070942237103
  13    -0.410348011166
  14     0.231477347948
  15     0.023311292015
  16    -0.039159752702
  17     0.015848460687
  18     0.017308939401
  19    -0.005545380090
  20     0.048051076203
  21     0.198091203667
  22    -0.297994266169
  23     0.099903062502
  24     0.197003029178
  25    -0.010053367666
  26     0.627506305818
  27     0.012925539751
  28    -0.004313897709
  29    -0.206655971219
  30    -0.006555256527
  31    -0.049525476443
  32    -0.020016766638
  33    -0.010786174790
  34     0.055313177558
  35     0.297274846399
  36    -0.106376399731
  37     0.077516399079
  38     0.026473263945
  39    -0.164163930247
  40     0.024589838454
  41    -0.009044582701
  42    -0.032303625738
  43    -0.039109280109
  44    -0.000601659631
  45    -0.642087809131
  46     3.770606965111
  47     0.659822164368
  48    -0.001561485666
  49     0.033598466237
  50     0.030250050853
  51     0.257361680165
  52    -0.991777437293
  53    -0.615269581390
  54     0.111172784864
  55    -0.427650109053
  56    -0.132231601136
  57    -0.029169124155
  58     0.022403230912
  59     0.006765893243
  60    -0.011067169650
  61    -0.025566809244
  62    -0.005642636105
  63    -0.698951402790
  64     0.691542613790
  65     0.007408789000
  66    -0.105824325805
  67    -0.526155321996
  68     0.003349501419
  69    -0.035714445384
  70    -0.996236156864
  71    -0.043116975083
  72     0.045446875756
  73    -0.262785771708
  74     0.068079783788
  75     0.002469080838
  76     1.599376832742
  77    -0.010232291426
  78    -0.135517399711
  79     0.051083811586
  80     0.167221358324
  81    -0.146760685896
  82    -0.036473344142
  83     0.057430586755
  84     0.060478602095
  85    -0.308882092776
  86    -0.530683928419
  87     0.131681801562
  88    -0.250153901251
  89     0.182440440678
  90    -0.003628566165
  91     0.067260109610
  92     0.003803515652
  93    -0.069220858053
  94    -0.023062816756
  95     0.047249315585
  96    -0.004895847713
  97    -0.446725759336
  98    -1.282388178842
  99     0.118087134664
  100    0.219293729153
  101    0.094703093609
  102   -0.359529906622
 Sym=     1a
 Ene= 3.31877332008238E+00
Spin= Alpha
 Occup= 0
  1      0.048056790534
  2     -0.011963917848
  3      0.772224009870
  4     -4.103681070081
  5     -0.732139283044
  6      0.005907817203
  7      0.069483244627
  8      0.026189502305
  9      0.208782182456
  10    -1.269989000522
  11    -0.552751088964
  12     0.074665867273
  13    -0.500767788629
  14    -0.126429330968
  15     0.029364207481
  16    -0.023434123725
  17    -0.005930083756
  18     0.008326539200
  19     0.026129768107
  20     0.002923007958
  21     0.658078440713
  22    -0.777271960581
  23     0.119193519868
  24     0.046039368004
  25     0.434547791643
  26    -0.025477290677
  27    -0.026839878664
  28    -0.981110132332
  29    -0.031063523388
  30     0.014456029004
  31    -0.294955659176
  32     0.063785697702
  33     0.021553446916
  34     1.611253028760
  35    -0.022109607752
  36    -0.159020512553
  37     0.428635807354
  38     1.191564532029
  39    -0.108054173716
  40     0.224531183881
  41     0.089459639216
  42    -0.340730791238
  43     0.020270455591
  44    -0.068757141489
  45     0.048564002300
  46     2.536703976702
  47     0.350898174869
  48     0.046342229823
  49    -0.220084751400
  50     0.091287853820
  51     0.187285611184
  52    -1.261302155786
  53     0.795723300146
  54     0.031969554443
  55    -0.429909817262
  56     0.221630088596
  57    -0.025464958876
  58     0.042337721241
  59    -0.016872762365
  60    -0.016801970445
  61     0.003373873946
  62    -0.047870393698
  63    -0.236520594794
  64     0.327781529513
  65    -0.091260934719
  66    -0.178612380476
  67    -0.013919245781
  68    -0.626587132025
  69     0.005246887461
  70    -0.009887736031
  71    -0.199855979868
  72    -0.003127505625
  73    -0.042054126861
  74    -0.029355808228
  75    -0.003911932594
  76     0.055319916806
  77     0.297490742245
  78    -0.098324408912
  79     0.303901791413
  80     0.528897587304
  81    -0.121689136620
  82    -0.245738972778
  83     0.185299033549
  84     0.008859935608
  85    -0.050366096564
  86    -0.186198758776
  87     0.160223813478
  88    -0.040217465275
  89     0.062143852385
  90     0.057370447705
  91     0.026011682107
  92     0.303014721712
  93     0.034470551827
  94    -0.086125920670
  95    -0.095928004166
  96    -0.086779235169
  97    -0.085477888997
  98    -0.019866014091
  99     0.184446807414
  100    0.027105224548
  101   -0.010239866400
  102   -0.030871832594
 Sym=     1a
 Ene= 9.82277730480314E+00
Spin= Alpha
 Occup= 0
  1     -0.101054739633
  2      0.081491811832
  3      0.098982180109
  4      1.336261169080
  5     -4.522815262134
  6      0.011812956081
  7     -0.053392026231
  8      0.012813712558
  9     -0.396744165706
  10     2.600594800410
  11    -0.532750542811
  12     1.213957604091
  13    -2.648651202174
  14     0.964704421911
  15    -0.020676661644
  16     0.046907719217
  17    -0.026231057573
  18    -0.040751428316
  19     0.014668582832
  20    -0.033425882750
  21    -0.090817930314
  22     0.643121063400
  23    -0.552303133086
  24     0.143953369773
  25     0.370542392352
  26    -0.123679877436
  27    -0.004353477235
  28    -0.071776425299
  29    -0.069568636843
  30    -0.004547345701
  31     0.000957694822
  32     0.045811364704
  33     0.010388148322
  34     0.095340484869
  35     0.047524755946
  36    -0.096474520532
  37     0.103067404121
  38     0.703634901225
  39    -0.846136115625
  40     0.049148577047
  41     0.089759696247
  42    -0.175696330441
  43     0.855413093200
  44    -1.297232185580
  45     3.628815404564
  46    -10.093176347271
  47     15.804078621312
  48     0.071955832265
  49    -0.076243020694
  50     0.047186585793
  51    -0.657681452858
  52     1.553926133368
  53    -0.537993565701
  54     1.074373251927
  55    -2.003894541632
  56     0.811488044565
  57     0.084470080223
  58    -0.069326710490
  59    -0.015143369733
  60     0.084987916896
  61     0.063903909275
  62     0.048971802862
  63     0.110091071509
  64    -0.304864686749
  65     0.194773615240
  66     0.162892712544
  67    -0.113422864359
  68     0.166864692930
  69     0.016204459476
  70     0.114272710443
  71     0.123009143148
  72    -0.012842721261
  73    -0.009480708642
  74    -0.080997125745
  75    -0.008897842496
  76    -0.143832220472
  77    -0.084036957815
  78     0.149002072006
  79     0.103227233482
  80     0.703479837158
  81    -0.848472489891
  82    -0.105165965865
  83     0.127064317852
  84     0.119066906876
  85     0.075819365243
  86     0.672498443471
  87    -2.696543150352
  88     0.066957473107
  89    -0.088680439164
  90    -0.129662942246
  91     0.113742145181
  92     0.103825778568
  93    -2.645290708821
  94    -0.129892490693
  95     0.180445025718
  96    -0.090479519610
  97     0.075818178629
  98     0.672276699587
  99    -2.698702565885
  100   -0.075740574896
  101   -0.054655573676
  102    0.142971156543
 Sym=     1a
 Ene= 9.85965747560604E+00
Spin= Alpha
 Occup= 0
  1      0.857454683911
  2     -1.299327973437
  3      3.625165562834
  4     -10.072727534496
  5      15.781783016288
  6      0.043018290267
  7      0.105867626016
  8      0.009311852307
  9     -0.133649112823
  10    -1.753999479317
  11     0.148859008680
  12     0.378982180540
  13     2.379335820971
  14    -0.096768783853
  15     0.103895576214
  16    -0.101432230985
  17    -0.002463345229
  18     0.015971670417
  19     0.084146936887
  20     0.017467770768
  21     0.158697557343
  22    -0.384883733755
  23     0.226186176412
  24    -0.011492998199
  25    -0.061762856523
  26     0.086903258284
  27     0.009649209763
  28    -0.150545823308
  29    -0.041659463743
  30    -0.049042578610
  31     0.017944831342
  32    -0.008249400614
  33     0.036096805235
  34     0.184033585445
  35     0.064141436315
  36    -0.135538873600
  37     0.075532805419
  38     0.669916587777
  39    -2.694899064193
  40     0.045283521722
  41     0.046441853932
  42    -0.156972209613
  43    -0.100830779564
  44     0.081323131166
  45     0.099544554176
  46     1.328511500700
  47    -4.515718357591
  48    -0.005387052332
  49     0.055061913589
  50    -0.009655842095
  51     0.422302851039
  52    -2.586793788685
  53     0.544518123746
  54     0.313744537755
  55     3.042059089081
  56    -0.215111970573
  57    -0.034911042445
  58     0.070299334806
  59    -0.035388292361
  60     0.010002046692
  61    -0.000392454691
  62    -0.010183037135
  63     0.008799554282
  64     0.478425867374
  65    -0.487225421656
  66    -0.202379862397
  67     0.473298390878
  68    -0.280940131073
  69    -0.005260236496
  70     0.086428092944
  71     0.034194852987
  72     0.029005258239
  73    -0.003413109815
  74    -0.005862339547
  75    -0.021947910410
  76    -0.112542344778
  77    -0.040014869909
  78     0.092111111776
  79     0.075519384269
  80     0.670640876683
  81    -2.692248667019
  82    -0.096673204018
  83     0.080309584603
  84     0.114268177448
  85     0.103103323063
  86     0.702768607316
  87    -0.847314823878
  88     0.084132837843
  89    -0.132402517702
  90    -0.129247013314
  91     0.113501627799
  92     0.102264359766
  93    -2.640729810130
  94    -0.064320031400
  95    -0.230371063071
  96    -0.004939237566
  97     0.102996545641
  98     0.702956304678
  99    -0.846019104610
  100   -0.070148630749
  101   -0.095236742945
  102    0.165179111959
 Sym=     1a
 Ene= 1.29441815825245E+01
Spin= Alpha
 Occup= 0
  1     -1.078835554217
  2      1.166365096153
  3      1.462644107181
  4     -9.540071032402
  5      12.037154537341
  6      0.048268140209
  7      0.140390590249
  8      0.007753761260
  9     -0.080275009899
  10    -2.555595679249
  11     0.276827746916
  12     0.168308773112
  13     1.973821077389
  14    -0.157545094789
  15     0.173308969164
  16    -0.161281250211
  17    -0.012027718953
  18     0.056917123846
  19     0.140557375399
  20     0.042806883273
  21     0.507927568629
  22    -0.783004507021
  23     0.275076938392
  24     0.063666040229
  25     0.167133548862
  26     0.176893430783
  27    -0.003668319489
  28    -0.325662993825
  29    -0.114059109334
  30    -0.056042448252
  31     0.055666155038
  32    -0.007682271854
  33     0.060964015295
  34     0.381256600131
  35     0.160708625008
  36    -0.284258455260
  37     0.151175066048
  38     1.080101716026
  39    -2.003425543655
  40     0.148333706603
  41     0.202960815388
  42    -0.426257198874
  43    -0.071973384976
  44     0.050858902991
  45    -0.448958432733
  46     4.293524307801
  47    -5.443664112185
  48     0.001235200409
  49     0.012896978070
  50    -0.000946922374
  51     0.506641202312
  52    -3.187760921814
  53     0.663554817644
  54     0.131284566178
  55     2.438304410920
  56    -0.234367997487
  57    -0.136861381563
  58     0.238207216132
  59    -0.101345834569
  60    -0.053388341612
  61    -0.013435465603
  62    -0.077252639601
  63    -0.313969993651
  64     0.753760523839
  65    -0.439790530188
  66    -0.316181978931
  67     0.191383429615
  68    -0.356070078257
  69    -0.045530703944
  70    -0.111310872544
  71    -0.043396028959
  72     0.083512654207
  73     0.093805900841
  74    -0.020926698394
  75    -0.022426804757
  76     0.055533305744
  77     0.079148580818
  78     0.000729606883
  79     0.151198288233
  80     1.080756432809
  81    -2.002112740216
  82    -0.240062061863
  83     0.295905472952
  84     0.315707619661
  85     0.040247910015
  86     0.149698337637
  87    -0.112292017531
  88     0.010256650908
  89    -0.007224803880
  90    -0.029762102360
  91     0.003699856466
  92     0.493097347740
  93    -1.763750283183
  94    -0.203760222831
  95    -0.299065655888
  96    -0.069251989159
  97     0.040117351164
  98     0.149679098078
  99    -0.110132188259
  100   -0.019000705895
  101   -0.000121506778
  102    0.026020642655
 Sym=     1a
 Ene= 1.29820856724837E+01
Spin= Alpha
 Occup= 0
  1     -0.071838309634
  2      0.050716195156
  3     -0.448267891311
  4      4.287481765824
  5     -5.430279366407
  6      0.005096330601
  7     -0.011034313880
  8      0.004005017684
  9     -0.499621669802
  10     3.183349449476
  11    -0.659157206531
  12     0.859724537115
  13    -2.174294036441
  14     0.719177501005
  15    -0.126107237080
  16     0.220489964575
  17    -0.094382727495
  18    -0.090614104915
  19    -0.002310569859
  20    -0.094191662048
  21    -0.383388874611
  22     0.867034082686
  23    -0.483645208075
  24    -0.071847029482
  25     0.117863848612
  26    -0.244244335044
  27     0.031205688855
  28     0.128240203021
  29     0.026125032668
  30    -0.056595109052
  31    -0.103990381382
  32     0.034241381490
  33     0.014728284113
  34    -0.068061905460
  35    -0.069291790866
  36    -0.010385711424
  37     0.039905669547
  38     0.148637305122
  39    -0.108776291890
  40     0.009381746979
  41    -0.002526417944
  42    -0.030473894594
  43    -1.080480320057
  44     1.168693451851
  45     1.456807643602
  46    -9.521720766489
  47     12.006527740508
  48     0.086960202752
  49    -0.105041531843
  50     0.058665531035
  51    -0.848850135405
  52     2.309666750664
  53    -0.732456124249
  54     0.752812164738
  55    -1.728670521175
  56     0.609925468361
  57     0.155237599378
  58    -0.131812692022
  59    -0.023424907356
  60     0.118982265190
  61     0.121896674775
  62     0.071110010656
  63     0.401996454857
  64    -0.608623200983
  65     0.206626746126
  66     0.432663826865
  67     0.057472925741
  68     0.345015905205
  69     0.030868199208
  70     0.281183220663
  71     0.240970586321
  72    -0.020539747536
  73    -0.054781072863
  74    -0.140602975473
  75    -0.020874287527
  76    -0.322465804458
  77    -0.182692991482
  78     0.293682279339
  79     0.040075709603
  80     0.148610732842
  81    -0.111930317874
  82    -0.019632669372
  83     0.004581397899
  84     0.024932350094
  85     0.151078815100
  86     1.079557801729
  87    -1.997645249612
  88     0.227426751451
  89    -0.299006195453
  90    -0.321645678126
  91     0.003759380169
  92     0.493959643722
  93    -1.760263764488
  94    -0.278556928513
  95     0.173407700795
  96    -0.167493774830
  97     0.151100823370
  98     1.079329619531
  99    -1.998386861811
  100   -0.160753991681
  101   -0.206177624135
  102    0.419849239482
