[Molden Format]
[Title]
LPOs

[Atoms] AU
C    1   6         -4.9870754330         2.0390960773        -1.7219241257 
H    2   1         -5.6555011207         1.2184743410         0.0380298603 
C    3   6         -5.3839195389         4.5526583868        -2.2438328973 
H    4   1         -4.0266681140         0.8275168676        -3.0736342503 
H    5   1         -6.3718030129         5.7571009102        -0.9054893222 
H    6   1         -3.3367681448         3.7766558912        -1.0753159647 
H    7   1         -4.7424281061         5.3665587738        -4.0168112080 
[GTO]
  1 0 
s   6 1.0  
    13575.3496820000         0.0006064549 
     2035.2333680000         0.0046979088 
      463.2256235900         0.0243324776 
      131.2001959800         0.0973999683 
       42.8530158910         0.3019558425 
       15.5841857660         0.6623360915 
s   2 1.0  
        6.2067138508         0.6559530853 
        2.5764896527         0.3758563329 
s   1 1.0  
        0.5769633942         1.0000000000 
s   1 1.0  
        0.2297283136         1.0000000000 
s   1 1.0  
        0.0951644400         1.0000000003 
p   4 1.0  
       34.6972322440         0.0113272200 
        7.9582622826         0.0761696592 
        2.3780826883         0.3019225220 
        0.8143320818         0.7278502735 
p   1 1.0  
        0.2888754725         0.9999999999 
p   1 1.0  
        0.1005682367         0.9999999995 
d   1 1.0  
        1.0970000000         1.0000000000 
d   1 1.0  
        0.3180000000         1.0000000000 
f   1 1.0  
        0.7610000000         1.0000000000 

  2 0 
s   3 1.0  
       34.0613410000         0.0254393072 
        5.1235746000         0.1900859489 
        1.1646626000         0.8524411301 
s   1 1.0  
        0.3272304100         1.0000000002 
s   1 1.0  
        0.1030724100         1.0000000001 
p   1 1.0  
        0.8000000000         1.0000000000 

  3 0 
s   6 1.0  
    13575.3496820000         0.0006064549 
     2035.2333680000         0.0046979088 
      463.2256235900         0.0243324776 
      131.2001959800         0.0973999683 
       42.8530158910         0.3019558425 
       15.5841857660         0.6623360915 
s   2 1.0  
        6.2067138508         0.6559530853 
        2.5764896527         0.3758563329 
s   1 1.0  
        0.5769633942         1.0000000000 
s   1 1.0  
        0.2297283136         1.0000000000 
s   1 1.0  
        0.0951644400         1.0000000003 
p   4 1.0  
       34.6972322440         0.0113272200 
        7.9582622826         0.0761696592 
        2.3780826883         0.3019225220 
        0.8143320818         0.7278502735 
p   1 1.0  
        0.2888754725         0.9999999999 
p   1 1.0  
        0.1005682367         0.9999999995 
d   1 1.0  
        1.0970000000         1.0000000000 
d   1 1.0  
        0.3180000000         1.0000000000 
f   1 1.0  
        0.7610000000         1.0000000000 

  4 0 
s   3 1.0  
       34.0613410000         0.0254393072 
        5.1235746000         0.1900859489 
        1.1646626000         0.8524411301 
s   1 1.0  
        0.3272304100         1.0000000002 
s   1 1.0  
        0.1030724100         1.0000000001 
p   1 1.0  
        0.8000000000         1.0000000000 

  5 0 
s   3 1.0  
       34.0613410000         0.0254393072 
        5.1235746000         0.1900859489 
        1.1646626000         0.8524411301 
s   1 1.0  
        0.3272304100         1.0000000002 
s   1 1.0  
        0.1030724100         1.0000000001 
p   1 1.0  
        0.8000000000         1.0000000000 

  6 0 
s   3 1.0  
       34.0613410000         0.0254393072 
        5.1235746000         0.1900859489 
        1.1646626000         0.8524411301 
s   1 1.0  
        0.3272304100         1.0000000002 
s   1 1.0  
        0.1030724100         1.0000000001 
p   1 1.0  
        0.8000000000         1.0000000000 

  7 0 
s   3 1.0  
       34.0613410000         0.0254393072 
        5.1235746000         0.1900859489 
        1.1646626000         0.8524411301 
s   1 1.0  
        0.3272304100         1.0000000002 
s   1 1.0  
        0.1030724100         1.0000000001 
p   1 1.0  
        0.8000000000         1.0000000000 

[MO]
 Sym=     1a
 Ene= -1.04686259026015E+01
Spin= Alpha
 Occup= 2
  1      0.476122628855
  2      0.629446559997
  3     -0.006613875644
  4     -0.045275063543
  5      0.008292196308
  6      0.000688228279
  7      0.000376823013
  8      0.000329703811
  9     -0.001561528057
  10     0.005972231717
  11    -0.001525046315
  12    -0.001081555727
  13     0.005799652898
  14    -0.001252751458
  15    -0.000030021586
  16     0.000245449733
  17    -0.000215428147
  18    -0.000035790825
  19     0.000166714747
  20    -0.000098908048
  21    -0.000177872211
  22     0.001638634346
  23    -0.001460762135
  24    -0.001650495615
  25     0.001481069112
  26    -0.001433883760
  27     0.000237423125
  28    -0.000384197257
  29    -0.000013457617
  30    -0.000699885348
  31    -0.000490939009
  32    -0.000060084829
  33     0.000381348800
  34     0.001006393720
  35     0.000078140117
  36    -0.001065328235
  37    -0.000037599984
  38    -0.022810829728
  39     0.001744998034
  40    -0.000164244701
  41    -0.000121996347
  42     0.000004975670
  43     0.001753919416
  44     0.005176601941
  45    -0.007620064681
  46    -0.015921150575
  47    -0.012228131739
  48    -0.002078714498
  49     0.017500065934
  50    -0.003269571881
  51    -0.001169486918
  52     0.023192189693
  53    -0.003526275783
  54    -0.000862623678
  55     0.008303860487
  56    -0.001520374545
  57     0.000770616932
  58    -0.001594222169
  59     0.000823605237
  60     0.000538665492
  61    -0.000194284874
  62     0.000651241140
  63     0.002683299375
  64    -0.006768274628
  65     0.004084975253
  66     0.001927560815
  67    -0.001747067697
  68     0.002737945659
  69     0.000484808159
  70     0.001365483481
  71     0.000843235219
  72    -0.000867146891
  73    -0.000943188459
  74    -0.000134301574
  75     0.000216708492
  76    -0.000888799872
  77    -0.000997017188
  78     0.000392851461
  79    -0.000034043565
  80    -0.022770665468
  81     0.001767860196
  82    -0.000104193808
  83    -0.000135028180
  84    -0.000111652382
  85     0.000389950504
  86    -0.002257628655
  87     0.000575397601
  88    -0.000073845045
  89     0.000365877972
  90    -0.000344664889
  91     0.002181886746
  92    -0.008509211556
  93     0.001640720178
  94     0.000298440828
  95    -0.000014563205
  96     0.000158273533
  97     0.000393210291
  98    -0.002271253523
  99     0.000559313785
  100   -0.000284493064
  101    0.000419700264
  102    0.000055352775
 Sym=     1a
 Ene= -1.04685764264437E+01
Spin= Alpha
 Occup= 2
  1      0.001753707595
  2      0.005176229802
  3     -0.007619864874
  4     -0.015918022111
  5     -0.012204269640
  6      0.003398916495
  7     -0.017155476620
  8      0.003918173049
  9      0.005945876614
  10    -0.021947233390
  11     0.005871924184
  12     0.001701291932
  13    -0.008079028653
  14     0.001929725268
  15     0.000826062113
  16    -0.001684685597
  17     0.000858623484
  18     0.000345483553
  19    -0.000136464468
  20     0.000563083678
  21     0.002895022964
  22    -0.007116817695
  23     0.004221794731
  24     0.001184311461
  25    -0.001527330316
  26     0.002399086775
  27    -0.000269208661
  28    -0.001659598822
  29    -0.000273385878
  30     0.000379988820
  31     0.001036896904
  32    -0.000469619372
  33    -0.000018807500
  34     0.001189688565
  35     0.000836405016
  36    -0.000275279673
  37     0.000393186903
  38    -0.002271210144
  39     0.000558638622
  40     0.000057940765
  41    -0.000479050843
  42    -0.000166321709
  43     0.476122527217
  44     0.629445966266
  45    -0.006612922501
  46    -0.045267814620
  47     0.008253661882
  48     0.000756967165
  49    -0.000001409488
  50     0.000382210948
  51     0.000402453219
  52    -0.006271187746
  53     0.000958915182
  54     0.000783382719
  55    -0.005867118592
  56     0.001108496497
  57    -0.000038303758
  58     0.000258628494
  59    -0.000220324736
  60    -0.000007590708
  61     0.000158224256
  62    -0.000086203147
  63    -0.000935826086
  64     0.002885595860
  65    -0.001949769774
  66     0.001005820015
  67     0.000689452331
  68    -0.000218689981
  69    -0.000147438549
  70     0.000192969659
  71     0.000791716215
  72     0.000350868015
  73     0.000423008887
  74    -0.000897513093
  75    -0.000153058444
  76    -0.000681904852
  77    -0.000164685672
  78     0.001062429713
  79     0.000390143407
  80    -0.002257650665
  81     0.000573544886
  82    -0.000152058101
  83    -0.000424159653
  84     0.000233864419
  85    -0.000034614086
  86    -0.022771434227
  87     0.001770935516
  88    -0.000192604690
  89     0.000058622594
  90    -0.000033148331
  91     0.002181350370
  92    -0.008518947805
  93     0.001644067914
  94     0.000270781804
  95     0.000161871660
  96     0.000121405742
  97    -0.000037489141
  98    -0.022810570691
  99     0.001750842638
  100   -0.000132477925
  101    0.000045088260
  102   -0.000150538214
 Sym=     1a
 Ene= -1.11532288109355E+00
Spin= Alpha
 Occup= 2
  1      0.021213549446
  2      0.077340470579
  3     -0.206178739920
  4     -0.189914151135
  5      0.011089080275
  6      0.123226600221
  7     -0.216546648279
  8      0.091638882169
  9      0.110011312762
  10    -0.136461094718
  11     0.074718194103
  12     0.037427941721
  13    -0.027034839874
  14     0.023082110462
  15     0.007449706832
  16    -0.014203067557
  17     0.006753360725
  18     0.006348766368
  19    -0.001106080321
  20     0.006521628120
  21     0.009333123841
  22    -0.012322202812
  23     0.002989078971
  24     0.006599271223
  25     0.003666275557
  26     0.005479703033
  27    -0.000773247857
  28    -0.004618013457
  29    -0.000589763285
  30     0.000607523328
  31     0.001727352907
  32    -0.001790591386
  33     0.000429897535
  34     0.004468362300
  35     0.002581841864
  36    -0.002501344621
  37     0.013566164554
  38     0.035702800544
  39     0.001556481474
  40     0.002476416520
  41    -0.002505332447
  42    -0.002734879403
  43     0.021214675585
  44     0.077342595474
  45    -0.206150828419
  46    -0.190109186304
  47     0.011068563597
  48     0.047885324498
  49     0.260989491687
  50    -0.007622774525
  51     0.060033302235
  52     0.180748555874
  53     0.008712897209
  54     0.026360606262
  55     0.043612644622
  56     0.008272081264
  57     0.008559572226
  58    -0.016035060066
  59     0.007475487840
  60     0.002454290040
  61     0.000052188125
  62     0.004749364488
  63     0.010111606606
  64    -0.013604603007
  65     0.003492996401
  66     0.003969843870
  67     0.004444696317
  68     0.004294270035
  69     0.000732496872
  70     0.004302736612
  71     0.003498065289
  72    -0.001319236689
  73    -0.002353407056
  74    -0.002031139351
  75     0.000336489009
  76    -0.003419319877
  77    -0.002662007714
  78     0.002186463571
  79     0.013558132047
  80     0.035829820426
  81     0.001613104636
  82    -0.001058177378
  83    -0.001635989346
  84     0.004015432433
  85     0.013557632105
  86     0.035841816896
  87     0.001598078979
  88     0.001802834694
  89     0.001830331667
  90    -0.003651449833
  91     0.014100021582
  92     0.016828892901
  93     0.010862329235
  94     0.009819684091
  95     0.002557629444
  96     0.004821741525
  97     0.013563453086
  98     0.035711901465
  99     0.001585845914
  100   -0.001737831353
  101    0.002694981038
  102    0.003096200538
 Sym=     1a
 Ene= -9.16955323627524E-01
Spin= Alpha
 Occup= 2
  1     -0.025329744867
  2     -0.081047167947
  3      0.155067939105
  4      0.508861822544
  5      0.124980808256
  6      0.143653630324
  7     -0.175390123461
  8     -0.195608422475
  9      0.074931469820
  10     0.010494789025
  11    -0.136823731241
  12     0.042423633770
  13     0.026068699519
  14    -0.084749300313
  15    -0.000341358966
  16    -0.001900220838
  17     0.002241579804
  18    -0.006146899697
  19    -0.007332679658
  20     0.007996861284
  21    -0.014775850661
  22     0.042627893216
  23    -0.027852042555
  24    -0.024698499899
  25    -0.012597558151
  26    -0.001756511493
  27     0.001995233890
  28     0.004199214943
  29     0.002633835670
  30    -0.002469029744
  31     0.000963480144
  32    -0.000298978850
  33    -0.000207857421
  34    -0.006597318183
  35    -0.003234682510
  36     0.003127150328
  37    -0.009604608844
  38    -0.073150138807
  39     0.023104585152
  40     0.001489779763
  41    -0.010772762201
  42     0.004411292811
  43     0.004134266036
  44     0.008980963414
  45     0.024176407015
  46    -0.255257765381
  47    -0.087948470626
  48    -0.021235941975
  49     0.030193050562
  50     0.042118031364
  51    -0.035717505445
  52     0.204061325262
  53    -0.032754600457
  54    -0.026979963419
  55     0.087629561804
  56     0.023912023886
  57     0.000032078727
  58     0.000009110837
  59    -0.000041189564
  60     0.000265986622
  61     0.000004974158
  62     0.000295282987
  63     0.030385054351
  64    -0.044206921008
  65     0.013821866657
  66    -0.008660675199
  67    -0.006770140877
  68     0.065186994964
  69     0.000145301263
  70     0.002513729118
  71     0.006005744845
  72     0.002558478204
  73    -0.003547528302
  74     0.001553280937
  75    -0.002753420305
  76     0.000175006790
  77    -0.009610833175
  78     0.000106574641
  79     0.193470521727
  80     0.253321791546
  81     0.033600268581
  82    -0.011190460930
  83     0.015856231144
  84     0.013699621334
  85    -0.008245845871
  86    -0.025301692141
  87    -0.037889534408
  88    -0.001975781404
  89    -0.001457079685
  90     0.003841113779
  91    -0.006625284307
  92    -0.030099072347
  93    -0.020965440479
  94    -0.001878656031
  95     0.001503164352
  96    -0.002535471532
  97     0.000782663330
  98     0.015642659112
  99     0.005507884997
  100   -0.002752953276
  101    0.003742807031
  102    0.004547236833
 Sym=     1a
 Ene= -9.16899428335997E-01
Spin= Alpha
 Occup= 2
  1      0.004131905224
  2      0.008979991086
  3      0.024178416525
  4     -0.255232026898
  5     -0.087964571160
  6      0.032369054942
  7     -0.027301910163
  8     -0.036644454584
  9      0.037601474722
  10    -0.203535318028
  11     0.033650250059
  12     0.038535497721
  13    -0.084681896060
  14    -0.018325159380
  15     0.000238934913
  16    -0.000240215229
  17     0.000001280316
  18    -0.000261018736
  19     0.000114786139
  20     0.000033372302
  21     0.035124594035
  22    -0.045525646871
  23     0.010401052836
  24    -0.010912672927
  25    -0.009446228109
  26     0.062676514513
  27    -0.001181768410
  28    -0.002205123434
  29    -0.004715206205
  30    -0.001832346591
  31     0.004187323116
  32    -0.002824453346
  33     0.003417855290
  34    -0.001228839578
  35     0.009150566307
  36    -0.001650423528
  37     0.000781476314
  38     0.015648882199
  39     0.005527252287
  40     0.003444249255
  41    -0.003563248493
  42    -0.004210042889
  43    -0.025327938081
  44    -0.081044022086
  45     0.155076847286
  46     0.508748449817
  47     0.125157294860
  48    -0.140459764270
  49     0.176204989546
  50     0.197181639245
  51    -0.058906318909
  52    -0.006302751715
  53     0.144710783864
  54    -0.030841714032
  55    -0.023073441580
  56     0.090582129775
  57    -0.002300795117
  58    -0.001104002064
  59     0.003404797181
  60    -0.004665689195
  61    -0.006522763562
  62     0.009223225274
  63    -0.031630431829
  64     0.044977309632
  65    -0.013346877803
  66    -0.021996111083
  67    -0.000314665283
  68     0.005233416955
  69    -0.001071795544
  70    -0.006451853002
  71    -0.001686161551
  72    -0.000272198338
  73     0.003496672793
  74     0.001811846864
  75     0.001710162955
  76     0.005159396342
  77     0.000450376246
  78    -0.003655897696
  79    -0.008241737952
  80    -0.025328879555
  81    -0.037934525870
  82     0.001260477965
  83     0.001269307104
  84    -0.004190235304
  85     0.193477161036
  86     0.253305614238
  87     0.033545101886
  88     0.010699896948
  89    -0.015986412339
  90    -0.013942153593
  91    -0.006624369180
  92    -0.030148221106
  93    -0.021022343060
  94    -0.002316147695
  95    -0.002575265604
  96     0.000481914171
  97    -0.009612032326
  98    -0.073129579360
  99     0.023135436663
  100   -0.000179263853
  101    0.011107017755
  102   -0.003765049000
 Sym=     1a
 Ene= -9.16802107900039E-01
Spin= Alpha
 Occup= 2
  1     -0.004132606315
  2     -0.008980022313
  3     -0.024117043043
  4      0.254798839829
  5      0.087810553121
  6      0.013904614591
  7      0.016229348377
  8     -0.051755316229
  9     -0.028221572016
  10     0.200927770401
  11    -0.051417465216
  12     0.001377856333
  13     0.074915558787
  14    -0.057809537956
  15    -0.000146873363
  16     0.000282290146
  17    -0.000135416783
  18     0.000139521405
  19    -0.000173460235
  20     0.000169923166
  21    -0.018138172626
  22     0.064526846648
  23    -0.046388674022
  24    -0.037699565199
  25     0.001635648594
  26     0.023235065965
  27     0.001564581762
  28     0.006007157593
  29    -0.002212643688
  30    -0.006123593460
  31    -0.000829060251
  32    -0.000562584045
  33     0.004024486754
  34    -0.007230387387
  35     0.003531157063
  36     0.000780515062
  37     0.008225685135
  38     0.025272043127
  39     0.037877630939
  40     0.002559013516
  41    -0.002214657455
  42    -0.003086355568
  43     0.025323410371
  44     0.081004713847
  45    -0.155015247177
  46    -0.507983129184
  47    -0.124883185491
  48    -0.097199441931
  49    -0.119349330094
  50     0.256910388654
  51    -0.082933433149
  52     0.039983129852
  53     0.126409853431
  54    -0.053500271618
  55     0.043146313649
  56     0.070605269868
  57     0.002968961814
  58     0.004569846237
  59    -0.007538808051
  60    -0.003735163658
  61     0.007034796151
  62     0.006367353655
  63     0.020429367090
  64    -0.036452127545
  65     0.016022760455
  66     0.003072155372
  67     0.011750615014
  68     0.033937967045
  69    -0.001800890288
  70     0.005423166574
  71     0.003739663437
  72     0.001767765457
  73    -0.001498150464
  74    -0.000873031053
  75     0.000648382406
  76    -0.005777791004
  77    -0.004144253942
  78     0.002208026087
  79    -0.000800271331
  80    -0.015706850738
  81    -0.005606154658
  82     0.001801232655
  83     0.002294317062
  84    -0.005806217943
  85     0.009599165492
  86     0.073064252397
  87    -0.023199600217
  88     0.002020627933
  89    -0.011516621947
  90     0.000230085325
  91     0.006619453478
  92     0.030173780801
  93     0.021004076928
  94     0.001195614732
  95     0.002836537142
  96     0.001637067901
  97    -0.193493158052
  98    -0.253528031040
  99    -0.033415252913
  100    0.006884183936
  101    0.011821817658
  102   -0.019491910560
 Sym=     1a
 Ene= -9.16795589283990E-01
Spin= Alpha
 Occup= 2
  1     -0.025324636724
  2     -0.081005797099
  3      0.155010232755
  4      0.508111199716
  5      0.124902961482
  6     -0.093991254078
  7     -0.118498787568
  8      0.258522682455
  9     -0.066917406352
  10     0.044187921379
  11     0.134326021147
  12    -0.041800979031
  13     0.046231803257
  14     0.076170413282
  15    -0.004076574362
  16    -0.005183284421
  17     0.009259858783
  18     0.002212339002
  19    -0.005330538360
  20    -0.006505800652
  21    -0.035688814643
  22     0.036103479119
  23    -0.000414664476
  24    -0.006172017769
  25     0.002249359049
  26    -0.029598388025
  27     0.000999223500
  28     0.003912495661
  29     0.002383249258
  30    -0.001138963618
  31    -0.002331420760
  32     0.000546221786
  33    -0.000201635384
  34    -0.002917742996
  35    -0.003743686195
  36     0.005752766503
  37     0.193517708598
  38     0.253409040047
  39     0.033603076158
  40     0.006343597146
  41     0.011671038685
  42    -0.019724047730
  43     0.004134086512
  44     0.008978165266
  45     0.024146232322
  46    -0.254910402627
  47    -0.087900130231
  48     0.025042369042
  49     0.019121138186
  50    -0.046302628971
  51    -0.026325855268
  52     0.201489673255
  53    -0.050496251878
  54     0.012855193694
  55     0.077993822469
  56    -0.052105683930
  57     0.000053311564
  58    -0.000038056402
  59    -0.000015255162
  60     0.000389579954
  61    -0.000031068932
  62     0.000050231168
  63     0.021594831047
  64    -0.063731480187
  65     0.042136649140
  66     0.040043746087
  67    -0.005677026098
  68    -0.023651480265
  69     0.001464919034
  70     0.006688667375
  71    -0.002081491753
  72    -0.005473904698
  73    -0.002838079590
  74    -0.001876000982
  75     0.003508509573
  76    -0.006135709368
  77     0.004668615215
  78     0.001275569474
  79    -0.009594201288
  80    -0.073090601563
  81     0.023145569360
  82     0.003330574377
  83    -0.011182333566
  84     0.000872341712
  85     0.000801595876
  86     0.015711437198
  87     0.005553955109
  88     0.002492890327
  89     0.002474706123
  90    -0.005468337508
  91    -0.006615208964
  92    -0.030095883424
  93    -0.020989612881
  94    -0.002992994919
  95     0.001745969527
  96    -0.000416055295
  97    -0.008230034581
  98    -0.025274007893
  99    -0.037871247983
  100    0.001844849954
  101   -0.002398530996
  102   -0.003435643087
 Sym=     1a
 Ene= -6.29825589748757E-01
Spin= Alpha
 Occup= 2
  1     -0.008302740681
  2     -0.036331162434
  3      0.067969773305
  4      0.084457290004
  5      0.105196555989
  6      0.273492721455
  7      0.155361557276
  8      0.123656652770
  9      0.293557275034
  10     0.190545801841
  11     0.129647183269
  12     0.119955175333
  13     0.071734536527
  14     0.053934481951
  15     0.000131950801
  16     0.006953323843
  17    -0.007085274644
  18     0.016521210306
  19     0.002568974060
  20     0.006555179532
  21     0.002828916702
  22     0.031193622650
  23    -0.034022539352
  24     0.042076682950
  25     0.022386773228
  26     0.011346601702
  27    -0.005760775676
  28     0.003002534010
  29    -0.004306326523
  30     0.011624059118
  31     0.001827784496
  32     0.001712215775
  33    -0.003895167509
  34    -0.005856106587
  35     0.004065327528
  36     0.002328957357
  37     0.001543161472
  38     0.010806586606
  39    -0.022046228758
  40     0.006693189274
  41     0.006662544656
  42    -0.001372108007
  43    -0.008306557556
  44    -0.036354952166
  45     0.068085362719
  46     0.084156171982
  47     0.105850905522
  48     0.299126172395
  49    -0.006644218113
  50     0.157416045074
  51     0.328282500547
  52    -0.028845260623
  53     0.175453924746
  54     0.132462406991
  55    -0.006314873424
  56     0.070043429854
  57     0.008310052197
  58    -0.006498209278
  59    -0.001811842919
  60    -0.012127226175
  61     0.011100498979
  62    -0.006491844400
  63     0.023139393833
  64    -0.002263087174
  65    -0.020876306659
  66    -0.028976966134
  67     0.043545916185
  68    -0.021036760599
  69    -0.002089815565
  70     0.006426062785
  71    -0.006188186468
  72     0.003368071278
  73    -0.007279537427
  74     0.006918004999
  75    -0.000564289480
  76    -0.001341930502
  77     0.001384318361
  78    -0.007606343508
  79     0.001519117302
  80     0.010689553435
  81    -0.021887475912
  82     0.003425669814
  83     0.007419054337
  84     0.004860206872
  85     0.001528900460
  86     0.010759634032
  87    -0.021990089266
  88     0.008419147120
  89    -0.004354749223
  90     0.000941578275
  91    -0.019333094867
  92    -0.411798067422
  93    -0.126490134508
  94     0.006401354906
  95     0.001668800651
  96     0.003139035101
  97     0.001523998898
  98     0.010742716698
  99    -0.022081340641
  100    0.005157105956
  101   -0.003585441605
  102    0.007186539464
 Sym=     1a
 Ene= -3.02851588696485E-01
Spin= Alpha
 Occup= 0
  1      0.014884490368
  2      0.043382691220
  3     -0.036599946497
  4     -0.194819365868
  5     -0.162599464783
  6     -0.077103751432
  7     -0.038292556732
  8     -0.035773011540
  9     -0.137057779192
  10    -0.129711311514
  11    -0.055773439901
  12    -0.096057477979
  13    -0.100021556812
  14    -0.049999313550
  15     0.000104894473
  16     0.001729865784
  17    -0.001834760257
  18     0.001724277723
  19     0.001283314996
  20     0.000426752030
  21     0.010845826504
  22    -0.037198050383
  23     0.026352223879
  24    -0.017003684068
  25    -0.010131572189
  26    -0.001367004108
  27     0.002934563049
  28    -0.003883691570
  29     0.004486836204
  30    -0.007706547581
  31    -0.002343241574
  32    -0.005196794568
  33     0.003769418104
  34     0.007553760586
  35    -0.000822927886
  36    -0.004985856454
  37    -0.008805113767
  38     0.036462771138
  39     0.006943496736
  40    -0.001249220829
  41    -0.002261971517
  42    -0.002984986645
  43     0.014482971408
  44     0.043320372423
  45    -0.046287331613
  46    -0.123426786123
  47    -0.154006809995
  48    -0.082230354447
  49    -0.001966840718
  50    -0.044247328541
  51    -0.157621942292
  52     0.028980198157
  53    -0.101782537937
  54    -0.129335176177
  55     0.019058859638
  56    -0.046038188029
  57     0.000557291607
  58     0.000398679884
  59    -0.000955971491
  60    -0.001217346835
  61     0.001859285228
  62    -0.001507171497
  63    -0.012640616272
  64    -0.009831895694
  65     0.022472511966
  66     0.020602006193
  67    -0.025281753529
  68     0.009211907120
  69    -0.000093605193
  70    -0.003481129052
  71     0.006496362272
  72    -0.000865457955
  73     0.003292755643
  74    -0.008242033082
  75     0.000991042500
  76     0.001377669077
  77    -0.000473751506
  78     0.006326353981
  79    -0.008230701705
  80     0.036782601369
  81    -0.003825247854
  82    -0.003766280621
  83    -0.002148904270
  84     0.001425487199
  85    -0.008138287726
  86     0.032493317347
  87    -0.002002277166
  88    -0.002297533295
  89     0.002025973100
  90    -0.003967763686
  91     0.346202526974
  92     1.083879966602
  93     0.307110876152
  94    -0.045857331082
  95    -0.012017390154
  96    -0.022760512976
  97    -0.003756885038
  98    -0.001433672800
  99     0.042339220381
  100    0.005642916610
  101    0.006118761943
  102   -0.004704769729
 Sym=     1a
 Ene= -1.60127086916725E-01
Spin= Alpha
 Occup= 0
  1      0.007218608015
  2      0.059542375285
  3     -0.165399662389
  4      0.061554632771
  5     -0.125996387925
  6     -0.306138416783
  7     -0.245585903554
  8     -0.129468642342
  9     -0.401505143838
  10    -0.166521396762
  11    -0.189186114373
  12    -0.142613874283
  13    -0.147972863287
  14    -0.056307563150
  15    -0.001891480240
  16    -0.003940336638
  17     0.005831816878
  18    -0.019865557051
  19    -0.002194921930
  20    -0.008986603301
  21    -0.036256217694
  22     0.015875170121
  23     0.020381047573
  24    -0.104414758983
  25    -0.024339824373
  26    -0.053276779534
  27     0.019647075988
  28    -0.011706041129
  29     0.008135797510
  30    -0.036272925282
  31     0.000811795316
  32     0.002883243176
  33     0.009913606801
  34     0.014893506912
  35    -0.013798560947
  36    -0.000666692675
  37    -0.002220744862
  38    -0.057414448942
  39     0.005649579383
  40    -0.006471996320
  41    -0.010810789769
  42    -0.000028323452
  43    -0.007226838433
  44    -0.059536363750
  45     0.165440516980
  46    -0.061674575297
  47     0.126331432441
  48     0.356408028010
  49    -0.073448467801
  50     0.195716476306
  51     0.420282152079
  52     0.046925259183
  53     0.214143731309
  54     0.176323360179
  55    -0.065036929452
  56     0.100516126557
  57     0.011235364744
  58    -0.011431463521
  59     0.000196098777
  60    -0.012900167792
  61     0.011946772000
  62    -0.005938929751
  63     0.078318530861
  64    -0.085127370788
  65     0.006808839927
  66    -0.043114335957
  67     0.068243106510
  68    -0.013968753900
  69    -0.010384922589
  70     0.021708089658
  71    -0.011968357665
  72     0.015693927914
  73    -0.023852056979
  74     0.009788258344
  75    -0.001761092204
  76    -0.005272401504
  77     0.006268978447
  78    -0.022751210323
  79    -0.002193852722
  80    -0.057397428050
  81     0.005460202642
  82    -0.004853640042
  83    -0.011144058908
  84    -0.003108485063
  85     0.002212772553
  86     0.057417930003
  87    -0.005667359304
  88     0.009335808643
  89    -0.007468081025
  90     0.003841190743
  91    -0.000005777476
  92    -0.000115716583
  93    -0.000096378174
  94    -0.000757855761
  95     0.004856336237
  96    -0.001012366796
  97     0.002205055132
  98     0.057411665415
  99    -0.005638130907
  100    0.007730180510
  101   -0.007122084458
  102    0.006952291192
 Sym=     1a
 Ene= 2.12576193744982E-01
Spin= Alpha
 Occup= 0
  1      0.001647010747
  2      0.001757259866
  3     -0.008272063744
  4      0.092623250717
  5     -0.002046784509
  6      0.039637103604
  7     -0.007353709482
  8     -0.057593138001
  9      0.050286213211
  10    -0.005916642331
  11    -0.079008886239
  12     0.080913809157
  13     0.013088557405
  14    -0.161051249791
  15     0.000143603103
  16     0.000177029737
  17    -0.000320632840
  18    -0.001118247704
  19    -0.000257688380
  20     0.001133905729
  21    -0.000159750640
  22     0.012765871353
  23    -0.012606120713
  24    -0.019910981886
  25    -0.006979849208
  26     0.026880786343
  27    -0.001180317474
  28     0.003592646170
  29    -0.002363825640
  30    -0.002652429390
  31    -0.000311790669
  32    -0.000558546458
  33     0.004235991454
  34    -0.004508249963
  35     0.003729951349
  36     0.000442441348
  37     0.004415536023
  38     0.053215221830
  39     0.103086707375
  40     0.001823874359
  41    -0.001859557346
  42    -0.001166973271
  43    -0.039637893313
  44    -0.134177875294
  45     0.249751641377
  46     0.642985662738
  47     0.133228779022
  48    -0.211627401172
  49     0.258091437161
  50     0.302699603981
  51    -0.283908777796
  52     0.390553917907
  53     0.385593991064
  54    -0.209862032757
  55     0.200360492247
  56     0.324414914157
  57    -0.001611626860
  58    -0.001637488331
  59     0.003249115191
  60    -0.003821475411
  61    -0.005772678648
  62     0.008375379953
  63    -0.003120174386
  64    -0.016511077992
  65     0.019631252378
  66    -0.011788709176
  67    -0.019815313880
  68     0.039857348848
  69     0.010122200031
  70    -0.009975736449
  71    -0.006470729811
  72    -0.007012759092
  73     0.000893226411
  74     0.003564766732
  75    -0.006567597318
  76     0.012490628484
  77     0.005116628301
  78    -0.018891526386
  79    -0.002945324349
  80    -0.060307738803
  81    -0.046025584965
  82     0.002911682011
  83    -0.003008413289
  84    -0.004462040194
  85    -0.412719892438
  86    -1.103545962180
  87    -0.382530296767
  88    -0.014232994823
  89     0.017538672848
  90     0.016745057712
  91    -0.004075997733
  92    -0.034678226881
  93    -0.014945540871
  94    -0.000675417481
  95     0.001633680342
  96     0.001407553536
  97    -0.008257924963
  98     0.003601374281
  99     0.102205085294
  100    0.001052744897
  101    0.006839423700
  102   -0.003891606313
 Sym=     1a
 Ene= 2.12614739466793E-01
Spin= Alpha
 Occup= 0
  1     -0.039635754254
  2     -0.134187720702
  3      0.249797355711
  4      0.642962625857
  5      0.133043244001
  6      0.217763894986
  7     -0.256535804687
  8     -0.299713173330
  9      0.294356342002
  10    -0.387884550161
  11    -0.380449272979
  12     0.212083925819
  13    -0.199898840819
  14    -0.323325348578
  15     0.000070061062
  16    -0.002392072982
  17     0.002322011920
  18    -0.005251999435
  19    -0.006384661524
  20     0.007266872823
  21     0.010213001996
  22    -0.020477951372
  23     0.010264949376
  24    -0.018573653858
  25    -0.027059653737
  26     0.032706159126
  27    -0.009581088646
  28     0.008428542382
  29     0.007011414269
  30     0.005209385956
  31     0.002437232237
  32    -0.002248782656
  33     0.007644993351
  34    -0.013745308468
  35    -0.007158016698
  36     0.018369005255
  37    -0.008252141712
  38     0.003625159214
  39     0.102217486087
  40     0.000347080248
  41    -0.006475107212
  42     0.004578847768
  43     0.001649809459
  44     0.001758121633
  45    -0.008285223868
  46     0.092692272264
  47    -0.001982140893
  48    -0.025194385125
  49     0.011105917509
  50     0.064694018208
  51    -0.035070672705
  52     0.009846143190
  53     0.086481242601
  54    -0.072894507381
  55    -0.011087221251
  56     0.165006862436
  57    -0.000110218277
  58     0.000464744596
  59    -0.000354526319
  60    -0.000517100208
  61    -0.000369289161
  62     0.001438252370
  63    -0.003290223407
  64     0.012982688310
  65    -0.009692464903
  66    -0.019922364966
  67    -0.004432872573
  68     0.028000670091
  69     0.000041796797
  70    -0.002845254270
  71     0.002016768404
  72     0.004094092219
  73     0.000774173177
  74     0.001124407431
  75    -0.004150168507
  76     0.003043136000
  77    -0.003830186178
  78    -0.001783148071
  79    -0.412755942450
  80    -1.103663153524
  81    -0.382440159760
  82     0.012102602231
  83    -0.018101442490
  84    -0.017807778388
  85    -0.002944521345
  86    -0.060307105316
  87    -0.046002767749
  88    -0.003004984923
  89     0.002985838865
  90     0.004419293012
  91    -0.004085868138
  92    -0.034628533467
  93    -0.014892869886
  94     0.001358167727
  95    -0.001445649326
  96    -0.001075844163
  97     0.004417090577
  98     0.053214933972
  99     0.103126069266
  100   -0.000650582611
  101    0.002163415591
  102    0.001740263189
 Sym=     1a
 Ene= 2.12615922675036E-01
Spin= Alpha
 Occup= 0
  1     -0.039646413780
  2     -0.134175022520
  3      0.249675334315
  4      0.643027798169
  5      0.133120923090
  6     -0.144156299234
  7     -0.169728988427
  8      0.391771354463
  9     -0.179050352994
  10    -0.274317213943
  11     0.524055493117
  12    -0.160770602656
  13    -0.110265960168
  14     0.388955259487
  15    -0.003136366104
  16    -0.005279700417
  17     0.008416066521
  18     0.002092458780
  19    -0.004686803211
  20    -0.005500011932
  21    -0.009211287057
  22    -0.032013473475
  23     0.041224760532
  24     0.011869210857
  25    -0.015037539262
  26    -0.018169750506
  27     0.008493792593
  28     0.009472986156
  29     0.007727159708
  30     0.002469660513
  31     0.003819634704
  32    -0.006556037726
  33    -0.013865279088
  34    -0.016528979300
  35    -0.003811034902
  36     0.014000590812
  37    -0.412743603707
  38    -1.103667840305
  39    -0.382309210454
  40    -0.009438484158
  41    -0.012993555317
  42     0.023163935348
  43     0.001644788437
  44     0.001766483470
  45    -0.008266577600
  46     0.092211907200
  47    -0.002137012523
  48     0.039133871545
  49    -0.004267072900
  50    -0.058203219732
  51     0.051062073406
  52    -0.010748433459
  53    -0.077996641094
  54     0.090876661244
  55    -0.050357179183
  56    -0.147689224112
  57    -0.000410788067
  58    -0.000120139418
  59     0.000530927485
  60     0.000938309392
  61    -0.000305356570
  62    -0.001195304600
  63    -0.008923834738
  64    -0.000422339858
  65     0.009346174596
  66     0.013376271931
  67    -0.003903492306
  68    -0.032811195107
  69    -0.001591242266
  70     0.000168498561
  71    -0.004269046447
  72    -0.001490941626
  73     0.000716586591
  74    -0.000780050863
  75     0.003625817151
  76    -0.000942651132
  77     0.006507577696
  78     0.000028613261
  79    -0.008242109790
  80     0.003602714520
  81     0.102201797243
  82     0.003258992468
  83    -0.007171008993
  84    -0.000984980942
  85     0.004421923136
  86     0.053318359490
  87     0.103084877026
  88     0.001266414825
  89     0.001680011896
  90    -0.001905823905
  91    -0.004063197103
  92    -0.034754634423
  93    -0.014982369102
  94    -0.000233685589
  95    -0.001077944193
  96     0.001979621613
  97    -0.002923460681
  98    -0.060127497116
  99    -0.045818554237
  100    0.002164397030
  101    0.001721831547
  102   -0.005441984180
 Sym=     1a
 Ene= 2.12664291103271E-01
Spin= Alpha
 Occup= 0
  1      0.001645258299
  2      0.001762276628
  3     -0.008230006202
  4      0.092097389045
  5     -0.002150441302
  6     -0.024686011561
  7      0.008033652309
  8      0.065290460344
  9     -0.035807210693
  10     0.014676172884
  11     0.085496947386
  12    -0.082765579618
  13     0.052416746145
  14     0.151613025609
  15    -0.000320366996
  16    -0.000399490999
  17     0.000719857995
  18     0.000331954293
  19    -0.000057556418
  20    -0.001440365342
  21    -0.012021778374
  22    -0.000266098258
  23     0.012287876632
  24     0.013344682230
  25    -0.001337663100
  26    -0.031700444757
  27     0.001187790700
  28     0.000864717718
  29     0.003006480154
  30     0.002871081878
  31    -0.002326209992
  32     0.001316580731
  33    -0.004464670327
  34     0.001166069432
  35    -0.005350197129
  36     0.000227411989
  37    -0.002920454525
  38    -0.060100967864
  39    -0.045808144524
  40    -0.002256373805
  41    -0.001740404615
  42     0.005396220748
  43    -0.039648241474
  44    -0.134180463474
  45     0.249666083261
  46     0.643296691298
  47     0.133109542776
  48     0.150359953057
  49     0.171401550333
  50    -0.388707739734
  51     0.189679642949
  52     0.277141031480
  53    -0.518931288117
  54     0.163071221050
  55     0.110889346226
  56    -0.387682484586
  57    -0.002278836968
  58    -0.004676867866
  59     0.006955704834
  60     0.003560822379
  61    -0.006163163394
  62    -0.005295720645
  63     0.000149952276
  64    -0.029461639401
  65     0.029311687125
  66     0.018920447976
  67    -0.026415375611
  68    -0.019095549953
  69    -0.006503311372
  70    -0.010454974281
  71    -0.008973361668
  72    -0.004399378072
  73    -0.004585054313
  74     0.007808226895
  75     0.013124485856
  76     0.018611874230
  77     0.004230801111
  78    -0.011382485216
  79     0.004425286133
  80     0.053346308698
  81     0.103025037015
  82    -0.000098937534
  83    -0.001372919747
  84     0.002485357115
  85    -0.008242206090
  86     0.003581343628
  87     0.102141247089
  88    -0.001865487942
  89     0.007538100439
  90     0.001666383061
  91    -0.004064167310
  92    -0.034796783884
  93    -0.014995263411
  94     0.000937675405
  95     0.001258495855
  96    -0.001638284499
  97    -0.412734096087
  98    -1.103900343760
  99    -0.382151152397
  100    0.007350519866
  101    0.012465200227
  102   -0.024233646260
 Sym=     1a
 Ene= 2.66979266265624E-01
Spin= Alpha
 Occup= 0
  1      0.040301107821
  2      0.185687412295
  3     -0.508738564987
  4     -0.135725665831
  5     -0.003760012711
  6      0.201809192724
  7     -0.467352493368
  8      0.164069723675
  9      0.110227795276
  10    -0.149139767296
  11     0.076307114859
  12     0.062873173272
  13    -0.140402658425
  14     0.050565865848
  15     0.006041648791
  16    -0.011829033466
  17     0.005787384675
  18     0.004501728444
  19    -0.001021787912
  20     0.005039816251
  21    -0.049275783138
  22     0.107028691529
  23    -0.057752908391
  24    -0.069499598071
  25     0.024700653190
  26    -0.062824765389
  27     0.002618658548
  28    -0.023064887823
  29    -0.004679712423
  30    -0.006857003897
  31     0.009455836146
  32    -0.000735565476
  33     0.003343704784
  34     0.021488958094
  35     0.007014058532
  36    -0.009397293016
  37     0.004536263326
  38     0.008984016655
  39    -0.016908270298
  40     0.006242783879
  41    -0.002605969381
  42    -0.012166086711
  43    -0.040304533698
  44    -0.185679065296
  45     0.508703531482
  46     0.135737957071
  47     0.003826660673
  48    -0.044163086321
  49    -0.531242915225
  50     0.043327400439
  51    -0.056300735423
  52    -0.192417479123
  53    -0.005413396563
  54    -0.015344572967
  55    -0.160741814191
  56     0.011998640538
  57    -0.006615204376
  58     0.012779216136
  59    -0.006164011760
  60    -0.002472371612
  61     0.000419724954
  62    -0.004118535556
  63     0.070109360049
  64    -0.141331390134
  65     0.071222030085
  66    -0.003573376289
  67    -0.002979785955
  68     0.029487006237
  69    -0.006789179853
  70    -0.012292149681
  71    -0.013545305588
  72     0.010099568146
  73     0.002266387179
  74     0.004784038460
  75    -0.000990927549
  76     0.014225262188
  77     0.013388895983
  78    -0.016063097099
  79     0.004502759384
  80     0.008870077233
  81    -0.016842182193
  82    -0.006564456488
  83     0.000542147365
  84     0.012254385427
  85    -0.004511213956
  86    -0.008847135128
  87     0.016890355116
  88    -0.005936642397
  89     0.000700061936
  90     0.012558498436
  91     0.000007620980
  92    -0.000023555654
  93    -0.000019111058
  94    -0.001904817142
  95     0.012043867964
  96    -0.002505701456
  97    -0.004535746720
  98    -0.009001961867
  99     0.016829279014
  100    0.006865072775
  101   -0.002433087370
  102   -0.011862248754
 Sym=     1a
 Ene= 8.89054666110073E-01
Spin= Alpha
 Occup= 0
  1     -0.020176457021
  2      0.066101002912
  3     -0.327192550783
  4      0.674442408018
  5     -0.374040585507
  6      0.022072952685
  7     -0.141469901809
  8      0.029278017576
  9     -0.327692338612
  10     0.351077541392
  11    -0.217100073186
  12     0.022127170410
  13    -0.241872146488
  14     0.040482859514
  15     0.009626801237
  16    -0.016662444018
  17     0.007035642781
  18    -0.002250522134
  19     0.002355775292
  20     0.002107750059
  21     0.059828002034
  22    -0.130424055689
  23     0.070596053655
  24    -0.132487342390
  25     0.017929903913
  26    -0.042787735065
  27     0.009834257281
  28    -0.119151134342
  29    -0.028281459318
  30    -0.023024161989
  31     0.063410022105
  32     0.001064463766
  33     0.009830121316
  34     0.096447999485
  35     0.036879095556
  36    -0.028718315264
  37     0.014472434948
  38     0.144054797742
  39    -0.129188745441
  40     0.013752655418
  41     0.000827222090
  42    -0.039122250167
  43     0.042467674802
  44    -0.193099487329
  45     0.982160499049
  46    -1.698907719741
  47     1.034029952810
  48     0.032428366270
  49    -0.844955456207
  50     0.122210235522
  51    -0.007301390910
  52     1.025057745805
  53    -0.129400884534
  54     0.041991436498
  55     0.119233608856
  56     0.009077224988
  57    -0.054008030117
  58     0.116249216104
  59    -0.062241185987
  60    -0.046792178360
  61     0.019503258566
  62    -0.052128440328
  63    -0.041147124278
  64     0.317911083760
  65    -0.276763959482
  66    -0.288797124314
  67     0.269472215385
  68    -0.259440487514
  69    -0.067224553006
  70    -0.115077475341
  71    -0.102142706927
  72     0.114189918036
  73     0.064207090715
  74     0.021131232039
  75    -0.023998715870
  76     0.090185543809
  77     0.115907589618
  78    -0.076966759149
  79     0.014544146018
  80     0.142891179033
  81    -0.129827237283
  82    -0.023750538581
  83     0.009793995569
  84     0.032515550184
  85    -0.012795676299
  86     0.053910205257
  87    -0.091724980756
  88     0.004653355297
  89    -0.048558479729
  90     0.045080063007
  91    -0.049938364740
  92     0.317195443511
  93    -0.136694175606
  94    -0.014686923369
  95     0.012809703959
  96    -0.009330138656
  97    -0.012804463564
  98     0.057375651434
  99    -0.091014668531
  100    0.034311645151
  101   -0.056063597053
  102   -0.011382421537
 Sym=     1a
 Ene= 8.89170464211416E-01
Spin= Alpha
 Occup= 0
  1     -0.042500690126
  2      0.193138804611
  3     -0.982141373128
  4      1.698645878509
  5     -1.032809183220
  6      0.226712494476
  7     -0.794485058295
  8      0.217691187797
  9     -0.306237496339
  10     0.947480475931
  11    -0.276042681302
  12    -0.076221950991
  13     0.088402622940
  14    -0.048976182165
  15     0.062318333195
  16    -0.129857547777
  17     0.067539214582
  18     0.017756772941
  19    -0.010835669194
  20     0.038881973072
  21     0.170917993494
  22    -0.531543374828
  23     0.360625381334
  24    -0.166179227238
  25    -0.134264845036
  26     0.051948275517
  27     0.000356378951
  28    -0.194484249651
  29    -0.023627178936
  30    -0.011671522341
  31     0.113112019915
  32    -0.037784779663
  33     0.011193389805
  34     0.147815981749
  35     0.069483966594
  36    -0.030519263666
  37     0.012763595328
  38    -0.057710605148
  39     0.090725326935
  40     0.012679682834
  41    -0.061724264243
  42    -0.021995113295
  43     0.020163844148
  44    -0.066104979925
  45     0.327335375765
  46    -0.674633626861
  47     0.373974420378
  48     0.022546529839
  49    -0.141379434043
  50     0.029537208282
  51     0.196618401716
  52     0.487335156636
  53     0.040333639125
  54     0.053961180001
  55    -0.233484403196
  56     0.056153911052
  57    -0.005912236639
  58     0.010557003600
  59    -0.004644766961
  60    -0.010774512223
  61     0.001521290628
  62    -0.008053174796
  63     0.022022262128
  64    -0.004299895171
  65    -0.017722366957
  66    -0.154541402359
  67     0.067482745853
  68    -0.088081291735
  69    -0.040986795101
  70    -0.063557717769
  71    -0.055292193402
  72     0.063013078167
  73     0.020389021074
  74     0.003637286261
  75    -0.008023522152
  76     0.064882605382
  77     0.070544975582
  78    -0.066766714001
  79     0.012837345501
  80    -0.053799468385
  81     0.091383408076
  82    -0.016999503164
  83    -0.054139044799
  84     0.034515051370
  85    -0.014539272915
  86    -0.142814377917
  87     0.129730750739
  88    -0.015726992731
  89     0.011861952505
  90     0.036437612473
  91     0.049932544796
  92    -0.317199746665
  93     0.136423693760
  94     0.009654476249
  95     0.019142824052
  96     0.002635413682
  97    -0.014488594438
  98    -0.144024084857
  99     0.129190481517
  100    0.021757786426
  101    0.002915091844
  102   -0.035179254169
 Sym=     1a
 Ene= 1.10958516183227E+00
Spin= Alpha
 Occup= 0
  1      0.015029421484
  2     -0.004027455111
  3     -0.172190050831
  4      0.971572599530
  5      0.672508406720
  6     -0.379435355156
  7      0.043258840064
  8      0.729543298087
  9      0.581327756003
  10     0.919588636252
  11    -1.647125184954
  12     0.545729160594
  13     0.379854162004
  14    -1.247816621074
  15     0.042071785484
  16     0.075104977072
  17    -0.117176762556
  18    -0.178938765972
  19    -0.012602600236
  20     0.319842490729
  21    -0.422488961383
  22     0.115714930482
  23     0.306774030901
  24     0.533000364231
  25     0.205660462684
  26    -1.225472954464
  27    -0.026758939446
  28    -0.019328120452
  29     0.096656445935
  30     0.097087827705
  31    -0.109274139101
  32     0.076765187664
  33    -0.061186943142
  34     0.135205533827
  35    -0.206443417808
  36     0.023858619497
  37    -0.105539848640
  38     0.742656987820
  39     0.205000644573
  40    -0.006060870550
  41     0.099937852578
  42    -0.056210566063
  43    -0.003296759476
  44     0.000778548781
  45     0.208954324986
  46    -1.588089569121
  47    -0.446392311289
  48     0.024106024290
  49     0.013560536373
  50    -0.056159945124
  51    -0.910208728028
  52     1.038452202156
  53     1.311995545431
  54    -0.484539343195
  55     0.534077597525
  56     0.787960722532
  57     0.004254380469
  58    -0.006606913770
  59     0.002352533301
  60     0.002779931281
  61     0.000788447069
  62     0.004845002979
  63     0.102700532583
  64    -0.404250573710
  65     0.301550041127
  66     0.393465702657
  67    -0.000420463462
  68    -0.470767747625
  69     0.043057943375
  70     0.038152449634
  71    -0.006568434883
  72    -0.034111550040
  73    -0.016846359617
  74    -0.014273521975
  75    -0.023656742975
  76    -0.034340522917
  77     0.023086002118
  78     0.005090347418
  79    -0.083538248936
  80    -0.293359307990
  81     0.149147070780
  82    -0.039737399761
  83    -0.110462477717
  84     0.202454605271
  85     0.024053380885
  86    -0.532198453963
  87    -0.331183426102
  88     0.007807418808
  89     0.088615842523
  90    -0.050756782496
  91     0.014906662363
  92    -0.038455490206
  93    -0.094139149623
  94    -0.011601110520
  95     0.006592448841
  96     0.007952130062
  97     0.000399842160
  98     0.577463853704
  99     0.109325579398
  100    0.020802647890
  101   -0.113864984615
  102    0.002368461597
 Sym=     1a
 Ene= 1.11103296563910E+00
Spin= Alpha
 Occup= 0
  1      0.002999310609
  2      0.000236864333
  3     -0.219055485975
  4      1.623453973265
  5      0.456799728652
  6      0.024227258151
  7      0.011989464752
  8     -0.055800078265
  9     -0.918524785324
  10     1.052865668747
  11     1.307311919788
  12    -0.540433673788
  13     0.529497944604
  14     0.737127469579
  15    -0.005508973396
  16     0.007630817285
  17    -0.002121843889
  18    -0.000804447364
  19    -0.000878693667
  20    -0.003556035092
  21    -0.039099622451
  22     0.404790240345
  23    -0.365690617894
  24    -0.399950615808
  25    -0.054202193856
  26     0.442610634791
  27     0.035061557551
  28     0.037400220604
  29    -0.000151688892
  30    -0.031967541749
  31     0.003305116119
  32    -0.010375760819
  33    -0.015072473899
  34    -0.053482777505
  35     0.010579272823
  36    -0.010949832668
  37    -0.001060495206
  38    -0.579520544896
  39    -0.093739867362
  40     0.032373439171
  41    -0.111133321190
  42     0.008527245978
  43    -0.014659433770
  44     0.004073505931
  45     0.174143959240
  46    -1.010370200637
  47    -0.662327930985
  48    -0.364437885735
  49     0.047628238513
  50     0.737819401427
  51     0.565975002471
  52     0.925854959789
  53    -1.666607861969
  54     0.477718113282
  55     0.389083796942
  56    -1.242490831383
  57    -0.048834613574
  58    -0.074668355489
  59     0.123502969063
  60     0.179446261334
  61     0.018084902405
  62    -0.317238929990
  63     0.227901457271
  64    -0.110249216789
  65    -0.117652240482
  66    -0.544857760228
  67    -0.035327954170
  68     1.294809725717
  69    -0.048763938750
  70    -0.030828129019
  71     0.131455876963
  72     0.094482848726
  73    -0.041387747226
  74     0.071332212960
  75    -0.029059159588
  76     0.082748022489
  77    -0.247698779119
  78    -0.028769045418
  79    -0.023871922403
  80     0.527054956369
  81     0.328367222331
  82    -0.000822857665
  83     0.085495760989
  84    -0.055597974037
  85     0.063461630956
  86     0.330991131902
  87    -0.207394467008
  88    -0.089165053101
  89    -0.125961300044
  90     0.183298082084
  91    -0.015685579003
  92     0.037484563807
  93     0.094022055157
  94    -0.001972098839
  95     0.009300356001
  96     0.012763217311
  97     0.104981414079
  98    -0.737508376776
  99    -0.192093013887
  100    0.006015222124
  101    0.101792365754
  102   -0.050178273751
 Sym=     1a
 Ene= 1.11583563152487E+00
Spin= Alpha
 Occup= 0
  1      0.003212296046
  2      0.007613816419
  3     -0.136633519963
  4      0.745784565791
  5      0.310515889405
  6     -0.005248691876
  7      0.014370235474
  8     -0.005426866559
  9     -0.004134948908
  10     0.128548468199
  11     0.029168805824
  12     0.018529917083
  13     0.239219904154
  14     0.218910437956
  15    -0.003002434044
  16     0.000555974327
  17     0.002446459717
  18    -0.003434184827
  19    -0.003795863069
  20    -0.002376709226
  21    -0.070705345468
  22    -0.010215895016
  23     0.080921240484
  24    -0.148731283186
  25    -0.075054237067
  26    -0.059407057048
  27     0.017234168617
  28     0.026574845785
  29     0.032237216346
  30    -0.043275322165
  31    -0.043873049847
  32    -0.020566521594
  33     0.020153258627
  34     0.008219152848
  35    -0.022684242699
  36    -0.019997259160
  37    -0.033517256462
  38    -0.090361643472
  39     0.012691007356
  40    -0.010112518805
  41    -0.015999618662
  42     0.009700993380
  43     0.009098584754
  44     0.003859346016
  45    -0.028413277907
  46     0.117919727222
  47     0.251562655226
  48    -0.003994798819
  49    -0.037701421397
  50     0.022328192583
  51     0.016469896835
  52     0.445999797683
  53    -0.227827501413
  54     0.308696014334
  55     0.252697354928
  56    -0.396465086111
  57    -0.002453433905
  58     0.000223046441
  59     0.002230387464
  60     0.001271214516
  61    -0.004962256641
  62     0.001239599859
  63    -0.054623376558
  64    -0.042474126627
  65     0.097097503185
  66     0.142889693779
  67    -0.130601243643
  68     0.035858830822
  69    -0.014931047394
  70    -0.027189212367
  71     0.048484159280
  72     0.020958245182
  73     0.024756435575
  74    -0.055048422136
  75    -0.000926143013
  76     0.011721720689
  77    -0.009999903453
  78     0.022304945185
  79    -0.042008288850
  80    -0.010845939147
  81     0.181635350100
  82     0.000318166598
  83    -0.010074882778
  84    -0.002084553745
  85    -0.033086159612
  86     0.046541996804
  87     0.156934102266
  88    -0.005564889432
  89    -0.008355051456
  90     0.000084975059
  91     1.063892423504
  92    -0.352787970877
  93    -1.104820482677
  94    -0.227119732981
  95    -0.051418889734
  96    -0.158205273687
  97     0.369077266075
  98    -0.544866486063
  99    -0.668513336355
  100    0.028177330655
  101   -0.058937734322
  102   -0.100665620950
 Sym=     1a
 Ene= 1.12997702545707E+00
Spin= Alpha
 Occup= 0
  1      0.016021150114
  2     -0.053370220817
  3      0.483604555471
  4     -1.494870844272
  5     -0.454781175432
  6     -0.003827932477
  7      0.079593644182
  8     -0.030866022704
  9     -0.121476081214
  10    -0.673754338231
  11     0.552200575101
  12    -0.446791124652
  13    -0.470256097866
  14     1.133297598837
  15    -0.000783709935
  16     0.001522881437
  17    -0.000739171502
  18     0.001905311914
  19     0.001140781008
  20    -0.002332365935
  21     0.180736523451
  22    -0.266884391655
  23     0.086147868204
  24     0.041584476827
  25     0.025572343954
  26     0.125794651093
  27     0.011608865991
  28    -0.027843038506
  29    -0.005804490838
  30     0.001929967782
  31     0.028449511539
  32    -0.020574550902
  33    -0.017504895881
  34     0.008905844541
  35     0.028362092555
  36    -0.012485114529
  37     0.027729099320
  38    -0.261540891450
  39    -0.663216172963
  40    -0.003919003066
  41    -0.008830747856
  42     0.009921023410
  43    -0.002967119002
  44    -0.005939152434
  45     0.112511202370
  46     0.091705893170
  47    -0.545426234144
  48    -0.083689988878
  49    -0.003080079723
  50     0.185753169636
  51     0.714883904619
  52    -1.260507298217
  53    -0.849295793674
  54     1.191203830596
  55    -1.166464302589
  56    -1.806188445510
  57    -0.011482488349
  58    -0.015124209613
  59     0.026606697962
  60     0.056113752167
  61     0.017208507215
  62    -0.101865545996
  63    -0.040255176106
  64    -0.027067057659
  65     0.067322233765
  66     0.129670416692
  67     0.037970486426
  68    -0.256834540238
  69    -0.086018484990
  70    -0.033160228798
  71     0.105879611537
  72     0.131954034320
  73     0.011601602949
  74     0.037648911698
  75    -0.016548126465
  76     0.032887512497
  77    -0.179701316995
  78     0.071572340451
  79     0.007066319802
  80     0.369744993575
  81     0.183239266194
  82    -0.022779028146
  83     0.048023419735
  84     0.017883132298
  85    -0.719529832267
  86     1.848985957300
  87     2.743678918639
  88     0.451054868826
  89     0.085718507603
  90    -0.737532574625
  91     0.055052494080
  92     0.043127278783
  93    -0.017569506404
  94    -0.032410274056
  95    -0.012266027811
  96    -0.001272695540
  97     0.019201690878
  98    -0.654047954311
  99    -0.588243266359
  100   -0.002777720170
  101    0.074375875058
  102   -0.042169608516
 Sym=     1a
 Ene= 1.18389812680109E+00
Spin= Alpha
 Occup= 0
  1     -0.002518577480
  2     -0.005498784246
  3      0.128243426331
  4     -0.091567975539
  5     -0.536734183288
  6      0.094964267691
  7      0.006212944961
  8     -0.182937073956
  9     -0.761517317962
  10     1.173919609716
  11     0.871829104199
  12    -1.111293319494
  13     1.066684091599
  14     1.697011462918
  15    -0.010372104209
  16    -0.015363367371
  17     0.025735471580
  18     0.058226047176
  19     0.016231470162
  20    -0.101894415400
  21    -0.017114456735
  22    -0.045508500926
  23     0.062622957661
  24     0.144427870254
  25     0.034906210118
  26    -0.237681434094
  27     0.073613090886
  28     0.025103780469
  29    -0.101174961811
  30    -0.127073855624
  31     0.029279955075
  32    -0.019839606392
  33     0.028311530471
  34    -0.062960210848
  35     0.155580061730
  36    -0.090912307081
  37     0.016889363213
  38    -0.636337102720
  39    -0.536546193182
  40    -0.004012741280
  41    -0.071823157925
  42     0.038445205063
  43     0.015201834228
  44    -0.050020785063
  45     0.441384784403
  46    -1.310711568467
  47    -0.401488798808
  48     0.005934064556
  49    -0.074659051245
  50     0.031065457406
  51     0.098955332242
  52     0.577760858978
  53    -0.556812107295
  54     0.402355468697
  55     0.408195516363
  56    -1.063306603197
  57    -0.000324600750
  58     0.001200352048
  59    -0.000875751298
  60     0.000005641888
  61     0.001276676653
  62    -0.002714844164
  63     0.133079874541
  64    -0.209252000894
  65     0.076172126353
  66     0.076562710331
  67     0.017353710240
  68     0.139920222045
  69    -0.012661056086
  70     0.019195736221
  71     0.020255876167
  72    -0.005818531515
  73    -0.021588234429
  74     0.003346487357
  75     0.022805120760
  76    -0.004165548211
  77    -0.030522596989
  78     0.006691539796
  79    -0.793093843227
  80     1.982872483638
  81     2.517883166245
  82    -0.277968762072
  83    -0.031313175268
  84     0.800002557357
  85     0.007251321324
  86     0.349435087909
  87     0.175451977857
  88     0.018784094028
  89    -0.045453981420
  90    -0.017179604857
  91     0.051651981350
  92     0.044040999919
  93    -0.013189824944
  94    -0.020899088278
  95    -0.002679573600
  96    -0.024959939663
  97     0.024852350279
  98    -0.268861543142
  99    -0.600562591714
  100    0.002639179191
  101    0.009672237616
  102   -0.012586124056
 Sym=     1a
 Ene= 1.21979960423142E+00
Spin= Alpha
 Occup= 0
  1     -0.108017548029
  2     -0.010069122242
  3      1.399970307213
  4     -5.659494452931
  5     -5.621817594909
  6     -0.026368056487
  7      0.352929839397
  8      0.039867129684
  9      0.747956890197
  10    -4.429436115745
  11     0.490441675693
  12     0.800140309879
  13    -1.274428893043
  14    -1.373621444912
  15     0.014431110778
  16    -0.002028687460
  17    -0.012402423318
  18    -0.000846871966
  19     0.012850605259
  20     0.017314088386
  21     0.942877040045
  22    -2.136614689548
  23     1.193737649503
  24     0.528552895553
  25    -0.456688643430
  26     0.873728812220
  27    -0.068023076114
  28    -0.268723929541
  29    -0.057214091275
  30     0.137812906713
  31     0.166361979476
  32    -0.022356239380
  33    -0.046550373375
  34     0.194169004705
  35     0.099116997797
  36    -0.009381647753
  37    -0.812383555854
  38     0.539595271643
  39     3.047207720202
  40     0.239518002961
  41    -0.200112155967
  42    -0.136737485687
  43     0.060281066657
  44    -0.134534737535
  45    -0.138449163918
  46     6.359118356742
  47     1.710506785293
  48     0.056482095337
  49    -0.321687406380
  50     0.067135153818
  51     0.426324310622
  52    -3.612083006000
  53     0.863014544458
  54    -0.418019622568
  55    -1.139529853444
  56     0.846901407564
  57    -0.025933432179
  58     0.045700761051
  59    -0.019767328872
  60    -0.026619259016
  61    -0.000559497513
  62    -0.019063296388
  63    -0.580002929415
  64     1.122395742861
  65    -0.542392813446
  66    -0.204696375459
  67     0.062228523517
  68    -0.407115324594
  69    -0.012842663596
  70    -0.090650712497
  71    -0.027533976115
  72     0.030000580203
  73     0.054190113395
  74    -0.021388875081
  75    -0.012770338916
  76     0.067430579817
  77     0.058329580451
  78    -0.030858649917
  79    -0.023751073749
  80    -0.614192784520
  81     0.054622680970
  82     0.041015715230
  83    -0.142273596467
  84     0.008486945583
  85    -0.016564622640
  86    -0.130732276151
  87    -0.226337815484
  88    -0.019160097993
  89     0.031211404519
  90     0.024621148564
  91     0.046168952279
  92     0.371288176002
  93     0.555900229210
  94    -0.035771689193
  95    -0.034692520216
  96    -0.003152324550
  97    -0.040427125751
  98     0.116010024041
  99     0.444297310035
  100    0.011023567351
  101   -0.000580647910
  102   -0.014863227457
 Sym=     1a
 Ene= 1.26714450269115E+00
Spin= Alpha
 Occup= 0
  1     -0.001553733619
  2     -0.006152162482
  3     -0.002335966546
  4      0.167884208825
  5      0.010460897347
  6     -0.028441125527
  7      0.000442021934
  8      0.059032345483
  9     -0.535704234526
  10     0.084510385598
  11     1.038376045526
  12     2.049663794771
  13    -0.480396882598
  14    -3.923293083066
  15    -0.003540537271
  16    -0.006121261314
  17     0.009661798585
  18     0.014083752338
  19    -0.003823280114
  20    -0.027618483095
  21     0.025918884037
  22    -0.083487290148
  23     0.057568406111
  24     0.215530412580
  25    -0.102230661986
  26    -0.456942686116
  27     0.014734595814
  28     0.013346326021
  29    -0.008949554286
  30     0.004996070188
  31    -0.041053898408
  32    -0.003260976300
  33    -0.024764604906
  34     0.023147923068
  35     0.015268063351
  36     0.044916357053
  37     0.724244961558
  38    -2.105122319388
  39     4.314543063533
  40     0.093001213339
  41     0.075384124284
  42     0.260213201549
  43     0.000295637763
  44    -0.000470186813
  45     0.011253930850
  46    -0.055929497015
  47    -0.017081319499
  48     0.007683908150
  49    -0.001332772399
  50    -0.014010596890
  51    -0.062303731564
  52     0.035133267695
  53     0.107281451056
  54    -1.069255755369
  55     0.278106918759
  56     2.029392538955
  57     0.003676604157
  58     0.003364688946
  59    -0.007041293103
  60    -0.010213639823
  61    -0.001476437963
  62     0.018394730751
  63    -0.042429674626
  64    -0.056157675356
  65     0.098587349982
  66     0.122857354630
  67     0.032781820090
  68    -0.198542419130
  69     0.016900559224
  70     0.002072602141
  71     0.007829681637
  72     0.001858069489
  73     0.000354427372
  74    -0.002826993222
  75    -0.024532549058
  76    -0.003135114939
  77    -0.007677627008
  78    -0.003081961179
  79    -0.751453491932
  80     1.929256938170
  81    -4.272878598625
  82    -0.215778770598
  83    -0.053151745081
  84    -0.015518217894
  85     0.058250796261
  86    -0.132506576924
  87    -1.086511721268
  88    -0.006377150452
  89     0.038169875571
  90    -0.024626545058
  91     0.002245951600
  92     0.005012970435
  93    -0.001722411579
  94    -0.006950261977
  95     0.001195029036
  96     0.014612872103
  97    -0.054362613742
  98     0.149541531535
  99     1.068775511301
  100    0.018122491688
  101   -0.043384033419
  102    0.003652369605
 Sym=     1a
 Ene= 1.28423378596259E+00
Spin= Alpha
 Occup= 0
  1      0.013657576545
  2     -0.037490262235
  3      0.358536260485
  4     -1.140559518639
  5     -0.314382954874
  6     -0.005774439418
  7      0.061405277727
  8     -0.015444852294
  9      0.136196458013
  10    -0.667438816090
  11     0.066720858034
  12     0.370210524207
  13    -0.517148417064
  14    -0.348768648688
  15     0.000483864762
  16    -0.001292964865
  17     0.000809100103
  18    -0.000749809246
  19    -0.000980245386
  20     0.001742510667
  21     0.135983462124
  22    -0.260048178358
  23     0.124064716234
  24     0.003516322730
  25     0.002162068432
  26     0.065891248832
  27    -0.006641074028
  28    -0.024825597879
  29     0.004308811200
  30    -0.005744942143
  31    -0.000069283743
  32    -0.015121498587
  33     0.014654877925
  34     0.033376318406
  35     0.009340621740
  36    -0.017344905779
  37     0.003859236367
  38     0.094890207768
  39     0.059012934018
  40     0.005021810070
  41     0.012475935778
  42    -0.023014288578
  43     0.000028904545
  44    -0.029559384242
  45     0.109282175862
  46     0.349469146685
  47    -0.187253732367
  48     0.028456635320
  49    -0.007231889713
  50    -0.042864741114
  51    -0.109170676304
  52    -0.705101460040
  53     0.541117474201
  54    -0.409664627383
  55    -0.524054400048
  56     1.250057833124
  57    -0.003915718508
  58     0.004959992391
  59    -0.001044273883
  60    -0.002270778303
  61    -0.001487746550
  62    -0.001048053498
  63    -0.114306665278
  64     0.127701337747
  65    -0.013394672469
  66    -0.077255403185
  67    -0.088672683967
  68     0.127475039568
  69    -0.005360043587
  70    -0.020279871425
  71    -0.023608692143
  72    -0.005729656416
  73     0.030619117227
  74    -0.030241192142
  75     0.012920909510
  76    -0.003410814579
  77     0.061915576437
  78     0.016817955801
  79     0.013617052278
  80    -0.059371855463
  81    -0.373908926123
  82    -0.004563511876
  83     0.007170595061
  84    -0.001096594840
  85    -0.000891660828
  86    -0.276399397112
  87    -0.320712702582
  88    -0.015352586410
  89     0.043710386660
  90    -0.007536453746
  91     0.461140273231
  92    -0.081833817824
  93    -0.457171360311
  94    -0.100803279716
  95    -0.027244799513
  96    -0.078523602263
  97    -1.067300864167
  98     1.328814986240
  99     1.852055461546
  100   -0.082157985067
  101    0.168851895044
  102    0.249476215518
 Sym=     1a
 Ene= 1.31744782063866E+00
Spin= Alpha
 Occup= 0
  1     -0.032034440758
  2     -0.030754675515
  3     -0.155046793597
  4      5.126806155903
  5     -2.156687991313
  6      0.048851775186
  7     -0.123143101651
  8     -0.075438752130
  9      0.004350433936
  10     4.123256904530
  11    -0.331403821900
  12     0.074394513919
  13    -0.186029030071
  14     0.475769478371
  15    -0.310490986196
  16     0.176173583595
  17     0.134317402601
  18    -0.219293868585
  19     0.085934080776
  20     0.099269422963
  21    -1.050671775251
  22     1.763405282836
  23    -0.712733507585
  24     0.763874228188
  25     0.250133360603
  26    -0.119740110846
  27    -0.097634011829
  28     0.027094638234
  29     0.033066995173
  30     0.201977893620
  31    -0.043179372025
  32    -0.054616462338
  33    -0.070988121201
  34     0.006828100274
  35     0.010252432927
  36    -0.123048441099
  37     0.064553493173
  38     0.251831931770
  39    -0.014162169343
  40    -0.014684052545
  41     0.058650429599
  42    -0.077864949143
  43    -0.065053146820
  44     0.017602630969
  45     0.936847665156
  46    -5.355849763664
  47     2.703374437688
  48     0.184623988328
  49    -0.318119690648
  50     0.169995074546
  51    -2.131787915398
  52     4.656346615555
  53    -1.597520117546
  54    -0.232694709674
  55    -0.129793470935
  56    -0.149712769522
  57    -0.047674521067
  58     0.014437133358
  59     0.033237387709
  60     0.070990071940
  61    -0.148781478494
  62     0.117769479110
  63    -0.242984033322
  64    -0.881873976218
  65     1.124858009540
  66     1.125501313374
  67    -1.667373909380
  68     1.083256400177
  69     0.050972083987
  70    -0.103374316360
  71     0.112714575324
  72    -0.195705260011
  73     0.037271513614
  74    -0.077263418526
  75     0.127319033162
  76     0.101419685491
  77    -0.073959052962
  78     0.096598059768
  79     0.058821034162
  80     0.678877273850
  81     0.251536333822
  82     0.073873548894
  83     0.052579957953
  84    -0.004880537552
  85    -0.160598818615
  86    -1.433412604263
  87    -0.280610412347
  88    -0.130564535600
  89     0.196583478350
  90     0.099070258541
  91     0.031144240289
  92     1.207158987689
  93    -0.191908365901
  94    -0.267296610493
  95     0.306203085039
  96    -0.184474394147
  97    -0.167828518972
  98    -1.196778803287
  99    -0.265306276428
  100   -0.004253449439
  101    0.127577715071
  102   -0.155676401869
 Sym=     1a
 Ene= 1.33901789065646E+00
Spin= Alpha
 Occup= 0
  1     -0.149587282682
  2      0.045377603361
  3      1.956940469740
  4     -10.192254164347
  5     -7.731645098225
  6     -0.005675268918
  7      0.537643240947
  8     -0.040680418133
  9      1.186520247475
  10    -8.591785580247
  11     1.791187432978
  12    -0.142984541688
  13    -3.440363609681
  14     1.471101509181
  15     0.030866307830
  16    -0.017425044303
  17    -0.013441263527
  18     0.000361317819
  19     0.023793175170
  20     0.032290239894
  21     1.602713691272
  22    -3.609278325937
  23     2.006564634665
  24     1.059020383584
  25    -0.501983819207
  26     1.230816472864
  27    -0.112573048853
  28    -0.423949709827
  29    -0.121141788454
  30     0.189116375736
  31     0.326742088354
  32    -0.095642262096
  33    -0.038083781934
  34     0.242046133776
  35     0.258171026435
  36    -0.019438026225
  37     0.423088582260
  38    -0.907547644630
  39    -0.809849891054
  40    -0.136346448566
  41    -0.023997194594
  42     0.182274049242
  43     0.062916040464
  44    -0.107361348352
  45    -1.199741451335
  46     13.164879829464
  47     3.649326207016
  48     0.059256470850
  49    -0.353258098480
  50     0.070024023406
  51     1.040809018453
  52    -7.177515975115
  53     1.512141429247
  54     0.361319602626
  55    -3.264498096258
  56     0.109100904375
  57    -0.044619587951
  58     0.072773387102
  59    -0.028153799151
  60    -0.036271298682
  61    -0.003000325026
  62    -0.036737239180
  63    -1.250072035938
  64     2.317377477765
  65    -1.067305441827
  66    -0.590345671037
  67     0.030291667793
  68    -0.855396438085
  69    -0.055122388233
  70    -0.223562146753
  71    -0.093204753407
  72     0.082347927734
  73     0.131426474502
  74    -0.014302327297
  75    -0.008393483431
  76     0.168513619899
  77     0.139349625963
  78    -0.071999295198
  79    -0.086904589482
  80    -0.291745853184
  81     1.130455931302
  82     0.051174776189
  83    -0.096840269189
  84    -0.004695210556
  85    -0.098304317642
  86    -0.142794917880
  87     0.893137238534
  88    -0.037561015268
  89     0.073131135699
  90     0.052815407956
  91    -0.049569111420
  92     0.453982917843
  93     0.910788694471
  94     0.003084026662
  95    -0.051790592934
  96     0.002298024075
  97    -0.084774387503
  98    -0.188702981215
  99     0.500472252392
  100    0.033901424725
  101    0.052423854455
  102   -0.087944854754
 Sym=     1a
 Ene= 1.34676457058982E+00
Spin= Alpha
 Occup= 0
  1     -0.059010205762
  2      0.063532470656
  3     -0.531812565533
  4      0.692229591018
  5      0.163459999269
  6      0.004669181738
  7     -0.234412450328
  8     -0.093397238977
  9      0.127739592605
  10    -0.430898550193
  11     0.038144153208
  12    -0.450599189897
  13     0.748934057942
  14     0.118250221722
  15    -0.242518735114
  16     0.067440550291
  17     0.175078184823
  18    -0.196000108507
  19     0.097403814309
  20     0.122796007620
  21    -0.520121839597
  22     0.031856218325
  23     0.488265621272
  24     0.328823779363
  25    -0.187106693862
  26    -0.195873297851
  27     0.016064930393
  28    -0.149076525102
  29     0.129272925416
  30     0.029504233323
  31     0.102579030761
  32    -0.037581861343
  33    -0.051057599170
  34     0.097428115626
  35    -0.135855967985
  36     0.020882877962
  37    -0.063432446933
  38    -0.645186674700
  39     0.241164215927
  40    -0.066298475787
  41    -0.049710094698
  42     0.051519643128
  43     0.090888074440
  44    -0.024201232919
  45    -0.367843504666
  46     0.258357843787
  47    -2.665811376941
  48    -0.202206486126
  49     0.350051754294
  50    -0.138765973587
  51     0.832320688391
  52    -1.537997271591
  53     0.632006486388
  54    -0.048064869571
  55     0.141455835219
  56    -0.312970439133
  57     0.082270831113
  58    -0.071444432284
  59    -0.010826398829
  60    -0.047860941957
  61     0.147273020051
  62    -0.099949480628
  63     0.661965968685
  64    -0.016793375157
  65    -0.645172593528
  66    -0.106870735629
  67     1.370391648393
  68    -0.739456150508
  69     0.050431088303
  70     0.181806218466
  71    -0.075745878515
  72     0.037844453316
  73    -0.116042460808
  74     0.099736627653
  75    -0.105504858290
  76    -0.127876177126
  77     0.001887132372
  78    -0.052941889203
  79    -0.032410920413
  80    -0.224683330549
  81     0.566273690448
  82     0.120803285269
  83    -0.100554603007
  84    -0.075783924824
  85     0.178653562477
  86     1.513646199110
  87     0.397804762963
  88     0.128016465055
  89    -0.145628120245
  90    -0.123161852235
  91    -0.210532872671
  92    -1.258912523964
  93     0.743365881083
  94     0.297921088067
  95    -0.120211372378
  96     0.184442590658
  97     0.147728454140
  98     0.983184160415
  99     0.268209165867
  100    0.026861151121
  101   -0.162166260335
  102    0.125423253688
 Sym=     1a
 Ene= 1.53963522812815E+00
Spin= Alpha
 Occup= 0
  1     -0.001025170168
  2     -0.024630150458
  3      0.529600461385
  4     -3.207714218525
  5     -0.857741468992
  6      0.006349271409
  7      0.034558997536
  8      0.007763491952
  9      0.311732485380
  10    -1.609709347043
  11     0.346937192973
  12     0.384546272079
  13    -1.246349105087
  14    -0.078835747558
  15     0.006356403731
  16    -0.006599447869
  17     0.000243044138
  18     0.007015265303
  19     0.000939592081
  20     0.008418468254
  21     0.355223695747
  22    -0.653546624714
  23     0.298322928967
  24     0.220971320624
  25     0.002019478782
  26     0.256745756711
  27    -0.021051115822
  28    -0.087128646775
  29    -0.045019016135
  30     0.021476039113
  31     0.031299811420
  32     0.006658486189
  33     0.006766996475
  34     0.085595534766
  35     0.053740862025
  36    -0.058147808295
  37     0.024315695481
  38     0.185526456958
  39    -0.351137800919
  40     0.018537513151
  41     0.018926094391
  42    -0.050984681632
  43    -0.016287636763
  44    -0.049401510509
  45    -0.142656342818
  46     3.310986563525
  47    -0.286675725244
  48    -0.043178300588
  49     0.065281606299
  50    -0.006340890097
  51     0.474903012089
  52    -1.126437522364
  53     0.435638261798
  54     0.025011168862
  55    -1.484907366508
  56     1.025010534234
  57    -0.017365330604
  58     0.011623401229
  59     0.005741929375
  60    -0.012841895718
  61    -0.018750671998
  62    -0.001387119612
  63    -0.484044986000
  64     1.034294653253
  65    -0.550249667253
  66    -0.032060438996
  67    -0.047056348084
  68    -0.125699948821
  69    -0.002732166061
  70    -0.052742002663
  71     0.135135988850
  72    -0.025881770677
  73    -0.013736051846
  74    -0.227637580971
  75     0.029547356100
  76     0.084496873780
  77     0.046333626606
  78    -0.082883876746
  79     0.040590204122
  80     0.083544546027
  81    -0.690231259061
  82    -0.019778289622
  83     0.018528093182
  84     0.035656605770
  85     0.090726425444
  86    -0.981112139081
  87     1.086118992245
  88    -0.696864536208
  89    -0.350718751711
  90     0.162611675937
  91     0.127912402957
  92    -0.146000738048
  93    -0.137242732537
  94    -0.023443967830
  95    -0.029991656184
  96    -0.004069734735
  97     0.424312276149
  98    -1.192425812054
  99     2.393711412957
  100   -0.475323741055
  101   -0.492998257647
  102   -0.446895997981
 Sym=     1a
 Ene= 1.58721404820398E+00
Spin= Alpha
 Occup= 0
  1      0.002163727631
  2     -0.008043124060
  3      0.072221813391
  4     -0.228160962573
  5     -0.069524142856
  6     -0.024780942980
  7      0.016586633818
  8      0.035925038334
  9      0.224911074930
  10    -0.158675171344
  11    -0.394879148694
  12     0.726358080749
  13    -0.246104580809
  14    -1.346796540206
  15     0.006206447149
  16     0.005037609048
  17    -0.011244056197
  18    -0.011183791633
  19    -0.003614138579
  20     0.017387207700
  21    -0.117452297493
  22    -0.131633577019
  23     0.249085874512
  24     0.245210769409
  25     0.090638690979
  26    -0.390208770988
  27    -0.010014998862
  28    -0.004944182971
  29     0.006619717376
  30     0.008346593795
  31     0.000572964653
  32    -0.000094596169
  33     0.005089937155
  34     0.006060352877
  35    -0.008786686657
  36     0.008393274548
  37    -0.055866655221
  38     0.099191714500
  39     0.657101842784
  40    -0.049275981694
  41     0.063449043311
  42     0.005855005355
  43     0.002499561148
  44     0.013626658815
  45    -0.032735771496
  46     0.027546849956
  47    -0.034751301781
  48     0.065531696189
  49    -0.030757542277
  50    -0.114608369336
  51     0.206178257196
  52    -0.281641437239
  53    -0.337201779106
  54    -1.365007303307
  55     0.210113848013
  56     2.658282331741
  57     0.001233704604
  58    -0.003665433929
  59     0.002431729325
  60     0.014186520428
  61     0.006340156850
  62    -0.023809141655
  63     0.302282838999
  64    -0.242336642820
  65    -0.059946196179
  66     0.462810626452
  67    -0.235848907759
  68    -0.983489664979
  69    -0.073470252598
  70    -0.037828759415
  71     0.126964319169
  72     0.093936783343
  73     0.129570992560
  74     0.044670706408
  75     0.004633904137
  76    -0.078818386025
  77    -0.215011215435
  78    -0.061651698386
  79     0.052049478813
  80    -0.062409771978
  81    -0.725338801345
  82     0.015841681549
  83    -0.050374867713
  84     0.052290536819
  85     0.112577718447
  86     1.027219137052
  87    -2.684083187783
  88     0.882689592418
  89     0.499995204872
  90    -0.254348178805
  91    -0.004772329642
  92     0.004637052132
  93     0.003310008019
  94    -0.025008529722
  95     0.000849358188
  96     0.037530183945
  97     0.170482009352
  98    -1.060551496431
  99     2.903301227292
  100   -0.393353745584
  101   -0.487206553188
  102   -0.439879690021
 Sym=     1a
 Ene= 1.59173439724485E+00
Spin= Alpha
 Occup= 0
  1     -0.021215283729
  2      0.070767508876
  3     -0.875457040665
  4      3.600308201304
  5      1.080077956747
  6      0.005842588454
  7     -0.077787788709
  8      0.034809843919
  9     -0.200111182385
  10     1.601532557450
  11    -0.284511503769
  12    -0.772716602623
  13     1.431448132467
  14     0.815130733518
  15    -0.006111107571
  16     0.009087948535
  17    -0.002976840964
  18    -0.000045154560
  19    -0.001731467721
  20    -0.015103418495
  21    -0.491287175860
  22     0.723977364012
  23    -0.232690188152
  24    -0.290539194412
  25    -0.131397584551
  26    -0.021397775709
  27     0.022593135377
  28     0.114911036442
  29     0.040188401624
  30    -0.016830399375
  31    -0.062731107155
  32     0.029605420880
  33    -0.013481472542
  34    -0.091438226155
  35    -0.083523819643
  36     0.043854699090
  37    -0.011024186699
  38    -0.314971880092
  39    -0.091366613444
  40    -0.015912281162
  41    -0.074841262317
  42     0.042137897086
  43     0.026198092333
  44     0.080745289584
  45     0.243765194618
  46    -4.704283322956
  47     0.063453514828
  48    -0.073918825583
  49    -0.070573446302
  50     0.140020174783
  51    -0.646937681696
  52     0.985631173956
  53     1.359563111177
  54     0.916693206536
  55     1.207500865036
  56    -2.440708852110
  57     0.039881289160
  58     0.001265305142
  59    -0.041146594302
  60    -0.004606538814
  61     0.034074378416
  62     0.051559916777
  63     0.889524377836
  64    -0.241907240300
  65    -0.647617137536
  66     0.050769830689
  67     0.225116068815
  68     0.894557844516
  69     0.060044035368
  70     0.123100028755
  71     0.193256414926
  72    -0.034878380929
  73     0.048450402785
  74    -0.172000102685
  75    -0.045679145907
  76    -0.213606422182
  77    -0.087280585832
  78    -0.014121184014
  79    -0.075224349443
  80    -0.364730279505
  81     1.140916960917
  82     0.062268462509
  83    -0.038699406358
  84    -0.061193295815
  85    -0.086249217024
  86     0.135529288916
  87     0.930705357512
  88     0.032430646336
  89    -0.105283797345
  90     0.057196005130
  91    -0.048830956444
  92    -0.131190557289
  93     0.061321251675
  94     0.008753157949
  95     0.013260943221
  96     0.036740756657
  97    -0.595465177425
  98     4.077277649116
  99    -4.193390638007
  100   -1.101414535850
  101   -0.529663737633
  102    0.550725234110
 Sym=     1a
 Ene= 1.59807329637479E+00
Spin= Alpha
 Occup= 0
  1      0.077825711699
  2     -0.077271754928
  3      0.211567987993
  4      0.164585052723
  5      0.798603089640
  6      0.029580242876
  7      0.333566139053
  8      0.023878964003
  9     -0.343535797123
  10    -0.694912469738
  11    -0.868801431998
  12     0.380688118864
  13    -1.096058313391
  14    -0.574082911747
  15    -0.086128512948
  16    -0.176454416696
  17     0.262582929644
  18    -0.258531401187
  19     0.060806811780
  20     0.097068315526
  21    -0.009381096631
  22    -0.439687157145
  23     0.449068253776
  24    -1.296691970953
  25    -0.370977684836
  26     0.094306511034
  27     0.004823583540
  28    -0.321395382135
  29     0.133172822330
  30    -0.106457800114
  31     0.113086622666
  32    -0.130732703808
  33     0.099986283700
  34     0.318110530600
  35    -0.047937386284
  36    -0.042053772652
  37     0.088742956129
  38    -0.053335577936
  39    -0.358807883571
  40    -0.000726549214
  41    -0.048440769161
  42    -0.159996766647
  43    -0.045591068322
  44    -0.025508852905
  45     0.822856765892
  46    -1.430026725278
  47     1.348910648708
  48    -0.297205531103
  49    -0.341110774511
  50     0.148132148477
  51     1.392560649029
  52     0.691874912949
  53    -0.518289949776
  54    -0.879997352658
  55    -0.455163182917
  56     1.319369408768
  57    -0.243546191992
  58     0.278176235401
  59    -0.034630043409
  60    -0.001868459925
  61     0.184274533373
  62     0.140537628103
  63     0.376967020889
  64    -0.519818385309
  65     0.142851364420
  66    -0.313219087440
  67     0.132102299723
  68    -0.367913776251
  69    -0.190397387133
  70    -0.015989347054
  71     0.094316672316
  72     0.106707026938
  73     0.057130486238
  74    -0.113976426599
  75     0.148737873283
  76    -0.035678526081
  77    -0.012562667828
  78    -0.042928412521
  79    -0.043850638355
  80    -1.469764647168
  81    -0.801776537688
  82     0.043027683413
  83    -0.120021735132
  84    -0.160904584964
  85     0.084265831763
  86     0.612796101665
  87    -1.076460012784
  88     0.059816666413
  89    -0.066698906583
  90    -0.094001490225
  91     0.046769222483
  92     0.875373935671
  93    -0.337370490616
  94    -0.167085830516
  95    -0.203859929311
  96    -0.048445779720
  97    -0.127545343467
  98    -0.027277907696
  99     0.762333516270
  100   -0.045373311643
  101   -0.014577608733
  102   -0.057154858772
 Sym=     1a
 Ene= 1.60133148234337E+00
Spin= Alpha
 Occup= 0
  1      0.097727707787
  2     -0.168344678262
  3     -1.014960623496
  4      14.095177931749
  5      4.236061492379
  6     -0.069329498574
  7      0.467104836676
  8     -0.092180939816
  9     -1.300212453657
  10     7.756359987582
  11    -1.790365678082
  12    -0.672860714862
  13     3.186996218207
  14    -0.848427955561
  15    -0.062211054018
  16     0.095274956751
  17    -0.033063902733
  18    -0.020863765068
  19    -0.018575923429
  20    -0.028894669309
  21    -1.307629404066
  22     2.434447459040
  23    -1.126818054974
  24    -0.767098909251
  25     0.120677983743
  26    -0.992622064495
  27     0.045959890864
  28     0.240763340956
  29     0.095550310410
  30    -0.083263975649
  31    -0.157560556978
  32     0.013501396090
  33     0.021602311523
  34    -0.165457361142
  35    -0.141695589699
  36     0.063282452851
  37    -0.074412169584
  38    -0.129026727542
  39     0.657977806340
  40    -0.025706305654
  41    -0.037415528079
  42     0.082233746249
  43    -0.150940550166
  44     0.007603792333
  45     2.555174313658
  46    -12.015247023239
  47    -8.979585828989
  48     0.268664034687
  49    -0.589584539137
  50     0.135871302487
  51    -2.220027032834
  52     9.538655881236
  53    -2.171394005121
  54    -0.787966814778
  55     3.361083217584
  56    -0.665318464028
  57     0.025675407899
  58    -0.011739608004
  59    -0.013935799895
  60     0.006893170253
  61     0.013850438029
  62     0.039662929113
  63     1.662366016309
  64    -4.042383734806
  65     2.380017718497
  66     1.161362720133
  67    -0.889877623966
  68     1.505246698378
  69     0.127136876664
  70     0.405199960537
  71     0.204383702242
  72    -0.238720326726
  73    -0.287586153367
  74    -0.024912149290
  75     0.068148307525
  76    -0.256046640378
  77    -0.249297361733
  78     0.078803129587
  79    -0.077746497981
  80    -0.200878543136
  81     0.615404277960
  82     0.053867067455
  83    -0.065453028204
  84    -0.049094001051
  85    -0.091343812168
  86    -0.681689020798
  87     0.941982205514
  88    -0.031356620153
  89     0.171313872217
  90     0.022174849549
  91    -0.200788073739
  92     1.613519116148
  93     0.231496437334
  94    -0.354239331085
  95     0.271303226481
  96    -0.283536808169
  97    -0.114789044386
  98    -0.528108033477
  99     1.010362589648
  100    0.022248281328
  101    0.140349830415
  102   -0.057951989134
 Sym=     1a
 Ene= 1.63488203064694E+00
Spin= Alpha
 Occup= 0
  1     -0.022698052608
  2     -0.052265225647
  3     -0.377310542749
  4      5.819845338116
  5     -0.334177434999
  6      0.006793294335
  7     -0.055640052316
  8      0.029040098652
  9     -0.462351561931
  10     1.999535004166
  11    -0.361697001788
  12    -0.338875658642
  13     2.488203063701
  14    -0.558726780883
  15    -0.028180318920
  16     0.021395878110
  17     0.006784440810
  18    -0.007139812027
  19    -0.025285278678
  20    -0.009738515947
  21    -0.674718820566
  22     0.902480630535
  23    -0.227761809969
  24    -0.233881515396
  25    -0.260418051430
  26    -0.395600877916
  27     0.041443169624
  28     0.075771081755
  29    -0.020296487617
  30    -0.051732023117
  31    -0.048407679732
  32     0.064787144220
  33    -0.003869823572
  34    -0.053249893988
  35    -0.037556548610
  36    -0.001324706964
  37     0.872949243459
  38    -2.525042150282
  39     2.753668067872
  40     0.113973965539
  41    -0.061285696427
  42     0.254959580969
  43     0.021156051657
  44    -0.091982606904
  45     1.212791393350
  46    -5.486867168758
  47    -1.581234775800
  48     0.016423336769
  49    -0.114533541063
  50     0.024108612910
  51    -0.460273080735
  52     2.551803127857
  53    -0.545550397683
  54    -0.315008667080
  55     1.989423570139
  56    -0.380854934726
  57     0.009767098199
  58    -0.013205946770
  59     0.003438848571
  60     0.001721574986
  61     0.004305522787
  62     0.003816596355
  63     0.623453369731
  64    -1.015972802387
  65     0.392519432656
  66     0.421975899058
  67     0.097629426946
  68     0.391287668393
  69     0.032402219238
  70     0.144519041300
  71     0.083331746186
  72    -0.054129507324
  73    -0.084349148964
  74    -0.019466340412
  75     0.010657368421
  76    -0.109543491270
  77    -0.092334929082
  78     0.057395651903
  79     0.896550429161
  80    -2.263697653822
  81     2.593603675148
  82     0.202356464831
  83    -0.083997937944
  84     0.069399528134
  85     0.047709997265
  86     0.411543450078
  87    -0.851584299126
  88     0.041321517906
  89    -0.069539154710
  90    -0.058279261098
  91     0.094155240739
  92     0.055310637973
  93    -0.113188741832
  94    -0.051536062429
  95     0.014266222125
  96    -0.028525302559
  97     0.044023075426
  98     0.390952194930
  99    -0.817531699324
  100   -0.026407554469
  101   -0.057078533643
  102    0.073857998612
 Sym=     1a
 Ene= 1.66528352457137E+00
Spin= Alpha
 Occup= 0
  1     -0.075457306079
  2      0.050807967029
  3      0.298631699438
  4     -0.286360118379
  5     -0.059322693417
  6     -0.019121696365
  7      0.313823455995
  8      0.113158030584
  9      0.043260938316
  10    -0.586723037678
  11    -0.667123057280
  12    -0.220779015462
  13     0.807186385396
  14     1.297005553911
  15    -0.099861295266
  16    -0.303448388159
  17     0.403309683425
  18    -0.184718365898
  19     0.192327734742
  20     0.208987421658
  21     0.107449775827
  22     0.384279299121
  23    -0.491729074948
  24     0.061150600900
  25    -0.093684589251
  26    -0.171620011864
  27    -0.000839456185
  28     0.265282153017
  29    -0.298330805616
  30    -0.180256362290
  31    -0.127553075000
  32     0.104731984484
  33     0.181382610945
  34    -0.228360281418
  35     0.295520792200
  36    -0.110144632823
  37     0.085418911771
  38     0.106250128985
  39    -0.708457900554
  40     0.039192644043
  41     0.163430679577
  42    -0.000198398646
  43     0.016305706874
  44     0.126394136272
  45    -0.799799617052
  46     0.530598781215
  47     3.326321867788
  48     0.030557610885
  49    -0.309014929316
  50     0.076444860138
  51     0.128296974741
  52     0.800413979585
  53    -0.885950755099
  54     0.882106042392
  55    -0.167436495602
  56    -0.429336867619
  57    -0.005206612958
  58    -0.021154467769
  59     0.026361080727
  60    -0.059088495589
  61     0.060448695520
  62    -0.087253961842
  63    -0.129007472210
  64    -0.491181485835
  65     0.620188958045
  66    -0.043195021703
  67    -0.251426112826
  68    -0.354570713339
  69    -0.147112314574
  70    -0.013462792137
  71     0.006777596661
  72     0.034591870937
  73    -0.131299238952
  74     0.044244471228
  75     0.162780010491
  76     0.149361469984
  77    -0.053337571343
  78    -0.057065092785
  79    -0.040056310638
  80    -0.176830560126
  81     0.814116446270
  82     0.061369592593
  83    -0.130092150002
  84    -0.045221100477
  85     0.064481418150
  86    -0.356962304775
  87    -0.456265879577
  88     0.026181116898
  89     0.008596668180
  90    -0.098699944383
  91     0.186428756354
  92    -0.467758359607
  93    -1.159204868492
  94    -0.100866946545
  95    -0.083140027774
  96    -0.011904767900
  97    -0.085950775202
  98    -1.830242905857
  99    -0.877270309629
  100    0.095281374151
  101    0.110537190172
  102   -0.191677366973
 Sym=     1a
 Ene= 1.69325685979556E+00
Spin= Alpha
 Occup= 0
  1     -0.010500862220
  2      0.012674800690
  3     -0.074762222163
  4      0.335865498421
  5     -0.821048855923
  6     -0.157341406848
  7      0.035781476876
  8      0.039635114649
  9     -0.333581060919
  10    -0.528932040258
  11    -0.411153536940
  12    -0.035396738046
  13    -0.337258159104
  14     0.251881649058
  15    -0.022744727593
  16     0.124228922790
  17    -0.101484195197
  18    -0.114857441123
  19    -0.103993443655
  20     0.094203078566
  21     0.278710091665
  22    -0.166223895344
  23    -0.112486196321
  24    -0.598225479921
  25    -0.510771931057
  26     0.164070585154
  27     0.098319804460
  28    -0.298113158993
  29     0.050071029750
  30    -0.180764635641
  31     0.241264394627
  32    -0.055806098056
  33     0.048854775857
  34     0.158696378471
  35    -0.011371237679
  36    -0.078069413375
  37     0.078436025510
  38    -0.021386131298
  39    -0.143290199172
  40     0.062257212249
  41     0.003263589080
  42    -0.061009244370
  43    -0.076445002923
  44     0.053615880913
  45     0.319328386403
  46    -0.536559549570
  47     1.393959066548
  48    -0.066879444158
  49     0.007269008938
  50    -0.016434656700
  51     0.007122632130
  52     0.021608124151
  53     1.177334250715
  54    -0.102439075348
  55    -0.202996816118
  56     0.009462124384
  57     0.114322446136
  58     0.001106338653
  59    -0.115428784789
  60    -0.278105457361
  61    -0.178891056216
  62     0.163132217931
  63     0.331369525812
  64     0.017051199421
  65    -0.348420725233
  66    -1.089239847374
  67     0.134453029153
  68     0.605403909656
  69    -0.035190465597
  70     0.378919679619
  71    -0.066059759364
  72     0.385815102614
  73    -0.074154155267
  74    -0.076361971846
  75    -0.338602138673
  76    -0.434219941717
  77     0.164990439356
  78    -0.241906355919
  79    -0.029556146298
  80    -0.759578160367
  81     0.222531735339
  82     0.039721362154
  83    -0.099841638389
  84    -0.131082341700
  85    -0.145064437923
  86    -1.057070440387
  87    -0.120241827132
  88    -0.089500873081
  89     0.124818310799
  90     0.232444524611
  91    -0.075221003136
  92     0.234540791479
  93    -0.030515285994
  94    -0.027103473935
  95    -0.063647581525
  96     0.061610231870
  97     0.264828041660
  98     1.244378826522
  99    -0.396301756278
  100   -0.127972551356
  101   -0.086785194439
  102    0.285438568283
 Sym=     1a
 Ene= 1.69516714899466E+00
Spin= Alpha
 Occup= 0
  1      0.006516857967
  2     -0.057407478231
  3      0.380610272212
  4      0.102152769520
  5     -0.822171862251
  6     -0.294864397874
  7      0.263691152801
  8     -0.411593342583
  9      0.889142278631
  10    -0.622584533888
  11     0.991842719266
  12    -0.136985607574
  13     0.113487348374
  14    -1.151022133299
  15    -0.271732522407
  16     0.458739955113
  17    -0.187007432706
  18     0.028393110018
  19    -0.187053245054
  20     0.243735626620
  21     0.045017524820
  22    -0.584612439350
  23     0.539594914530
  24     0.203620140644
  25    -0.089599449506
  26    -0.265516636354
  27    -0.130828629768
  28     0.102328229717
  29    -0.027477373361
  30     0.145158342310
  31    -0.182742331437
  32    -0.106287033893
  33     0.030366683428
  34     0.045454604838
  35     0.143151798700
  36    -0.156360784791
  37    -0.078809618708
  38    -0.608708752504
  39     0.743904626595
  40    -0.100008044768
  41    -0.039678830551
  42     0.045488447407
  43    -0.060829363597
  44     0.007466246737
  45     0.876650901966
  46    -1.574220789784
  47     1.850484538798
  48     0.199531535088
  49    -0.220856270171
  50     0.239466748781
  51    -0.570857584022
  52     0.028530704277
  53    -0.414108051154
  54     0.244571251432
  55    -0.457085752326
  56     1.150390069106
  57     0.011980471477
  58     0.225357908379
  59    -0.237338379856
  60     0.131274023095
  61    -0.019960261187
  62     0.049412283263
  63     0.351639821676
  64    -0.063725881962
  65    -0.287913939714
  66     0.548179125146
  67     0.059405320328
  68    -0.042615228536
  69     0.048504539387
  70     0.138736887949
  71    -0.111603244302
  72    -0.135764897968
  73    -0.164938330351
  74     0.161794365250
  75     0.070689229596
  76    -0.021196737113
  77    -0.012062900789
  78    -0.058970108161
  79     0.031899487990
  80    -0.164784348239
  81    -0.339542610035
  82     0.003489490960
  83    -0.196639959880
  84    -0.075719245709
  85     0.032766292030
  86     0.469600637185
  87    -0.787009148317
  88     0.063317399758
  89    -0.035669751158
  90    -0.028747857602
  91     0.078588630376
  92     0.043893412070
  93    -0.501347224862
  94    -0.100692891603
  95     0.056313121800
  96    -0.049462397110
  97    -0.051971619465
  98     0.385079419589
  99     0.107784637037
  100   -0.028816920463
  101   -0.066389660841
  102    0.051425352474
 Sym=     1a
 Ene= 1.74267036434789E+00
Spin= Alpha
 Occup= 0
  1      0.076607053212
  2     -0.056482623113
  3      0.366177982220
  4     -4.446525523807
  5      2.582218487162
  6      0.050481521720
  7      0.335344934478
  8     -0.024975841550
  9      0.449323518960
  10    -4.665930714592
  11     0.499498128699
  12    -1.459062941384
  13     0.193775870253
  14     1.415169153511
  15    -0.044970119690
  16    -0.204952243767
  17     0.249922363457
  18    -0.176505614787
  19     0.051524467158
  20     0.084357414711
  21     0.359941972908
  22    -1.633445250065
  23     1.273503277157
  24    -0.451766632306
  25    -0.729661256811
  26     0.191325069972
  27     0.031463423894
  28    -0.225952304938
  29     0.207313175203
  30    -0.015831109577
  31     0.030823383268
  32    -0.106648953133
  33    -0.026381503202
  34     0.272323444841
  35    -0.171490858298
  36     0.060386120784
  37    -0.037055036948
  38    -1.202840422638
  39    -0.987448284517
  40    -0.035904023333
  41    -0.140327501028
  42     0.075219580024
  43     0.089667030089
  44    -0.092256333504
  45    -0.601507138996
  46     5.787931439108
  47    -2.658197197347
  48     0.453837388952
  49     0.151074828379
  50    -0.089048614553
  51    -0.366653901273
  52    -3.914973923530
  53     1.611626000720
  54     1.829237043796
  55     0.924026394562
  56    -2.112678784206
  57     0.266127986109
  58    -0.278271313472
  59     0.012143327363
  60    -0.041703756685
  61    -0.233879740063
  62    -0.228419056546
  63    -0.612434769382
  64     1.355781226361
  65    -0.743346456979
  66    -0.591972940093
  67     0.458697179238
  68    -0.357311593420
  69     0.056425501519
  70     0.090300406216
  71    -0.278421159033
  72     0.182472554985
  73    -0.152107824050
  74     0.131883212281
  75    -0.258175309221
  76     0.030957116033
  77     0.241657970502
  78    -0.101070609096
  79    -0.166025761741
  80    -1.032567018777
  81     0.804190020778
  82     0.051042320552
  83    -0.153143968182
  84    -0.162604073127
  85    -0.122133164180
  86    -0.018161273283
  87     1.554149378551
  88    -0.039002072559
  89     0.021457760730
  90     0.106164069363
  91     0.096876168188
  92     0.754346693703
  93    -0.052935824684
  94    -0.062152875700
  95    -0.186345740332
  96     0.002667960024
  97     0.179216770696
  98     0.425687944160
  99    -1.304753629142
  100    0.088473792915
  101   -0.045718739357
  102    0.127151769155
 Sym=     1a
 Ene= 1.76748373243747E+00
Spin= Alpha
 Occup= 0
  1      0.087185561896
  2     -0.076177334537
  3     -0.082962863131
  4     -0.237679663012
  5      0.220130812470
  6      0.127806572751
  7     -0.003828011515
  8      0.082451565979
  9     -0.085487423563
  10    -0.691309401306
  11    -0.639880752866
  12    -0.308662579486
  13    -0.307979940479
  14     1.133379241838
  15    -0.291401082992
  16     0.534683722491
  17    -0.243282639499
  18    -0.005698566503
  19     0.315341098820
  20     0.025845813878
  21     0.180572116274
  22    -0.922532553786
  23     0.741960437512
  24     0.114705292624
  25    -0.368788755334
  26    -0.473503281094
  27     0.018367662658
  28     0.061496390167
  29    -0.112774435420
  30     0.044437452277
  31    -0.077994555511
  32     0.234788008184
  33    -0.069080257652
  34    -0.004511509760
  35    -0.083485225950
  36     0.076968204598
  37    -0.045894110162
  38    -0.433458049402
  39    -0.591501453329
  40     0.100396518656
  41     0.037253854815
  42    -0.051259377540
  43     0.057647232767
  44    -0.022879761323
  45    -0.176160103428
  46     1.404075721014
  47    -0.998959037190
  48    -0.169535355288
  49     0.157024348761
  50     0.081345586294
  51     1.053383232927
  52    -0.890150694993
  53    -0.516443612479
  54    -0.147349168260
  55     0.447411723173
  56    -1.279821386758
  57     0.119924728346
  58    -0.147444804204
  59     0.027520075858
  60     0.071500401812
  61    -0.183606615590
  62    -0.105406642414
  63     0.202255648730
  64    -0.324482103662
  65     0.122226454932
  66     0.575260826477
  67    -0.087041055815
  68    -1.485348960271
  69    -0.163500478055
  70    -0.203175838644
  71     0.012689438079
  72     0.042711784674
  73     0.191325715704
  74    -0.000009414407
  75     0.176647125297
  76     0.081263276252
  77    -0.017015253278
  78     0.138815100590
  79    -0.034660921618
  80    -0.083746417447
  81     0.517835758188
  82     0.018531526532
  83    -0.095445971187
  84     0.073061003839
  85     0.183793858573
  86     1.530226344158
  87     0.267791492003
  88     0.191471975894
  89    -0.040192692794
  90    -0.210678338095
  91     0.002790732573
  92     0.232214920072
  93     0.448296229152
  94     0.001549680362
  95    -0.092066740140
  96     0.052213107499
  97    -0.149668627849
  98    -1.426840269287
  99    -0.161910197014
  100    0.041515138107
  101   -0.010732904848
  102   -0.239696871123
 Sym=     1a
 Ene= 1.78390098732657E+00
Spin= Alpha
 Occup= 0
  1      0.054890421883
  2     -0.069405342163
  3      0.249923088976
  4      0.216420367769
  5      2.317776963306
  6      0.119690322428
  7     -0.006754730322
  8     -0.140731347995
  9     -1.116460428276
  10     1.303264808695
  11     0.711176816154
  12    -0.466291523970
  13     0.979518317678
  14     0.302937895926
  15     0.157127826660
  16    -0.137059855949
  17    -0.020067970711
  18     0.003169983045
  19    -0.066344317390
  20    -0.035927837633
  21    -0.309721519373
  22     0.217219608266
  23     0.092501911107
  24     0.417023466975
  25     0.459835063403
  26    -1.446256745045
  27     0.113413671073
  28    -0.224987710363
  29    -0.070075713026
  30    -0.001179562506
  31    -0.026938758851
  32     0.125462245907
  33    -0.150980844353
  34     0.328791447535
  35    -0.031445811168
  36    -0.338289928361
  37     0.027020765404
  38    -0.968309373643
  39    -0.226304625001
  40    -0.029999780598
  41     0.031449824367
  42     0.060157031579
  43     0.138477205539
  44    -0.115363922516
  45    -0.420212783242
  46     0.758403943290
  47    -4.743539943056
  48    -0.385105156664
  49    -0.371526941756
  50    -0.360776875306
  51    -0.382667707642
  52     1.999294531608
  53     1.035272365608
  54     0.404343146971
  55     0.144529687826
  56    -0.362959525351
  57    -0.021761360767
  58     0.077497022616
  59    -0.055735661849
  60     0.222982629351
  61     0.098854648913
  62    -0.326876655327
  63     0.340791695040
  64    -0.475846669264
  65     0.135054974224
  66    -0.197761639228
  67    -0.504270599841
  68     0.356312056431
  69     0.061720580823
  70     0.025353429179
  71     0.131820531834
  72    -0.044378460797
  73     0.089913503953
  74    -0.325339017259
  75    -0.038428387803
  76    -0.123928698617
  77     0.148483215253
  78    -0.298691760683
  79     0.355011410555
  80     1.869389336275
  81    -0.113798987256
  82    -0.151617043955
  83     0.221531269164
  84     0.254694459161
  85    -0.197754880816
  86    -1.225459471759
  87     1.461382217452
  88    -0.075331949012
  89     0.097795687741
  90     0.144214952799
  91     0.117127018702
  92    -0.124680055603
  93     0.364296689861
  94    -0.084792687264
  95    -0.029018119854
  96    -0.005107344298
  97    -0.003876505111
  98     0.092224219393
  99     0.652389686208
  100   -0.098040009440
  101    0.052166229484
  102   -0.154360561235
 Sym=     1a
 Ene= 1.80381750020209E+00
Spin= Alpha
 Occup= 0
  1     -0.000076877860
  2      0.004414498936
  3     -0.256139001024
  4      0.026022397574
  5      1.269950629217
  6     -0.031134561810
  7     -0.088005558929
  8      0.048520329437
  9      0.461366796167
  10     0.361877763250
  11    -0.098909273789
  12     0.809559236583
  13     0.451926841520
  14     0.139137063404
  15     0.006292528461
  16    -0.019083638234
  17     0.012791109773
  18    -0.004900854041
  19    -0.007090936482
  20     0.010334254828
  21     0.141928897692
  22     0.243256465003
  23    -0.385185362695
  24     0.548617971208
  25     0.382087325373
  26     0.010171803898
  27    -0.079573353258
  28    -0.018524486833
  29    -0.075375140238
  30     0.163457946312
  31     0.093155020217
  32     0.071258684392
  33    -0.056699090063
  34    -0.068301813134
  35     0.029867678039
  36     0.100306126824
  37     0.071248409667
  38     0.122142752105
  39    -0.024963895702
  40    -0.000086835255
  41     0.063610826463
  42     0.001882427154
  43    -0.032039555986
  44    -0.000185114558
  45    -0.662000462236
  46     2.147446372626
  47     1.711602569398
  48    -0.081464518972
  49     0.159269718585
  50     0.009229892701
  51    -0.143640608374
  52     0.287081130384
  53     1.219178696075
  54     0.680051025285
  55    -0.204777386481
  56     0.784184257459
  57    -0.009419829760
  58    -0.005296902160
  59     0.014716731920
  60    -0.017680889430
  61    -0.035281055801
  62     0.037331239521
  63    -0.014735048096
  64    -0.225431657824
  65     0.240166705920
  66    -0.393796353358
  67    -0.043245909174
  68     0.130522789929
  69     0.099515446780
  70    -0.046800200616
  71    -0.120960241859
  72    -0.019943237631
  73    -0.093791795712
  74     0.133701876288
  75    -0.113570744656
  76     0.156580853675
  77     0.028583317735
  78    -0.215112945075
  79     0.085745719488
  80    -0.046089059000
  81    -0.094542247614
  82     0.011014648092
  83     0.018725447725
  84    -0.008098887826
  85     0.034578284190
  86    -2.037454656239
  87    -0.038717859348
  88    -0.611607338819
  89     0.829448727607
  90     0.147137235478
  91    -0.266098906437
  92    -1.140882601721
  93    -3.015340621131
  94     1.157683429744
  95     0.295992157903
  96     0.515460178519
  97    -0.014868010045
  98    -0.179343040173
  99     0.073052710997
  100    0.036462273909
  101    0.042249505735
  102   -0.048046373914
 Sym=     1a
 Ene= 1.80599301324572E+00
Spin= Alpha
 Occup= 0
  1      0.021995011151
  2     -0.025573455914
  3      0.055412331100
  4     -0.775809146191
  5      0.408616013388
  6     -0.408473045505
  7      0.055957311435
  8      0.466700793755
  9      2.000536512621
  10    -0.975019867825
  11    -2.900518006098
  12    -3.725923414573
  13     1.055151955128
  14     6.341915846188
  15     0.384373094692
  16    -0.008003974543
  17    -0.376369120149
  18    -0.058133302471
  19    -0.208343448591
  20     0.032015894278
  21    -0.234491156997
  22    -0.135298924630
  23     0.369790081627
  24    -0.026230183847
  25     0.160563422990
  26     0.190022346883
  27    -0.359195177120
  28    -0.092897476435
  29     0.103253740060
  30     0.184737593803
  31    -0.011088577597
  32     0.061734625303
  33     0.297173306135
  34     0.135723620946
  35    -0.200264054326
  36     0.057344300583
  37     0.401645389917
  38     0.573769747162
  39    -4.046021607356
  40     0.096088480762
  41     0.180998778813
  42    -0.436991433469
  43     0.043580103794
  44    -0.044829039330
  45    -0.196488672686
  46     1.190475396461
  47    -1.157988127143
  48    -0.102462742953
  49    -0.008601625358
  50    -0.019080553143
  51     0.307448239535
  52    -0.518883234543
  53     0.128496694459
  54     2.307513194514
  55    -0.530990094500
  56    -4.612277992242
  57     0.118934096050
  58     0.004565872772
  59    -0.123499968822
  60     0.018369280035
  61    -0.147624215612
  62     0.042904804608
  63    -0.310798118428
  64    -0.008688830805
  65     0.319486949233
  66     0.447852439146
  67     0.250285395274
  68    -1.068603983950
  69    -0.216956497536
  70     0.017923714158
  71    -0.163667155668
  72    -0.068949092037
  73     0.060101611079
  74     0.023415458804
  75     0.360026778028
  76    -0.084148797039
  77     0.196167072650
  78    -0.003638226655
  79    -0.424444475503
  80    -0.673011438424
  81     4.126414283550
  82     0.244499239716
  83    -0.280281444590
  84    -0.302149370281
  85     0.009334273475
  86     1.234763771713
  87     2.350265311454
  88     0.049653033612
  89    -0.001113723636
  90    -0.067535213068
  91    -0.045251751928
  92    -0.143216920264
  93     0.296523669729
  94     0.104199088254
  95    -0.015345174733
  96    -0.044265965299
  97    -0.021782868879
  98    -1.226293773351
  99    -1.990639562813
  100    0.052916537624
  101   -0.013131357844
  102   -0.137508069606
 Sym=     1a
 Ene= 1.81617519212112E+00
Spin= Alpha
 Occup= 0
  1      0.047270290559
  2     -0.070613520639
  3      0.496329765944
  4     -0.764451178667
  5      0.247137681448
  6      0.086113427526
  7      0.040228594931
  8     -0.040584806199
  9     -0.658645084683
  10    -0.791100180384
  11    -0.236502536539
  12    -0.432563416238
  13     0.671477034748
  14     1.112273129648
  15    -0.008906041210
  16    -0.005276453430
  17     0.014182494640
  18    -0.031098242521
  19    -0.018708836126
  20     0.000043164777
  21     0.099294589436
  22     0.204361568488
  23    -0.303656157924
  24    -1.116039753993
  25    -0.325382012099
  26     0.017600540161
  27     0.070856031540
  28     0.057309896871
  29     0.232755822127
  30    -0.079323160996
  31    -0.235512576803
  32    -0.183292811901
  33    -0.015740180887
  34     0.158623281691
  35    -0.128981892360
  36    -0.033041706940
  37     0.092669424728
  38    -0.086550314133
  39    -0.445545587955
  40     0.054519784171
  41    -0.012597222759
  42    -0.010510156375
  43     0.020067282446
  44    -0.012060493803
  45     0.091860407591
  46    -0.631785363355
  47     0.546153414873
  48    -0.012270526184
  49    -0.001273742333
  50     0.044940852949
  51     0.143035685540
  52     0.221440280371
  53    -0.410688284874
  54     0.670100853248
  55     0.196621077549
  56    -0.457353101599
  57    -0.009165338350
  58    -0.003824485971
  59     0.012989824321
  60     0.004954433621
  61    -0.015431829171
  62    -0.010772726142
  63     0.118732680302
  64    -0.098667566555
  65    -0.020065113747
  66    -0.229672044410
  67     0.000453325143
  68     0.305078072577
  69    -0.001589262196
  70     0.025664337490
  71     0.019473740778
  72     0.033871006451
  73     0.000014474266
  74    -0.013240374305
  75    -0.031738787468
  76    -0.034446796201
  77    -0.012886390589
  78     0.038181892988
  79    -0.163904860817
  80    -0.689972520885
  81     1.808738422038
  82    -0.501509049609
  83     0.363492166415
  84    -0.887374232305
  85    -0.001794498007
  86     0.023503156893
  87     0.143075565564
  88     0.008385469576
  89    -0.050588783123
  90     0.016735243053
  91    -0.288831392468
  92     1.950415873051
  93    -1.608706577458
  94    -0.589487074827
  95    -0.783926885176
  96     0.052686643350
  97     0.075002403868
  98    -0.129300302159
  99    -0.433885930104
  100   -0.017135092520
  101    0.047407451434
  102    0.028968008250
 Sym=     1a
 Ene= 1.84770473498180E+00
Spin= Alpha
 Occup= 0
  1      0.000195832569
  2      0.013230893023
  3     -0.393119373047
  4      2.168707364711
  5      0.710962967359
  6     -0.107023138172
  7      0.026098600165
  8      0.016534063897
  9      1.025344658182
  10     0.681871840277
  11    -0.293521812940
  12    -0.055023289165
  13     0.471620081729
  14     0.252216299419
  15    -0.033509018102
  16     0.146192101780
  17    -0.112683083678
  18    -0.061129826669
  19    -0.146036098774
  20     0.135707406138
  21    -0.274092510785
  22     0.609727614388
  23    -0.335635103603
  24     0.642339266129
  25    -0.987435259158
  26     0.172180886306
  27    -0.118585109726
  28    -0.086066913457
  29    -0.029589519705
  30     0.262591285606
  31     0.010662391345
  32    -0.007676059882
  33    -0.103492665726
  34     0.104808490117
  35     0.047374566371
  36    -0.335555124421
  37     0.049754160397
  38    -0.180593247143
  39    -0.145863821241
  40     0.081410266102
  41    -0.019158315813
  42    -0.021883284717
  43     0.101552388453
  44    -0.119798647441
  45     0.409718875175
  46    -1.419595875124
  47    -1.566185411615
  48     0.110653805157
  49    -0.123604575106
  50     0.053892177095
  51    -0.671488320472
  52     0.652931234535
  53    -1.498239097989
  54    -0.019606281064
  55     0.316478023978
  56    -0.510665570789
  57    -0.096959040260
  58    -0.000786517520
  59     0.097745557780
  60     0.242376732555
  61     0.153927410413
  62    -0.129962861436
  63    -0.284240200284
  64    -0.053502822276
  65     0.337743022560
  66     1.441153384015
  67     0.039796073851
  68    -0.163756795443
  69     0.077596398923
  70    -0.360090864741
  71     0.142352387542
  72    -0.426371459964
  73     0.086991868785
  74     0.087973846993
  75     0.322264966284
  76     0.396120722197
  77    -0.278959616175
  78     0.172255323255
  79     0.031734699091
  80    -0.894961207160
  81     0.327167164436
  82     0.049214394006
  83    -0.087816722204
  84    -0.099747915349
  85     0.114655877753
  86     1.197182322244
  87     0.241745511610
  88     0.072514824889
  89    -0.132068765768
  90    -0.216138387428
  91     0.050386127323
  92     0.185732884926
  93     0.151924242069
  94    -0.092592126924
  95     0.069532092582
  96    -0.005433818042
  97    -0.189007069679
  98    -0.946737935967
  99     0.188333031319
  100    0.128233009060
  101    0.027092157573
  102   -0.237417322252
 Sym=     1a
 Ene= 1.85407950388377E+00
Spin= Alpha
 Occup= 0
  1      0.012678206354
  2     -0.059635355598
  3      0.716624762861
  4     -3.114975804154
  5     -0.889690628769
  6     -0.020084598607
  7      0.083296988837
  8     -0.012528010700
  9      0.212002067283
  10    -1.504838052170
  11     0.302427643084
  12    -0.250548677069
  13    -1.003580342290
  14     1.073208845276
  15     0.001201728139
  16    -0.002401188057
  17     0.001199459918
  18     0.006796598509
  19     0.002911297576
  20    -0.006940089989
  21     0.362487865708
  22    -0.571788128705
  23     0.209300262997
  24     0.090526758464
  25     0.037938103460
  26     0.332933045069
  27    -0.014915205168
  28    -0.071328407282
  29    -0.005788783075
  30     0.028573966187
  31     0.041637331153
  32    -0.018964935594
  33    -0.008563118595
  34     0.054059769292
  35     0.026731403071
  36    -0.012059637197
  37     0.039410322596
  38     0.190664122504
  39    -0.952219478706
  40     0.013031983789
  41     0.006281306845
  42    -0.043067341766
  43     0.000178184145
  44     0.026178342952
  45    -0.234663006096
  46     2.275053691020
  47    -0.325378028731
  48    -0.033150145056
  49    -0.022123981098
  50     0.072029882551
  51    -0.286825744958
  52    -1.651286701106
  53     1.425282966323
  54     1.104674195997
  55    -1.733320228741
  56    -1.259905622809
  57     0.007787441834
  58     0.019890234287
  59    -0.027677676121
  60    -0.017844727302
  61     0.012967412873
  62     0.023628968608
  63    -0.052078303603
  64     0.503412301931
  65    -0.451333998328
  66    -0.378167552792
  67     0.071907520728
  68     0.304958906178
  69     0.023746631180
  70     0.043806141490
  71     0.042213791216
  72     0.049358325427
  73     0.083158381944
  74    -0.053775673289
  75    -0.081217774359
  76    -0.141930488067
  77    -0.002860070759
  78     0.114334818172
  79    -0.013521145191
  80     0.188687377843
  81    -0.003616473696
  82    -0.013163141937
  83     0.048487976886
  84    -0.001036360429
  85     1.158589823386
  86    -2.406288757171
  87     3.476717246770
  88     0.169542536641
  89     0.170034828910
  90    -0.176825649592
  91     0.046902556722
  92    -0.019246698111
  93    -0.058984166910
  94    -0.032470529369
  95    -0.034473771508
  96    -0.017015907708
  97     0.336408359379
  98     0.849974883620
  99    -0.299969749943
  100   -0.353623952494
  101    0.074565748374
  102    0.737557297975
 Sym=     1a
 Ene= 1.86610199582640E+00
Spin= Alpha
 Occup= 0
  1      0.025262801796
  2     -0.042700040946
  3      1.105473619716
  4     -9.111487387938
  5      0.583087745299
  6     -0.222944486358
  7      0.297059658724
  8     -0.336586404018
  9      1.456051692371
  10    -7.730255347514
  11     2.296241500078
  12    -0.750292056149
  13     0.699655676991
  14    -1.088176197806
  15    -0.189218432545
  16     0.324709380052
  17    -0.135490947507
  18     0.073041394630
  19    -0.175544767710
  20     0.288308107844
  21     1.178129553924
  22    -2.795400615008
  23     1.617271061084
  24     0.363208448026
  25    -0.400754347808
  26     0.474956100054
  27    -0.138747231500
  28     0.050842938150
  29     0.033096111140
  30     0.169620813126
  31    -0.017307988400
  32    -0.206333141984
  33     0.016528131669
  34    -0.050904971128
  35     0.161930049404
  36    -0.022402759887
  37    -0.218512275708
  38    -0.901505001619
  39     0.942579856227
  40    -0.136324220276
  41    -0.086040132784
  42     0.167792443829
  43     0.090417695797
  44    -0.104710207027
  45    -1.102668069254
  46     10.338441548362
  47    -2.595911982675
  48    -0.211291798260
  49     0.201021103477
  50    -0.280264998987
  51     1.305348415740
  52    -7.157938922483
  53     2.053876643363
  54    -0.443780606045
  55     0.934116466056
  56     0.121998463526
  57    -0.045001435551
  58    -0.156830654779
  59     0.201832090330
  60    -0.137838391258
  61     0.022244701845
  62    -0.040806319701
  63    -1.421837843867
  64     2.478013567720
  65    -1.056175723853
  66    -0.791587346321
  67     0.260477602618
  68    -0.675631685198
  69     0.102481848183
  70    -0.323176695069
  71     0.311124151192
  72    -0.019290163866
  73     0.315733174471
  74    -0.197605405597
  75    -0.118203663532
  76     0.117853860880
  77    -0.219811445307
  78     0.267221281052
  79    -0.146176548494
  80    -0.372654676862
  81     0.254088058463
  82     0.048712660215
  83    -0.222472716228
  84    -0.163472772772
  85     0.131613115757
  86    -0.222097948880
  87    -0.178928511374
  88    -0.030463829673
  89     0.002014865652
  90    -0.080723802140
  91     0.014905376237
  92     0.410315364868
  93     0.733350633814
  94    -0.009447778372
  95    -0.172229931931
  96     0.009328193091
  97     0.177682261368
  98     0.449325894875
  99     0.049095462274
  100   -0.022062416756
  101   -0.094016728548
  102    0.074466978605
 Sym=     1a
 Ene= 1.88817897272843E+00
Spin= Alpha
 Occup= 0
  1     -0.029515520483
  2     -0.025386920884
  3     -0.285300615314
  4      2.413150908014
  5      0.114274316118
  6     -0.096642017250
  7     -0.071582924975
  8      0.140364409254
  9      0.185886117808
  10     0.564042420747
  11     0.572352813310
  12     0.215612890530
  13     0.308435658171
  14    -0.462180520966
  15    -0.022485715944
  16     0.001411772374
  17     0.021073943570
  18     0.012705372980
  19    -0.017534568770
  20    -0.017217307313
  21    -0.173381932916
  22     0.213164377596
  23    -0.039782444680
  24     0.501525120582
  25    -0.096370708811
  26    -0.713451705600
  27     0.098040960680
  28     0.056020599518
  29     0.020321667884
  30     0.023896342995
  31     0.145049440058
  32    -0.073047920937
  33    -0.155432094591
  34    -0.220208961255
  35     0.045783542454
  36     0.037747878138
  37    -0.163625125380
  38    -1.272160676463
  39     0.764037570606
  40    -0.542983118358
  41     0.121923157647
  42     0.653191481490
  43     0.002590245919
  44    -0.007328414696
  45     0.236438749013
  46    -1.320890045234
  47    -0.429153122784
  48     0.001115784428
  49     0.003329099108
  50     0.059596841656
  51    -0.277885606247
  52     0.654232683262
  53    -0.385112964875
  54    -0.192750161806
  55     0.365336268836
  56    -0.109333010614
  57     0.000607306903
  58    -0.006313286746
  59     0.005705979843
  60     0.005280054101
  61     0.005568119449
  62     0.003861691200
  63     0.173547989389
  64    -0.188070426423
  65     0.014522437034
  66     0.290366814385
  67    -0.287044252114
  68    -0.064957288283
  69     0.077876808466
  70     0.010285435043
  71     0.044974634842
  72     0.000851830921
  73    -0.007643536557
  74    -0.066103330484
  75    -0.105334533482
  76    -0.006155822604
  77     0.005763526022
  78     0.035240403715
  79     0.128618385966
  80     0.005513909835
  81    -0.210195399021
  82    -0.046550124266
  83    -0.064565927480
  84     0.008655496605
  85    -0.041327115809
  86     0.317306102372
  87    -0.175777744033
  88     0.078980019596
  89    -0.013186422243
  90    -0.014960594073
  91     0.128840856934
  92    -0.434421841178
  93     0.203038623652
  94    -0.429249180433
  95     0.649634740227
  96     0.865418616392
  97     0.031400220036
  98    -0.258560405306
  99    -0.051482201288
  100   -0.044806390849
  101   -0.000222442142
  102   -0.047313389366
 Sym=     1a
 Ene= 1.93557045299749E+00
Spin= Alpha
 Occup= 0
  1     -0.027795118684
  2      0.007166349762
  3     -0.655379973448
  4      4.353858457467
  5      0.074970216724
  6     -0.158303660706
  7     -0.026064193869
  8      0.252540348636
  9      0.906201504497
  10     1.511353638940
  11    -1.777153074477
  12    -0.983060732892
  13     0.442277814961
  14     0.388594783809
  15    -0.254832677201
  16     0.187194487005
  17     0.067638190196
  18     0.051262848539
  19     0.112350634314
  20     0.059435767515
  21     0.012763154536
  22     1.016671996440
  23    -1.029435150976
  24    -1.321871605453
  25    -0.345788302581
  26     1.910514303675
  27    -0.191622946580
  28     0.335651931014
  29     0.254818777702
  30     0.070893566894
  31     0.029524009781
  32    -0.133368837711
  33     0.186195593867
  34    -0.479848330496
  35    -0.208506427620
  36     0.553040233032
  37     0.083645317371
  38     1.570325287624
  39    -0.526319783570
  40     0.088975196250
  41    -0.092257512693
  42    -0.147628831801
  43     0.088836850799
  44    -0.047828383340
  45    -0.110044081401
  46    -1.519347795243
  47    -2.531392918446
  48    -0.203420068255
  49    -0.141548108060
  50    -0.294799626996
  51    -0.035201597143
  52     2.344341926612
  53    -0.542675180659
  54     0.679924750143
  55     0.042962774039
  56    -1.074246618126
  57     0.026223088581
  58    -0.016129792554
  59    -0.010093296027
  60     0.140069636831
  61     0.055969000689
  62    -0.159566734850
  63     0.500979052017
  64    -0.559390749311
  65     0.058411697294
  66    -0.354386727935
  67    -0.387049594471
  68     1.276823970598
  69     0.043012290356
  70     0.095506784627
  71     0.216521304418
  72    -0.001677366980
  73     0.001124111655
  74    -0.167188935428
  75    -0.056029676083
  76    -0.129259909298
  77    -0.123304877725
  78    -0.049328547739
  79    -0.558666961222
  80    -2.645896772773
  81     1.015991371027
  82     0.241474851817
  83    -0.198684471389
  84    -0.459415920205
  85    -0.165328343798
  86    -0.571881295905
  87     1.253820158433
  88    -0.050838694748
  89    -0.028122376497
  90     0.100190664866
  91     0.014949915433
  92    -0.367708599602
  93     0.638768924540
  94     0.067168958828
  95     0.154183397423
  96     0.043648935818
  97     0.138760346558
  98    -0.102505982840
  99    -0.102375293413
  100   -0.098027036814
  101    0.126282249499
  102   -0.024889093164
 Sym=     1a
 Ene= 2.06511588764621E+00
Spin= Alpha
 Occup= 0
  1      0.021860288713
  2     -0.036290003933
  3      0.636324952031
  4     -2.881717362295
  5     -0.785014391050
  6     -0.032103379469
  7      0.061639091289
  8      0.034497024706
  9     -0.108327805938
  10    -0.851394660214
  11     0.492989002636
  12    -0.135396774362
  13    -0.836503603922
  14     0.679299383445
  15     0.011178773803
  16    -0.016282330377
  17     0.005103556574
  18     0.015248839897
  19     0.005374995755
  20    -0.009551024315
  21     0.336361233094
  22    -0.300870460304
  23    -0.035490772790
  24     0.069484073950
  25     0.360622708967
  26     0.365335594119
  27    -0.007650493892
  28    -0.133856095680
  29    -0.033508255849
  30     0.036982458652
  31     0.064435132820
  32     0.015454667297
  33    -0.026718244010
  34     0.115151664666
  35     0.029501375434
  36    -0.082615379553
  37     0.082739192115
  38     0.455153392296
  39    -0.646488411525
  40     0.024910881994
  41     0.028361341183
  42    -0.111628541444
  43    -0.035358449392
  44    -0.097397862802
  45    -0.241008563902
  46     4.301493742615
  47     0.200529837400
  48    -0.117621391715
  49     0.156404794556
  50     0.204743962884
  51    -1.094996775656
  52     0.251263780795
  53     1.516212644957
  54     0.640881311841
  55    -1.014867200443
  56    -0.874440838927
  57    -0.025090329707
  58     0.017712175739
  59     0.007378153968
  60    -0.057526052453
  61    -0.058457501502
  62     0.056973387485
  63    -0.169053250159
  64     0.509284516551
  65    -0.340231266392
  66    -1.127528194632
  67    -0.912503437067
  68     0.944590494157
  69     0.140356706744
  70    -0.159842729492
  71    -0.188966529573
  72    -0.092359391370
  73     0.165278583910
  74     0.110785735465
  75    -0.095948891058
  76     0.049172941402
  77     0.142739467893
  78    -0.298435748783
  79    -0.001568750461
  80     0.724789327971
  81    -0.122919740125
  82     0.011277136792
  83     0.346661109987
  84     0.119255924199
  85    -0.210211186129
  86    -4.042439318925
  87     2.438195623406
  88    -0.184849143333
  89     0.831456570235
  90     1.703096411047
  91     0.022170300989
  92     0.169043813610
  93    -0.025223506781
  94    -0.012045247845
  95     0.013140855535
  96     0.008651012747
  97     0.075759384439
  98     0.034711197884
  99    -0.477136094854
  100   -0.052962459156
  101    0.111192917555
  102   -0.012909177720
 Sym=     1a
 Ene= 2.07624862108923E+00
Spin= Alpha
 Occup= 0
  1     -0.079433587932
  2      0.049335259646
  3     -0.699747893650
  4      3.155670273464
  5     -0.704709212584
  6     -0.058153516804
  7     -0.159122618334
  8     -0.091163177960
  9      1.089962753758
  10     2.198420112898
  11     0.429822662048
  12    -0.727607573200
  13     0.629086612748
  14     0.595806902014
  15     0.003772136294
  16     0.018876547736
  17    -0.022648684030
  18     0.028134224215
  19     0.009606791411
  20     0.013211854615
  21     0.166355189564
  22     0.866469602790
  23    -1.032824792354
  24     0.462654566070
  25     0.470024196739
  26     0.434780965705
  27    -0.090912526580
  28    -0.097589843305
  29    -0.076015367497
  30     0.235673022920
  31     0.106201797534
  32     0.048732009680
  33    -0.113701069257
  34     0.024728716591
  35     0.053253307754
  36     0.186937512695
  37     0.141118566840
  38     0.305482417174
  39    -0.368101555519
  40     0.013250094508
  41    -0.011589550623
  42    -0.048523758256
  43    -0.045157999549
  44     0.030250779006
  45     0.051714280306
  46    -1.387222423763
  47    -1.329690651490
  48    -0.002296821313
  49     0.033087634496
  50     0.005628284428
  51    -0.011646669613
  52     0.906994970920
  53    -0.309688849654
  54    -0.447380818335
  55     0.472186147197
  56    -0.768697653294
  57     0.022088145122
  58    -0.010860027967
  59    -0.011228117155
  60     0.005366557673
  61     0.024263586785
  62    -0.007785878572
  63     0.065710290760
  64    -0.252364793990
  65     0.186654503230
  66     0.078913872822
  67    -0.045397630340
  68     0.402918322712
  69    -0.014101412856
  70     0.026649461822
  71     0.015793442580
  72    -0.021088928206
  73    -0.019140891952
  74     0.018510916459
  75     0.040007958840
  76    -0.016613112966
  77    -0.039700043184
  78     0.008195375352
  79    -0.080796218687
  80     0.079202342133
  81     1.230988769049
  82    -0.361955624986
  83     0.298231860594
  84    -0.590148807166
  85    -0.035315352027
  86     0.018321377713
  87    -0.012907445682
  88    -0.032467349452
  89    -0.008582560250
  90    -0.005241806377
  91     0.524611315193
  92    -2.957009727857
  93     2.195538243594
  94     0.815362674919
  95     1.154688884815
  96    -0.056033650862
  97    -0.025852848081
  98     0.104041053362
  99    -0.378836248283
  100   -0.001059380044
  101    0.039743730571
  102    0.028598150568
 Sym=     1a
 Ene= 2.09581783454891E+00
Spin= Alpha
 Occup= 0
  1     -0.013303755064
  2     -0.089078653627
  3      0.041001277621
  4      2.202670477906
  5      0.091950443733
  6     -0.054426215701
  7     -0.056921432438
  8      0.185279421814
  9     -0.755665315944
  10    -0.578844890282
  11     1.392006793263
  12     0.211921213555
  13     0.273944990138
  14    -0.558040389719
  15    -0.032878943682
  16    -0.012625927120
  17     0.045504870802
  18     0.012115978305
  19    -0.042439036733
  20    -0.054896616284
  21    -0.773562676698
  22    -0.058471111353
  23     0.832033788051
  24     0.188391904175
  25    -0.191231732391
  26    -1.324703030815
  27     0.086813603349
  28     0.175755408718
  29     0.102364289857
  30    -0.094010353204
  31     0.024690910893
  32    -0.194586741981
  33    -0.022462317873
  34    -0.260491535677
  35     0.057250635627
  36     0.097769649697
  37    -0.233901353758
  38    -3.117036699675
  39     1.329276095151
  40    -1.132168324698
  41     0.101134767938
  42     1.223991150693
  43     0.001632505132
  44    -0.004587102900
  45     0.140706418242
  46    -0.847568226518
  47    -0.219430653922
  48     0.005544355388
  49     0.005633430332
  50    -0.020823818084
  51    -0.063929464644
  52     0.352554815428
  53     0.322393674720
  54    -0.172802095202
  55     0.439923832043
  56     0.294628180438
  57     0.007656178477
  58    -0.008672379988
  59     0.001016201511
  60    -0.007966201368
  61    -0.002083330764
  62     0.011669323617
  63     0.099478070996
  64    -0.312347418692
  65     0.212869347696
  66     0.210793104656
  67     0.248236622063
  68    -0.300790848542
  69    -0.046418938724
  70     0.070188734818
  71     0.019116394334
  72     0.003035699655
  73    -0.030019149275
  74     0.030679079321
  75     0.059241841803
  76    -0.064148920110
  77    -0.056326413650
  78     0.035216416191
  79     0.074827417878
  80     0.319104547025
  81    -0.309320402035
  82     0.020169263606
  83    -0.024254729911
  84     0.070548650278
  85     0.089803321845
  86     0.171768064048
  87    -0.385626298064
  88     0.014657195765
  89     0.011456296464
  90    -0.087153874038
  91     0.003466298469
  92     0.224967377968
  93    -0.184168656603
  94     0.243536893751
  95    -0.353151293702
  96    -0.478316229104
  97    -0.012498580559
  98     0.139495967441
  99     0.032470962074
  100    0.033784034445
  101   -0.067156909079
  102    0.022317318450
 Sym=     1a
 Ene= 2.10989894444967E+00
Spin= Alpha
 Occup= 0
  1     -0.004225337791
  2     -0.014214155353
  3     -0.021061675180
  4      0.799608581317
  5     -0.104332269314
  6      0.107390578076
  7     -0.049160810304
  8     -0.217025180487
  9      1.139497304124
  10     0.166177947405
  11    -2.073392068434
  12     0.181433813795
  13     0.429963009502
  14    -0.487124546688
  15     0.002700327482
  16     0.019562468721
  17    -0.022262796203
  18    -0.042547256070
  19    -0.005043522493
  20     0.072017190211
  21    -0.303903018306
  22     0.493914229824
  23    -0.190011211518
  24    -0.822223371853
  25     0.334908805065
  26     1.135826441609
  27    -0.267426854689
  28    -0.033498065207
  29     0.146681357129
  30     0.061320308707
  31     0.063618651736
  32    -0.026263220180
  33     0.297470466949
  34    -0.018676281185
  35    -0.170530471164
  36    -0.037500551719
  37     0.248283986790
  38     1.946785072560
  39     0.440294126838
  40    -0.515443594177
  41     0.217789691864
  42    -1.274267413849
  43    -0.000929846683
  44    -0.005694478623
  45     0.139437550529
  46    -0.893227371869
  47    -0.234349729064
  48     0.039000429720
  49    -0.013768899021
  50    -0.056491628268
  51    -0.132680811762
  52     0.491209290485
  53     0.070153610730
  54    -0.185482748778
  55     0.376367903623
  56     0.193796302563
  57    -0.000679154625
  58    -0.002303349161
  59     0.002982503786
  60    -0.002674904289
  61     0.004131452279
  62     0.005087072724
  63     0.200347803800
  64    -0.171813974990
  65    -0.028533828810
  66    -0.020585926756
  67    -0.072842449417
  68     0.154810881295
  69     0.022557066510
  70     0.036188581749
  71    -0.004488515169
  72    -0.020865896449
  73    -0.001268370783
  74    -0.013568854574
  75    -0.009397584005
  76    -0.047283706497
  77     0.019590829596
  78     0.009210016622
  79    -0.242595536825
  80    -2.291873649042
  81     0.588976769145
  82     0.864299156563
  83    -0.347272230600
  84    -0.660120928441
  85     0.011889256978
  86    -0.234845546623
  87    -0.178200877811
  88     0.007758003367
  89     0.016195186718
  90     0.035783070262
  91     0.045854390382
  92    -0.061217292108
  93    -0.046566615047
  94     0.008549107110
  95     0.001154432900
  96    -0.039077860629
  97     0.008015373778
  98     0.281188562244
  99    -0.115177372784
  100   -0.044752413342
  101   -0.014228531825
  102    0.040566145472
 Sym=     1a
 Ene= 2.11299229505377E+00
Spin= Alpha
 Occup= 0
  1      0.077623401618
  2     -0.168080527933
  3     -0.476773134648
  4      9.877712757350
  5     -1.472116381890
  6     -0.019125551514
  7     -0.131287967349
  8     -0.196113002869
  9     -1.313456057164
  10     8.229363616689
  11    -1.156423632979
  12     0.663479460527
  13    -1.566330069832
  14    -1.280353802099
  15     0.025805582141
  16     0.443388466535
  17    -0.469194048676
  18     0.133087253475
  19    -0.190443172321
  20    -0.278701827694
  21    -0.979989087216
  22     2.010339975439
  23    -1.030350888223
  24    -0.681527211463
  25     0.957939747940
  26    -1.033010137020
  27     0.124117500981
  28    -0.197887550186
  29     0.374326493853
  30    -0.015344867921
  31     0.014782288048
  32    -0.020819281871
  33    -0.151176233713
  34     0.250711720422
  35    -0.481392409749
  36     0.095906906486
  37     0.067460803937
  38     0.550159039977
  39     0.391571190069
  40    -0.024093532752
  41    -0.062185671538
  42    -0.127933341696
  43     0.070047301659
  44     0.104908295809
  45     0.383331998331
  46    -8.660916115058
  47     3.536107174341
  48     0.113868398762
  49    -0.578421134575
  50     0.200539842760
  51    -1.190192452226
  52     8.610955906611
  53    -1.988478147829
  54     0.063854198131
  55     0.054500884868
  56     1.196583843446
  57     0.082330588389
  58    -0.194846447364
  59     0.112515858975
  60    -0.002854461243
  61     0.077133586750
  62    -0.054650748525
  63     1.168499004335
  64    -3.377820963419
  65     2.209321959084
  66     0.466507876315
  67    -0.916582997491
  68     0.583887312354
  69    -0.009473036409
  70     0.371472208440
  71     0.021942269249
  72    -0.222915934226
  73    -0.348491021812
  74     0.033464705080
  75     0.235625346244
  76    -0.149891244083
  77    -0.062903348452
  78    -0.083352186491
  79     0.243730650010
  80     0.784174228496
  81    -1.385699917531
  82    -0.148030213457
  83     0.258676503480
  84     0.126384098756
  85    -0.058976020813
  86    -1.344839862322
  87    -0.671196518430
  88    -0.030787766396
  89     0.138084859686
  90     0.042805655974
  91     0.101214082481
  92    -0.486553796318
  93    -0.367487959391
  94     0.029298823152
  95     0.252863486836
  96    -0.068070773108
  97    -0.266005350905
  98    -1.812664949536
  99     0.319676336067
  100    0.040277762801
  101    0.187117655877
  102   -0.198972202920
 Sym=     1a
 Ene= 2.12735317566702E+00
Spin= Alpha
 Occup= 0
  1     -0.037678617789
  2      0.070480395012
  3     -0.752733846470
  4      1.032396013526
  5      1.238969959240
  6      0.034054691097
  7     -0.144162086288
  8     -0.052857116441
  9     -0.066024603003
  10     0.401309805996
  11     0.401695785356
  12     0.219976287672
  13     0.640410819661
  14     0.411550714294
  15     0.002263221106
  16    -0.008445615686
  17     0.006182394580
  18    -0.001404401576
  19     0.000409755338
  20    -0.011507795054
  21    -0.154551346996
  22     0.296143045752
  23    -0.141591698756
  24     0.023990976645
  25    -0.085828866873
  26     0.222426758466
  27     0.013384466271
  28     0.063775607890
  29    -0.046319036131
  30     0.028156506129
  31     0.028752788499
  32     0.038442592047
  33    -0.046113651984
  34    -0.114316745227
  35     0.023700916018
  36     0.054103817322
  37     0.014849969726
  38    -0.481931037702
  39    -0.017562368043
  40    -0.008556136231
  41    -0.072582777196
  42     0.061602396619
  43     0.013345682282
  44     0.078551838334
  45    -0.108306751749
  46    -2.343309790118
  47     0.537330266845
  48     0.028168175631
  49    -0.001670056810
  50    -0.102612718932
  51     1.186650733490
  52    -1.058390479899
  53    -1.390558572153
  54     0.734536703262
  55    -0.174319256155
  56    -0.243556239156
  57     0.019721588341
  58    -0.017426296415
  59    -0.002295291926
  60     0.047166510595
  61     0.037726955526
  62    -0.042104334392
  63     0.541334359498
  64     0.338025879122
  65    -0.879360238620
  66     0.014072709444
  67     1.070754195698
  68    -0.676092419133
  69    -0.132994587083
  70     0.187306433396
  71    -0.085229905494
  72    -0.010296689658
  73    -0.022771896142
  74     0.162881504113
  75     0.188727652072
  76    -0.228526054476
  77    -0.048533586673
  78     0.107017516913
  79    -0.011980694041
  80    -0.196055751332
  81     0.099899537838
  82     0.035099802794
  83    -0.010968708562
  84    -0.034166869356
  85     0.074867214343
  86     3.015857426638
  87     0.007957682167
  88     0.986037839280
  89    -1.346040109436
  90    -0.166069901984
  91    -0.271661164189
  92    -0.638961308320
  93    -1.779926217723
  94     0.692620725896
  95     0.164103802493
  96     0.394983893905
  97     0.152503163069
  98     0.021858918048
  99    -0.173146742948
  100   -0.000259069294
  101   -0.087963494026
  102    0.038824614188
 Sym=     1a
 Ene= 2.13490267856841E+00
Spin= Alpha
 Occup= 0
  1      0.001534145905
  2     -0.001754859876
  3      0.087469876689
  4      0.382413573610
  5      0.572327565919
  6      0.384295681340
  7      0.137790866959
  8      0.206016120260
  9     -0.118921498255
  10     0.262944692676
  11     0.153432566083
  12    -0.923471944771
  13     0.444305518357
  14    -0.074927536294
  15     0.095905332847
  16    -0.128280565700
  17     0.032375232853
  18     0.303983753450
  19    -0.020177185326
  20     0.001095180747
  21    -0.375489867661
  22     0.463078499029
  23    -0.087588631368
  24     0.061927939779
  25    -0.172129501846
  26    -0.283335557504
  27     0.104837938547
  28     0.171718929496
  29    -0.117958372430
  30     0.338464236880
  31    -0.315065801564
  32     0.134697154905
  33    -0.479119091207
  34     0.084680681938
  35     0.023560608657
  36     0.047429112476
  37    -0.082519520939
  38    -0.380992656179
  39     0.018068920232
  40     0.063810009115
  41    -0.048473536900
  42     0.133861252240
  43     0.082365728890
  44    -0.033543349529
  45     0.032999240271
  46    -0.992812091992
  47    -2.541315068191
  48     0.288526302671
  49    -0.033932306978
  50     0.249478446817
  51    -0.738719501352
  52     0.308693597377
  53    -0.826860823058
  54     0.237263265249
  55     0.003899525631
  56    -0.396270022581
  57     0.009302573646
  58     0.239707246702
  59    -0.249009820348
  60    -0.087613202801
  61     0.165613510028
  62    -0.073501170261
  63    -0.094266987693
  64     0.038019250903
  65     0.056247736790
  66     0.649403522699
  67    -0.205984239905
  68    -0.210077725245
  69    -0.099431619155
  70     0.132931955839
  71     0.340433948061
  72     0.003538375877
  73     0.003842733675
  74    -0.277223041139
  75     0.129863139848
  76    -0.182189667457
  77    -0.179517028689
  78     0.600205458816
  79     0.045690895885
  80     0.281276229441
  81     0.273785347328
  82    -0.059223371229
  83     0.128676349934
  84    -0.000351541756
  85     0.282352454017
  86     0.753388357711
  87     0.631863393006
  88     0.083867408614
  89    -0.112155216539
  90    -0.161764022491
  91     0.010260670932
  92     1.069106268222
  93     0.454364364852
  94    -0.131320634820
  95     0.103641665726
  96    -0.094869919413
  97     0.122830623943
  98    -0.148509483384
  99     0.357954004835
  100   -0.032556805981
  101   -0.066749611966
  102    0.074430790702
 Sym=     1a
 Ene= 2.14965674117214E+00
Spin= Alpha
 Occup= 0
  1      0.006640321968
  2     -0.011454058842
  3      0.205977024535
  4     -0.896980060262
  5     -0.287727198624
  6      0.017609749725
  7     -0.000569168806
  8     -0.025329756605
  9      0.084718253094
  10    -0.315427016053
  11    -0.002028136932
  12    -0.474115955962
  13    -0.197864116273
  14     1.074963070816
  15     0.003133024521
  16    -0.009424958756
  17     0.006291934235
  18     0.006580847474
  19    -0.001312717741
  20    -0.000089071888
  21     0.124474233863
  22    -0.213654032208
  23     0.089179798345
  24     0.203851487721
  25     0.120846401805
  26    -0.161918466370
  27     0.012684817707
  28    -0.048658774236
  29    -0.026391314289
  30     0.001794440739
  31     0.026269982675
  32    -0.009148059596
  33    -0.018812909544
  34     0.039012613460
  35     0.044555723256
  36    -0.039155866613
  37     0.036415966692
  38    -0.101822998640
  39    -0.591407609140
  40    -0.011296611597
  41     0.026189897605
  42     0.006020168604
  43    -0.023070972012
  44    -0.075746893944
  45    -0.127431639056
  46     2.750714939021
  47     0.230495572361
  48     0.085625566415
  49     0.068960928571
  50    -0.197280686480
  51     0.400078306310
  52     0.523042118295
  53    -1.175679163516
  54     1.030081952573
  55    -0.415347157606
  56    -1.874188366301
  57    -0.034287572828
  58    -0.011460316607
  59     0.045747889435
  60     0.009319462005
  61    -0.041676724854
  62    -0.047932664376
  63    -0.541797480388
  64    -0.107132094233
  65     0.648929574621
  66     0.433076285876
  67    -0.454185461704
  68    -1.196666369004
  69    -0.165750121905
  70    -0.180045477959
  71    -0.020370483394
  72     0.067518244499
  73    -0.057401782508
  74     0.124603843757
  75     0.154858879417
  76     0.298958139163
  77    -0.097273972394
  78    -0.125761359255
  79     0.014660065129
  80     0.438186606126
  81     0.343592219172
  82    -0.040646510814
  83     0.034120038643
  84     0.068418271974
  85     0.613795262444
  86    -0.705295629793
  87     2.013703788231
  88     0.097343113004
  89     0.106735007170
  90    -0.121145772250
  91     0.032600741929
  92     0.035121844790
  93    -0.035807740581
  94     0.001156251251
  95     0.012096294377
  96     0.007607964674
  97    -0.574417692146
  98    -2.452045279089
  99    -1.495122587641
  100    0.678425548474
  101    0.015543281463
  102   -1.544515115828
 Sym=     1a
 Ene= 2.20834824637947E+00
Spin= Alpha
 Occup= 0
  1     -0.034742902384
  2     -0.124740778394
  3     -0.128130393502
  4      3.858988638189
  5      0.345201643555
  6      0.113589918767
  7     -0.135172945610
  8     -0.081376682240
  9      0.257121798390
  10    -1.170202943216
  11    -0.754576799850
  12    -0.478656845055
  13     0.266527094262
  14     0.637652077132
  15    -0.039589731453
  16     0.008469309115
  17     0.031120422338
  18    -0.036886523985
  19    -0.070434302650
  20     0.034460838947
  21    -0.492173423141
  22     0.179771250404
  23     0.312402172737
  24    -0.467420898456
  25    -1.051801454369
  26     0.784258957348
  27    -0.073254126422
  28     0.190634809131
  29     0.033948534966
  30     0.116454158454
  31     0.014886805400
  32     0.140326562675
  33    -0.018173434667
  34    -0.270650240657
  35    -0.185873301827
  36     0.327426064727
  37    -0.112022638220
  38    -1.131868171636
  39    -0.600758986639
  40     0.361037403614
  41    -0.270361554712
  42     0.859599653840
  43     0.022256001539
  44    -0.043199003631
  45     0.470383862043
  46    -1.344451063242
  47    -0.489701641052
  48     0.007566035543
  49    -0.037380082106
  50    -0.002896538381
  51    -0.070722998559
  52     0.357590582127
  53    -0.200639700996
  54     0.094735016720
  55     0.422944949699
  56    -0.446397502595
  57     0.005299047872
  58    -0.014543899089
  59     0.009244851217
  60     0.005569866185
  61    -0.002371334529
  62    -0.000195736584
  63     0.249357126269
  64    -0.129033232404
  65    -0.120323893865
  66     0.074362562512
  67     0.188898255917
  68     0.285742691458
  69     0.022162653376
  70     0.079812338341
  71     0.044618815554
  72    -0.033760794994
  73    -0.040792276724
  74    -0.018510254874
  75     0.004026475287
  76    -0.066287211661
  77    -0.041352167918
  78     0.032887342814
  79    -0.427974238747
  80    -3.104743953771
  81     1.262376758161
  82     1.228674795145
  83    -0.595577880663
  84    -0.989850073896
  85     0.026432224428
  86     0.233702224882
  87     0.055949120787
  88     0.019649048982
  89    -0.070649267868
  90    -0.009539185326
  91     0.012311219253
  92     0.217374958406
  93    -0.006071623001
  94     0.009044158988
  95    -0.022882750154
  96     0.013809910641
  97     0.059883864142
  98     0.360175343954
  99    -0.358286134706
  100   -0.030476525369
  101   -0.024574038595
  102    0.074819060617
 Sym=     1a
 Ene= 2.22397565813715E+00
Spin= Alpha
 Occup= 0
  1     -0.024472713829
  2     -0.069450807432
  3     -0.178113636457
  4      2.980244401492
  5      0.237146469137
  6      0.053278750144
  7     -0.073816299860
  8     -0.080746632790
  9      1.148307594841
  10    -0.804763116805
  11    -1.622568578918
  12     0.026486659293
  13     0.196729487423
  14    -0.014716461950
  15    -0.020713075635
  16     0.012497535394
  17     0.008215540241
  18    -0.041673422911
  19    -0.047779054258
  20     0.051085608530
  21     0.008770661074
  22    -0.486057333679
  23     0.477286672605
  24    -0.528656490163
  25    -1.006377399346
  26     0.360134533283
  27    -0.115053232985
  28     0.164069298155
  29     0.090450766080
  30    -0.027193685888
  31    -0.135574918607
  32    -0.152293374942
  33     0.181553795879
  34    -0.084547143611
  35     0.030940937999
  36     0.232681054070
  37    -0.097724601648
  38    -0.085380502314
  39    -0.119313159903
  40     0.019017451883
  41    -0.091196821474
  42     0.049754136778
  43     0.025436840158
  44    -0.077703943955
  45     0.548644668527
  46    -0.679741701843
  47    -0.487765587917
  48     0.037477260646
  49    -0.052086149922
  50    -0.017814400703
  51    -0.383867675510
  52     0.490350636712
  53     0.583632315231
  54     0.015127734308
  55     0.311179252157
  56    -0.156389141626
  57     0.002286438757
  58    -0.004899565475
  59     0.002613126718
  60    -0.016467579342
  61    -0.012579772382
  62     0.017179502454
  63     0.200595882986
  64    -0.161832069330
  65    -0.038763813656
  66     0.041961104444
  67     0.167624114468
  68     0.043492897388
  69     0.068309796710
  70     0.055725262299
  71    -0.026857400524
  72    -0.065279285676
  73    -0.015005875601
  74     0.010258918304
  75    -0.026367923708
  76    -0.059757409138
  77     0.025774065658
  78    -0.051219832549
  79     0.136495730907
  80    -3.598028094812
  81     0.750426786098
  82    -0.091496773216
  83    -1.687828934425
  84    -0.716739448597
  85     0.014612902941
  86    -0.468560691059
  87     0.307761473636
  88    -0.016791076033
  89     0.102822075629
  90     0.245052577458
  91     0.112556989351
  92    -0.061430722208
  93    -0.096587685473
  94    -0.044178802895
  95    -0.011810296082
  96     0.062440492514
  97     0.047576259951
  98     0.450021380813
  99    -0.292995005182
  100   -0.004853506107
  101   -0.065193146159
  102    0.057970581408
 Sym=     1a
 Ene= 2.25734242281885E+00
Spin= Alpha
 Occup= 0
  1      0.030254015374
  2      0.008314918732
  3      0.349468474464
  4     -3.322289578177
  5      0.357518659326
  6      0.024408630056
  7     -0.092819829263
  8      0.012323561427
  9      0.106166960857
  10    -1.682089708790
  11     0.364240689243
  12     0.822690506345
  13    -0.243982351642
  14     0.520826906941
  15    -0.000896927421
  16    -0.028365871275
  17     0.029262798696
  18    -0.015125067174
  19    -0.023763678637
  20     0.000316593961
  21     0.183950748563
  22    -0.407839605297
  23     0.223888856734
  24     0.248437498241
  25    -0.029627235282
  26     0.260180655292
  27    -0.017871071664
  28    -0.030217491704
  29    -0.025097264312
  30    -0.000329116675
  31    -0.018663201320
  32     0.004149631743
  33     0.024305675317
  34     0.059204220656
  35     0.029521881687
  36    -0.048590740316
  37     0.078680079711
  38    -0.117053088829
  39    -0.108370952033
  40     0.003472751178
  41     0.018600945003
  42    -0.023339853831
  43     0.144122061140
  44    -0.090498578984
  45     0.203033328063
  46     0.162949866222
  47     3.380240335289
  48     0.082302931879
  49     0.070370276296
  50     0.044902437319
  51    -1.428338652650
  52    -1.198730426636
  53    -0.589890659687
  54     0.534429043787
  55    -0.657094591155
  56     0.345638097412
  57    -0.034449762063
  58     0.015159603037
  59     0.019290159026
  60     0.022153272649
  61    -0.047512536291
  62     0.006345175934
  63    -1.161982444565
  64     1.348077611372
  65    -0.186095166807
  66     0.340595433465
  67    -0.797787845685
  68     0.044193879202
  69    -0.134184856032
  70    -0.305920063481
  71     0.136684495496
  72     0.189236361524
  73     0.278499306182
  74    -0.342763185708
  75    -0.009208485740
  76     0.131935528393
  77     0.159381691668
  78     0.121078484439
  79     0.059234165600
  80    -0.008297214993
  81    -0.079769732312
  82    -0.000841476568
  83     0.045791688727
  84     0.019707931331
  85    -0.008555931474
  86    -0.264403042239
  87    -0.231099633373
  88    -0.006355578780
  89    -0.017105528440
  90     0.014105908555
  91    -0.659351891039
  92     3.586183382622
  93    -3.122450038880
  94    -1.136778248738
  95     0.785742909436
  96    -0.916442207313
  97    -0.022167194458
  98    -0.217806097564
  99    -0.235322644003
  100    0.025178323595
  101   -0.023200431311
  102    0.003448523245
 Sym=     1a
 Ene= 2.27909053294528E+00
Spin= Alpha
 Occup= 0
  1      0.006067034510
  2     -0.090771357513
  3      0.252865612592
  4      1.337736394182
  5     -0.107738965921
  6      0.000157449040
  7      0.014008994834
  8      0.003422139754
  9     -0.671355014085
  10    -0.349731692756
  11     1.765002332545
  12    -0.079225330297
  13    -0.080170921062
  14     0.315861976918
  15    -0.025377691097
  16    -0.011403357446
  17     0.036781048543
  18     0.018155723279
  19    -0.032014102143
  20    -0.040891566939
  21    -0.120044441700
  22    -0.483674542231
  23     0.603718983931
  24    -0.114569003022
  25    -0.336330655103
  26     0.208550716211
  27     0.091566316334
  28     0.049213608511
  29     0.151406126307
  30     0.036643172596
  31     0.053113677172
  32    -0.116959057416
  33    -0.159492277258
  34    -0.119140661602
  35    -0.086173576964
  36     0.020058650246
  37     0.115416140130
  38    -2.317239539658
  39     0.304378152692
  40    -0.372292685796
  41    -1.127936867888
  42     0.450116044411
  43     0.003191006492
  44    -0.089855885997
  45     0.210698097079
  46     1.536949016337
  47    -0.067611865781
  48     0.011598482466
  49    -0.005952386342
  50    -0.007336563596
  51     0.852968362389
  52     0.386806099787
  53    -1.746070824901
  54     0.168769633637
  55     0.070440725120
  56    -0.271992180237
  57    -0.026312283861
  58    -0.014880290761
  59     0.041192574622
  60     0.010687843549
  61    -0.030069354636
  62    -0.045552702404
  63     0.034484850011
  64    -0.448099742909
  65     0.413614892898
  66     0.041337849309
  67    -0.627335144097
  68     0.192294121596
  69    -0.135497514946
  70    -0.066173175144
  71    -0.033801057295
  72    -0.044137974262
  73    -0.007058467227
  74    -0.015184821370
  75     0.225926966783
  76     0.095839097972
  77     0.060533698464
  78    -0.098658276771
  79    -0.072191129287
  80     0.200351727177
  81    -0.075035659508
  82     0.015579172936
  83     0.003002927848
  84    -0.004458365190
  85    -0.080777868818
  86     0.166634906268
  87    -0.065051846905
  88     0.002507661824
  89     0.013325940885
  90     0.016487883422
  91     0.137813956396
  92    -0.083607035426
  93    -0.112148266200
  94    -0.017329642281
  95    -0.003159513817
  96    -0.007354318158
  97     0.114507832944
  98    -2.471932532983
  99     0.332953114801
  100   -0.294997308055
  101    1.035714787361
  102   -0.811661794860
 Sym=     1a
 Ene= 2.29141496696010E+00
Spin= Alpha
 Occup= 0
  1     -0.043358745206
  2      0.001854346184
  3     -0.622937234210
  4      3.300427939276
  5      0.628098204249
  6     -0.050363811420
  7     -0.087151891878
  8      0.136688537237
  9     -0.502753271683
  10    -0.002150821850
  11     1.074607469509
  12    -0.089494919289
  13     0.494286020204
  14    -0.033320629294
  15    -0.027349143853
  16    -0.001306228599
  17     0.028655372452
  18     0.004251557409
  19    -0.027895891228
  20    -0.034385693645
  21    -0.547239143066
  22    -0.368409084922
  23     0.915648227988
  24    -0.151252879621
  25    -0.764872650356
  26    -0.264177933075
  27     0.084211324455
  28     0.121253738407
  29     0.211915877738
  30     0.023578435197
  31    -0.029075603392
  32    -0.075847743542
  33    -0.136559782772
  34    -0.133603357570
  35    -0.208467241338
  36     0.045475084057
  37     0.043062116026
  38    -2.741896012431
  39     0.479314240084
  40    -0.411175547819
  41    -1.213157899166
  42     0.541751977276
  43     0.043224520235
  44    -0.005587388462
  45     0.628656868778
  46    -3.220287285684
  47    -0.628966403417
  48    -0.040734622673
  49    -0.084112849958
  50     0.139157662264
  51    -0.489585958363
  52     0.014066040646
  53     0.980079136888
  54    -0.114843213158
  55     0.490130344018
  56    -0.058368666035
  57     0.025778872740
  58    -0.000568973040
  59    -0.025209899700
  60    -0.006248357573
  61     0.027950329449
  62     0.031465010465
  63     0.422800123745
  64     0.259860502381
  65    -0.682660626126
  66    -0.056158054972
  67     0.953333718228
  68     0.224991326532
  69     0.104943294381
  70     0.135317913188
  71     0.087723475584
  72     0.040447651283
  73    -0.075805167732
  74     0.047901112198
  75    -0.181243855295
  76    -0.105742863744
  77    -0.165594504975
  78     0.104574193643
  79    -0.117952786042
  80    -0.453560895921
  81     0.144194541916
  82     0.057194048839
  83    -0.151857661921
  84    -0.020446698939
  85     0.116341743246
  86     0.465424938611
  87    -0.150367168159
  88     0.047892898202
  89    -0.153601417808
  90    -0.025824520713
  91     0.004933605831
  92    -0.007190789253
  93    -0.004416045544
  94     0.045644975416
  95    -0.039608869756
  96    -0.072967567064
  97    -0.034887301682
  98     2.610725315442
  99    -0.461876064645
  100    0.248455481251
  101   -1.004013238021
  102    0.822209411901
 Sym=     1a
 Ene= 2.30923837092855E+00
Spin= Alpha
 Occup= 0
  1      0.074098052396
  2     -0.098787003825
  3      0.446088217733
  4     -0.256194356786
  5      0.945482214281
  6     -0.344783670634
  7     -0.011251042752
  8     -0.206099225121
  9      0.182375899352
  10     0.423984079002
  11    -0.020419349195
  12     0.356493187269
  13     0.264707921803
  14    -0.123381997454
  15    -0.076030439790
  16     0.101057005220
  17    -0.025026565430
  18    -0.254621258385
  19     0.013133798441
  20     0.031457063274
  21     0.185891026643
  22    -0.034838524996
  23    -0.151052501647
  24     0.018881243701
  25     0.310324294294
  26     0.229443423295
  27    -0.115115227200
  28    -0.139602812396
  29     0.060544839981
  30    -0.250971342833
  31     0.336452345888
  32    -0.215777096113
  33     0.405414626792
  34    -0.149155518867
  35     0.134547669383
  36     0.014380114092
  37     0.086759623846
  38     0.428383791557
  39     0.051700942406
  40    -0.082418588558
  41     0.106364189058
  42    -0.098393961807
  43     0.100492352700
  44    -0.050292672582
  45    -0.001207717773
  46    -0.043450328670
  47    -2.458618205896
  48     0.421431621979
  49    -0.164237715004
  50     0.245367633319
  51    -0.461006816510
  52     0.362958067695
  53    -0.846089414596
  54     0.031173828041
  55    -0.106994823400
  56     0.046766325740
  57     0.029869536459
  58     0.233313317569
  59    -0.263182854028
  60    -0.129212894211
  61     0.183203632346
  62    -0.049670715309
  63     0.034192508066
  64    -0.245195378114
  65     0.211002870048
  66     0.205915339842
  67    -0.160778537736
  68    -0.001872279137
  69    -0.245364768759
  70     0.308003939496
  71     0.454971919311
  72     0.285091538749
  73    -0.116933698319
  74    -0.223941189137
  75     0.044099842588
  76    -0.296296949312
  77    -0.386467694523
  78     0.538627785644
  79    -0.020562661079
  80     0.018503736399
  81    -0.187955857097
  82     0.049117520575
  83    -0.066391104915
  84     0.017987555740
  85     0.272937120698
  86     0.442846179166
  87     0.564348106468
  88     0.090934782767
  89    -0.066722305591
  90    -0.184250626863
  91     0.139377420971
  92     0.140243781301
  93     0.066652994421
  94    -0.189426360687
  95     0.079453334685
  96    -0.132434115900
  97     0.136243658586
  98    -0.211133024572
  99     0.687546178627
  100   -0.021065835782
  101   -0.061778172632
  102    0.084082278083
 Sym=     1a
 Ene= 2.36786002075395E+00
Spin= Alpha
 Occup= 0
  1      0.016199294539
  2     -0.026056169530
  3      0.612400247016
  4     -5.364739438383
  5      1.373513061865
  6      0.331210067620
  7      0.501517516306
  8      0.131166847271
  9      0.150913530031
  10    -6.353312723460
  11     0.756439025430
  12    -0.318327657453
  13     1.732772513785
  14    -0.122626910431
  15    -0.109623578757
  16    -0.010830464665
  17     0.120454043422
  18     0.089939599372
  19    -0.009594065991
  20    -0.065477283782
  21     0.654491672689
  22    -1.885293525197
  23     1.230801852508
  24    -0.020871036091
  25    -0.643876393921
  26     0.060325955283
  27    -0.295909189621
  28    -0.300033813266
  29     0.404884022760
  30     0.095826116904
  31     0.366216291215
  32    -0.102018784142
  33     0.301177720992
  34     0.036321309992
  35    -0.441190134595
  36     0.340262632620
  37    -0.209287061384
  38    -1.155969720249
  39     0.706460621368
  40    -0.127295783350
  41    -0.140646120135
  42     0.253655528303
  43    -0.141094402973
  44     0.351612490905
  45    -1.772764923171
  46     8.203121064932
  47    -4.484777951036
  48    -0.022546808565
  49     0.008974804415
  50    -0.089404614010
  51     0.927006991008
  52    -4.815677028308
  53     2.717406107132
  54    -0.616837837034
  55     1.142988121291
  56    -0.709494254509
  57    -0.077477357751
  58     0.244905015499
  59    -0.167427657748
  60     0.038785131566
  61    -0.046175873373
  62     0.071021136887
  63    -0.341550245073
  64     1.335245331507
  65    -0.993695086434
  66    -0.686650874700
  67     0.693061436292
  68    -0.281214305622
  69     0.212617347023
  70     0.059679466578
  71    -0.048244785776
  72     0.039982495932
  73     0.221215417654
  74    -0.078486519477
  75    -0.325238600615
  76    -0.301283824131
  77     0.143213691810
  78     0.064427512980
  79    -0.324865718182
  80    -0.769939629365
  81     0.929192667706
  82     0.167912095592
  83    -0.168918841126
  84    -0.205639638738
  85     0.083683350505
  86    -0.716810532010
  87     0.612433237375
  88    -0.034878251695
  89     0.028493389699
  90     0.043244228231
  91     0.038664825499
  92     0.084723172882
  93     0.621789118549
  94    -0.003947145389
  95    -0.327697366590
  96     0.041930476611
  97     0.374427938669
  98     1.164554098330
  99    -0.038752852658
  100   -0.105436214333
  101   -0.145627737962
  102    0.340857852705
 Sym=     1a
 Ene= 2.37260357841673E+00
Spin= Alpha
 Occup= 0
  1      0.047273275336
  2     -0.024299097762
  3     -0.017834477067
  4     -0.345010434914
  5      0.870351641739
  6      0.107590475487
  7     -0.192095378939
  8      0.023619544010
  9      0.171991534428
  10     0.017425460193
  11    -0.222962347342
  12     0.329892477431
  13    -0.682008273336
  14    -1.396833725104
  15     0.059707810590
  16    -0.076401185115
  17     0.016693374525
  18     0.060234756047
  19     0.007542447476
  20     0.013047855367
  21    -0.067205313990
  22    -0.086512012501
  23     0.153717326491
  24    -0.142852984462
  25    -0.234704426909
  26     0.386266284441
  27    -0.409151589868
  28     0.273012128764
  29     0.114202851051
  30    -0.070711882752
  31    -0.387828562947
  32    -0.012787360950
  33     0.619646343580
  34     0.021544355788
  35    -0.140431841955
  36    -0.156537376016
  37     0.116116773705
  38     0.491991233928
  39     0.491002244206
  40     0.006765521018
  41     0.025761269165
  42    -0.182198353861
  43     0.073237023842
  44    -0.009086282409
  45    -0.662341599206
  46     1.687604335574
  47    -2.046440844667
  48    -0.114112050106
  49     0.241082291252
  50    -0.018240350038
  51     0.343159148080
  52    -0.927002265854
  53    -0.362894670799
  54    -1.311737452161
  55     1.409048798642
  56     1.174386852682
  57    -0.046077440353
  58     0.129882520802
  59    -0.083805080449
  60    -0.005998440533
  61     0.505711030599
  62    -0.197920404658
  63    -0.041085013247
  64    -0.035877502088
  65     0.076962515335
  66     0.113945513071
  67    -0.444576379193
  68     0.225290076276
  69    -0.260197992136
  70     0.022332326360
  71    -0.330391608437
  72     0.044871587023
  73    -0.035566904481
  74     0.170745858572
  75     0.304220651791
  76     0.005604944578
  77     0.272520998824
  78    -0.041278308567
  79    -0.089006998757
  80    -0.515842568440
  81    -0.710270490033
  82     0.012011381227
  83    -0.061548662936
  84     0.006776368566
  85     0.082483951147
  86    -0.084558194814
  87    -0.828827056642
  88     0.140393525339
  89    -0.176445610825
  90    -0.119215399980
  91    -0.035607421863
  92     0.531300914789
  93     0.789473324830
  94     0.098612772284
  95    -0.096698812815
  96     0.003602700515
  97    -0.165958420864
  98    -0.020044886381
  99     0.999498350673
  100   -0.015597585545
  101    0.124000092646
  102    0.021092402766
 Sym=     1a
 Ene= 2.37923076106041E+00
Spin= Alpha
 Occup= 0
  1      0.009095870057
  2      0.047294284643
  3      0.295071070271
  4     -1.523588395190
  5     -1.629365215005
  6      0.133334447075
  7      0.016175140343
  8     -0.028089601812
  9      0.163078471071
  10     0.207224665366
  11    -0.528110115433
  12    -0.944460898324
  13    -0.063534418644
  14     1.638577332453
  15     0.090912586783
  16     0.014236379627
  17    -0.105148966410
  18    -0.306778104157
  19     0.210621641085
  20     0.161555872037
  21     0.550496644456
  22    -0.198703617694
  23    -0.351793026762
  24     0.284766417465
  25     0.541213949386
  26     0.033435521065
  27    -0.096505614334
  28    -0.501950012522
  29    -0.068131421988
  30     0.009045942994
  31     0.019713257767
  32     0.093611971388
  33     0.120429925323
  34     0.653723351817
  35    -0.002204076807
  36    -0.253172361400
  37     0.342054967988
  38     1.143733440830
  39    -0.681339404573
  40     0.138268879468
  41     0.167800296329
  42    -0.374477776268
  43    -0.001088179232
  44    -0.044029212278
  45     0.215792902450
  46     0.598636847301
  47     0.415692009642
  48     0.138693604189
  49    -0.042656218785
  50    -0.269468072118
  51    -0.229120346875
  52    -0.279400499871
  53     1.216662334371
  54     1.132254932221
  55    -0.520170333640
  56    -2.323233656909
  57    -0.666489339803
  58     0.179330900472
  59     0.487158439331
  60    -0.247980745656
  61    -0.189835281804
  62    -0.204864836823
  63     0.505022458837
  64    -0.078243729959
  65    -0.426778728878
  66     0.074300523075
  67     0.167565826588
  68     0.157989014447
  69    -0.137798326856
  70     0.175428131644
  71    -0.016174428427
  72    -0.043790291288
  73    -0.121486321779
  74    -0.173756338166
  75     0.228666146909
  76    -0.113875214734
  77     0.195456611042
  78    -0.103843103166
  79     0.126907286330
  80     0.907415452152
  81     1.069087876002
  82    -0.069029336842
  83     0.081916185599
  84     0.036528058457
  85    -0.108756861889
  86    -0.123223397811
  87     1.526057626849
  88    -0.133235676006
  89     0.074069753281
  90     0.189519902223
  91    -0.087301245619
  92    -0.193630087504
  93     0.246602937862
  94    -0.029807101360
  95    -0.022335045491
  96     0.006368312854
  97     0.091811838120
  98     0.245241825197
  99    -1.340188500541
  100   -0.058409522687
  101    0.069791867718
  102   -0.095389363114
 Sym=     1a
 Ene= 2.48927180623683E+00
Spin= Alpha
 Occup= 0
  1     -0.003907437621
  2      0.009274492262
  3     -0.195994841912
  4      0.529035095954
  5      1.315349880339
  6      0.162124978891
  7     -0.106042821838
  8     -0.230142661096
  9     -0.962629251170
  10     0.510078660269
  11     0.965576352967
  12     0.313031809533
  13     0.496052698685
  14    -0.951045586342
  15    -0.117346817402
  16    -0.030710449494
  17     0.148057266896
  18     0.035644767961
  19     0.075469872841
  20    -0.011445240107
  21     0.079229592176
  22     0.065911526605
  23    -0.145141118781
  24    -0.044724739475
  25    -0.061405823776
  26    -0.636156539398
  27     0.164378586910
  28     0.036651985192
  29     0.007878606391
  30    -0.098237703280
  31     0.015327408424
  32    -0.007366137442
  33    -0.122299313346
  34    -0.064501206664
  35    -0.003204122233
  36    -0.014195098910
  37    -0.128002971889
  38    -0.733811682684
  39     0.786192287547
  40    -0.048464875759
  41    -0.038652866987
  42     0.224425828254
  43     0.131006349091
  44    -0.102519966682
  45    -0.517429652016
  46     1.113436990939
  47    -3.296255958067
  48    -0.173283700824
  49    -0.045794537118
  50    -0.280065125410
  51     0.386362864804
  52     0.789729203907
  53     0.769986985944
  54    -0.041835005972
  55     0.006792618718
  56    -0.865810829062
  57     0.387830457955
  58    -0.008794021113
  59    -0.379036436842
  60     0.027472567966
  61    -0.452601887091
  62     0.187931046890
  63    -0.298307646193
  64    -0.234737520330
  65     0.533045166523
  66    -0.276109746093
  67     0.602343431532
  68    -0.054035981735
  69    -0.559467166484
  70     0.020076823037
  71    -0.257348558076
  72     0.053877072314
  73     0.027256009161
  74     0.156863203182
  75     0.696726896949
  76    -0.054191893810
  77     0.188406118680
  78    -0.081417950576
  79     0.140227841641
  80     0.705928878055
  81    -0.826621433347
  82    -0.132124350951
  83     0.088213440747
  84     0.142677854211
  85     0.014111310202
  86    -0.357947195085
  87     1.213593742419
  88    -0.163552932766
  89     0.049007808962
  90     0.221791067660
  91    -0.066368756972
  92    -0.394177906348
  93     0.563667201107
  94     0.188996128422
  95    -0.103188782935
  96    -0.054583448199
  97    -0.132927917512
  98    -0.113166585892
  99     0.122553965967
  100    0.017445935098
  101    0.099715289156
  102    0.009758332546
 Sym=     1a
 Ene= 2.49673777307805E+00
Spin= Alpha
 Occup= 0
  1     -0.057895018573
  2      0.024194033830
  3      0.223659968478
  4     -0.768021111748
  5     -1.672280726062
  6      0.368019242328
  7      0.283770604340
  8      0.118008256067
  9     -0.832141856461
  10    -1.466167417069
  11    -0.688023064304
  12     0.463812869290
  13    -0.215626716362
  14    -0.262503751138
  15    -0.142845142426
  16     0.074649133239
  17     0.068196009187
  18     0.027608147442
  19     0.001183929996
  20    -0.115294051249
  21     0.167891910197
  22    -0.558349019246
  23     0.390457109049
  24    -0.352578960246
  25    -0.057398958453
  26    -0.734594907724
  27    -0.140600729725
  28    -0.332301851922
  29     0.403884390772
  30    -0.108480978370
  31     0.287840409967
  32    -0.013846268137
  33     0.297116651981
  34     0.157989308001
  35    -0.528021503553
  36     0.253030902694
  37    -0.088810777566
  38    -0.356551554797
  39     0.256151466820
  40    -0.083196061137
  41    -0.057763714605
  42     0.087299237639
  43     0.178828438760
  44    -0.455469386959
  45     1.692777922723
  46    -2.420255248948
  47     4.943890329225
  48     0.009536792720
  49     0.105373751598
  50     0.131393660756
  51     0.512907625859
  52    -0.292372148331
  53    -0.549708545617
  54     0.655096885109
  55    -1.005556570776
  56     1.085665940376
  57     0.045514648540
  58    -0.220479301138
  59     0.174964652598
  60    -0.092100771821
  61     0.057864833222
  62    -0.157519716177
  63    -0.428810214081
  64    -0.027474694670
  65     0.456284908751
  66    -0.132976983609
  67     0.033706105623
  68    -1.436171678140
  69    -0.376107236366
  70     0.135259504949
  71    -0.111333333574
  72     0.166342435387
  73    -0.147843605367
  74    -0.057908043387
  75     0.338258373020
  76    -0.033626063234
  77     0.207277384607
  78    -0.121131172239
  79    -0.108761576953
  80    -0.213496775595
  81    -0.149989807559
  82     0.065302036894
  83    -0.054083133535
  84    -0.075481830594
  85     0.152611321683
  86     1.120390054962
  87    -1.191017508282
  88     0.089094954558
  89    -0.076173044569
  90    -0.138471930796
  91     0.156959331130
  92     0.655102807963
  93    -1.269948543682
  94    -0.160172987860
  95    -0.077077523984
  96    -0.112351260883
  97    -0.272273998983
  98    -0.744203776011
  99    -0.364895089138
  100    0.109750694536
  101    0.070951767789
  102   -0.235385189647
 Sym=     1a
 Ene= 2.51515317483941E+00
Spin= Alpha
 Occup= 0
  1     -0.030859609741
  2     -0.034878132884
  3     -0.096079280475
  4      4.014807802581
  5     -1.018955183103
  6      0.019910802122
  7     -0.147253684384
  8      0.147305495248
  9     -0.302963254461
  10     3.414800781631
  11    -1.694902490693
  12    -0.121404401943
  13    -0.168165930979
  14     0.735255546185
  15    -0.575693346386
  16     0.170274882296
  17     0.405418464090
  18    -0.078285858432
  19    -0.569534027540
  20    -0.095129941676
  21     0.179306948126
  22     0.840298045267
  23    -1.019604993393
  24    -0.024926828670
  25     0.861470331258
  26    -0.812760675223
  27     0.038172071566
  28    -0.041233047860
  29     0.059428630632
  30    -0.046010309198
  31     0.013109056825
  32     0.175638501101
  33    -0.005202898921
  34     0.042210881936
  35    -0.255370375843
  36     0.104268721653
  37     0.066998607221
  38     0.768256983735
  39    -0.475734850286
  40    -0.019224618114
  41     0.027139859281
  42     0.122979918058
  43    -0.064946489664
  44     0.106602853694
  45     0.571456953093
  46    -4.987634523134
  47     1.338356523451
  48    -0.043094850651
  49    -0.122690577776
  50     0.063215253364
  51    -0.009710077858
  52     3.117016258000
  53    -1.085848414038
  54     0.087524941478
  55    -0.090081728304
  56    -0.506367809102
  57     0.101430627695
  58    -0.194989316175
  59     0.093558688480
  60     0.158632850428
  61     0.072136489068
  62    -0.103233639682
  63     0.067298919970
  64    -1.323710741313
  65     1.256411821343
  66     0.864756348644
  67    -0.135305348877
  68    -0.549755974163
  69    -0.190322765100
  70     0.466327996991
  71     0.067170015650
  72     0.300979517573
  73     0.037732436022
  74    -0.224739785069
  75    -0.045634733315
  76    -0.663377096671
  77     0.134621752443
  78    -0.009818213443
  79     0.042529745571
  80     0.417879824131
  81     0.436507716886
  82     0.065748624805
  83    -0.052357352122
  84    -0.132563624264
  85     0.167320384482
  86     1.011812970420
  87    -0.070459787112
  88     0.126154353500
  89    -0.091505373572
  90    -0.239562659105
  91    -0.044355617693
  92     0.136072720548
  93    -0.136405377946
  94    -0.089595108563
  95     0.176876940455
  96    -0.067549939560
  97    -0.023926657169
  98    -1.072352918276
  99    -0.233991899627
  100   -0.012216744163
  101    0.039773606552
  102   -0.098688625515
 Sym=     1a
 Ene= 2.54261907843991E+00
Spin= Alpha
 Occup= 0
  1     -0.202897854403
  2      0.565105892400
  3     -2.414744976965
  4      4.950239899854
  5     -4.836571709868
  6     -0.206062154730
  7      0.125388064581
  8     -0.082595396921
  9      0.667748175018
  10     0.807455377272
  11     0.293279070332
  12    -0.453101121673
  13    -1.185092292066
  14     1.108444170256
  15    -0.204174986571
  16     0.032976481521
  17     0.171198505050
  18     0.246398450803
  19     0.203814359752
  20    -0.010082561614
  21     0.035810895548
  22    -0.020032961994
  23    -0.015777933554
  24     0.951835019780
  25    -0.106660262087
  26    -0.604715121482
  27     0.020161163007
  28    -0.048289550748
  29     0.252078528078
  30     0.197431848205
  31    -0.034801683542
  32    -0.263646360263
  33    -0.224480886799
  34     0.099588914387
  35    -0.074552474407
  36     0.097886883970
  37    -0.056782153324
  38    -1.404443901812
  39     0.133058640356
  40    -0.055355499899
  41    -0.041396468224
  42     0.107517149072
  43    -0.053554126145
  44     0.035953348962
  45     0.366220115774
  46    -1.746186346403
  47     3.202668221352
  48    -0.129286343147
  49    -0.107297331067
  50     0.007494311769
  51    -0.236861904287
  52     0.753589759041
  53     0.007404638851
  54     0.327910155723
  55    -1.277196089966
  56    -0.273190584319
  57     0.039990135980
  58    -0.060934962036
  59     0.020944826056
  60     0.097310536614
  61    -0.024086711193
  62    -0.107683631931
  63    -0.057042832293
  64    -0.088708411731
  65     0.145751244024
  66     0.450899759521
  67     0.116600064892
  68    -0.250452748202
  69     0.207875190809
  70     0.109587728840
  71    -0.256015664945
  72    -0.319615931106
  73     0.057713286339
  74     0.035787655571
  75     0.040722096615
  76    -0.204740653050
  77     0.307693402502
  78     0.351081437295
  79     0.105169286925
  80    -0.016932756115
  81     1.094719130611
  82    -0.116909714518
  83     0.022624490213
  84     0.024463879387
  85     0.108849009280
  86     0.342402856257
  87     0.142395351466
  88     0.033993627161
  89    -0.123245470411
  90    -0.053650083192
  91    -0.007163883300
  92    -1.032756529857
  93     0.512426331285
  94     0.081140553862
  95     0.192952834465
  96     0.065793761043
  97     0.063039358921
  98    -0.085455888662
  99    -0.255977524133
  100    0.064085945275
  101    0.057658806692
  102    0.048463785081
 Sym=     1a
 Ene= 2.54561526182984E+00
Spin= Alpha
 Occup= 0
  1      0.129895692781
  2     -0.201711098981
  3     -0.402054425642
  4      7.854421214880
  5     -0.323943582311
  6      0.102464080873
  7      0.140663061963
  8      0.149530739640
  9     -1.152302760882
  10     5.511827528553
  11    -1.746911767777
  12    -0.330678854218
  13    -0.683280811415
  14     1.614005450903
  15    -0.475302206504
  16     0.874417992620
  17    -0.399115786116
  18    -0.061245780841
  19     0.432833464551
  20    -0.009923870537
  21    -0.496369393668
  22     0.974391057852
  23    -0.478021664184
  24    -0.596994887806
  25    -0.369660676221
  26    -0.736945394537
  27     0.085116980795
  28     0.229430790222
  29    -0.198682942525
  30    -0.124826870615
  31    -0.208806884385
  32     0.379709325005
  33     0.010630457557
  34    -0.099006821456
  35    -0.113148185732
  36     0.025636442549
  37     0.134325930598
  38    -0.237655554045
  39    -1.157578859295
  40     0.211170321728
  41     0.043777911457
  42    -0.174061971269
  43     0.037918787803
  44    -0.014446328203
  45     1.327361199734
  46    -8.174219992006
  47     0.722891603795
  48     0.165002968120
  49    -0.281627860361
  50     0.028175528736
  51    -1.475666734988
  52     5.963973122966
  53    -0.567693182812
  54     0.532551881318
  55    -0.280846358804
  56    -0.334815698882
  57     0.020998188858
  58    -0.078963050115
  59     0.057964861257
  60     0.001066952754
  61     0.132833701951
  62     0.137164334807
  63     0.897705785393
  64    -2.010307138518
  65     1.112601353125
  66     0.340303248137
  67     0.107960349888
  68     1.359312267671
  69     0.251523591030
  70     0.623318551412
  71     0.155691083669
  72    -0.279110733219
  73    -0.504290806076
  74     0.022243861562
  75    -0.058343575274
  76    -0.331978785480
  77    -0.231125369507
  78    -0.039479820830
  79    -0.002623765264
  80    -0.024670428986
  81     0.474857858573
  82     0.003745735905
  83    -0.074760185821
  84     0.086325286618
  85    -0.132783075634
  86    -0.630221713240
  87     0.524183904317
  88    -0.105698565492
  89     0.009508869964
  90     0.043467758805
  91     0.100944187393
  92     0.224003359278
  93    -0.240084848055
  94    -0.066264751337
  95     0.057207885423
  96    -0.017042230673
  97     0.085380047276
  98     0.746277717289
  99    -0.157505057185
  100    0.009961825600
  101   -0.054718264039
  102    0.173790163073
 Sym=     1a
 Ene= 2.61206125349970E+00
Spin= Alpha
 Occup= 0
  1      0.019982643039
  2     -0.074192112063
  3      0.076394330463
  4     -0.423584919326
  5      1.742633206597
  6     -0.144927068404
  7      0.186687757463
  8     -0.120845268380
  9      0.005362007185
  10    -3.112918512766
  11     1.484578359784
  12    -0.330103543930
  13     0.311180982644
  14     1.318468717477
  15    -0.068653288506
  16    -0.103103770657
  17     0.171757059163
  18     0.398630598306
  19    -0.254322175431
  20    -0.226169985716
  21    -0.528263555003
  22    -1.160869544711
  23     1.689133099714
  24     0.096971370880
  25    -1.140250191352
  26    -0.225344065423
  27     0.132721181332
  28     0.305462674362
  29     0.200709198944
  30     0.133646100489
  31     0.142905464545
  32    -0.099070400654
  33    -0.311710250597
  34    -0.552726647223
  35    -0.170209246875
  36     0.315247615027
  37    -0.515413908284
  38    -2.949053964694
  39    -0.438633256514
  40    -0.249276985127
  41    -0.378959828418
  42     0.605102810800
  43    -0.005917710848
  44    -0.055041927771
  45     0.302654709691
  46     1.769651709851
  47    -0.718195590402
  48     0.126039853156
  49     0.051413941330
  50    -0.192260010213
  51    -0.132370657384
  52    -2.047188397268
  53     1.243722872035
  54     0.796979277996
  55     0.272107407922
  56    -1.965470955903
  57    -0.557458389214
  58     0.163424849800
  59     0.394033539414
  60    -0.185902750725
  61    -0.156278139170
  62    -0.177074569359
  63     0.367019752395
  64     0.518706561147
  65    -0.885726313542
  66     0.194372649461
  67     0.484269785396
  68    -0.035533538678
  69    -0.077987240843
  70     0.130407424499
  71     0.030180838746
  72    -0.151151408681
  73     0.010314167674
  74    -0.217133808285
  75     0.255782271822
  76    -0.185274087243
  77     0.176641964053
  78     0.059653946004
  79    -0.268849625198
  80    -0.777326926537
  81     0.397921878258
  82     0.118763666465
  83    -0.156524547412
  84    -0.003541293184
  85     0.044975916053
  86     0.393484404025
  87     0.938288680354
  88    -0.042148576382
  89    -0.083884306893
  90     0.100854839511
  91     0.086164772954
  92     0.238334343824
  93    -0.362591628862
  94    -0.039235705917
  95    -0.135827706393
  96    -0.008397743586
  97     0.168999832770
  98     0.712624219690
  99    -1.387596034556
  100   -0.109313956735
  101    0.042990392086
  102    0.007819775211
 Sym=     1a
 Ene= 2.61520508454887E+00
Spin= Alpha
 Occup= 0
  1     -0.010934685141
  2     -0.027928625009
  3      0.146430220068
  4      1.201820344261
  5     -0.051613061440
  6      0.037611108061
  7     -0.194831183101
  8      0.241975361469
  9     -0.043871304336
  10     1.747920118108
  11    -0.291050672743
  12    -0.598646368171
  13     0.013961168785
  14     1.179427937354
  15    -0.561743609497
  16     0.112298238892
  17     0.449445370605
  18    -0.032431369347
  19    -0.607322915289
  20    -0.025859442671
  21     0.440207246395
  22     0.495122429140
  23    -0.935329675535
  24     0.108080361752
  25     0.790210796527
  26     0.432240746761
  27    -0.021469535302
  28     0.019941556447
  29    -0.229507336309
  30     0.047432387155
  31    -0.053983371964
  32     0.126703991367
  33    -0.018627982926
  34     0.027228966489
  35     0.181212411826
  36    -0.048927672613
  37     0.198492399970
  38     0.534995145384
  39    -0.743045981748
  40     0.005860108692
  41    -0.034670616372
  42     0.095840019205
  43     0.064119231684
  44    -0.055831769212
  45    -0.395037624478
  46     0.603975561596
  47    -1.011992804494
  48     0.040926137085
  49    -0.005399443393
  50    -0.009501767322
  51    -0.646471090035
  52     1.679223104336
  53    -0.030467960831
  54     0.644661021004
  55    -0.085946591833
  56    -0.673665472663
  57    -0.059345696041
  58     0.114799956288
  59    -0.055454260247
  60    -0.102060612601
  61    -0.076600320180
  62     0.121872227569
  63     0.333435600831
  64    -0.532153872722
  65     0.198718271891
  66    -0.486366405418
  67    -0.625869169568
  68     0.944467641207
  69     0.252172138167
  70    -0.346043109947
  71    -0.076032557372
  72    -0.472813516470
  73    -0.128344462461
  74     0.223054344108
  75     0.134489090687
  76     0.592610012654
  77    -0.121045964036
  78    -0.011280297423
  79     0.024874614249
  80     0.457928293934
  81     0.615824356868
  82     0.080053305657
  83    -0.018206228398
  84    -0.125521911696
  85    -0.331806972488
  86    -1.544311193619
  87     0.971341270083
  88    -0.206893811056
  89     0.239210082578
  90     0.274682068633
  91    -0.050036543666
  92    -0.661436927820
  93     0.084331018667
  94     0.044670097870
  95     0.099906381187
  96     0.023579595931
  97    -0.135850996274
  98    -0.233679450260
  99    -0.029311758118
  100    0.055926245504
  101    0.149507575891
  102   -0.089112112220
 Sym=     1a
 Ene= 2.70015012543625E+00
Spin= Alpha
 Occup= 0
  1     -0.014288107419
  2      0.043411511512
  3     -0.143986888990
  4     -0.674818043744
  5     -0.078078679995
  6     -0.138615582012
  7     -0.153456480416
  8     -0.036204890122
  9      0.740874992906
  10    -0.284615251428
  11    -0.719026523234
  12    -0.379631685381
  13     0.433859840960
  14     0.397229177039
  15     0.006282082617
  16    -0.191643127486
  17     0.185361044869
  18     0.178900119869
  19     0.105082459376
  20     0.203693483901
  21    -0.028478499180
  22     0.018738536537
  23     0.009739962643
  24     0.249984952078
  25     0.109734431688
  26    -0.448239594316
  27     0.038073728480
  28     0.037395245946
  29     0.342298091047
  30     0.116528360811
  31    -0.059863965455
  32     0.435162635201
  33    -0.167609627834
  34     0.009692978272
  35    -0.894403715291
  36    -0.383738096707
  37     0.029620397697
  38     0.396823419917
  39    -0.103983042389
  40     0.022436546015
  41    -0.023093919200
  42    -0.148993352570
  43     0.060943494595
  44    -0.040007627527
  45    -0.558956402592
  46     1.350134156581
  47    -1.207905391237
  48    -0.225294057720
  49     0.167007765331
  50     0.160117615221
  51    -0.160330111398
  52    -0.481477343057
  53     0.386064776341
  54     0.519913253071
  55    -0.028574640094
  56    -0.796869862987
  57     0.003299006220
  58     0.029588640661
  59    -0.032887646881
  60    -0.344700699587
  61     0.052312991034
  62     0.441302559617
  63    -0.345312286216
  64     0.136351717179
  65     0.208960569037
  66     0.753655554430
  67     0.028184492637
  68    -1.070235295651
  69     0.142299659328
  70    -0.053715645654
  71    -0.144790747101
  72    -0.221368741240
  73     0.101390191143
  74    -0.241430300968
  75     0.030453714380
  76    -0.029323090061
  77     0.435687472786
  78    -0.053983126994
  79     0.039647672090
  80     0.032837840224
  81     0.485512436011
  82     0.131826517876
  83     0.054151132587
  84    -0.012430198087
  85    -0.027709828248
  86     0.378678998504
  87     0.643728260644
  88    -0.166200848528
  89     0.162189977778
  90     0.116214710016
  91     0.091279457361
  92    -0.145707261668
  93     0.244225295572
  94    -0.047920166060
  95    -0.000040524689
  96     0.041573980755
  97    -0.025121061189
  98    -0.537756614689
  99    -0.163593104470
  100   -0.028395198388
  101   -0.118014836115
  102    0.103222098328
 Sym=     1a
 Ene= 2.73034546699468E+00
Spin= Alpha
 Occup= 0
  1     -0.000581289197
  2      0.016564706714
  3      0.610218454648
  4     -3.142645679415
  5     -0.811363660545
  6     -0.015771536446
  7      0.190196164710
  8      0.241472143763
  9     -0.308523686874
  10    -1.430253611131
  11    -0.462034288895
  12     0.053906764388
  13    -0.017340235924
  14    -0.219237950119
  15    -0.082309698498
  16     0.014795501787
  17     0.067514196711
  18     0.790440684506
  19     0.133389818390
  20    -0.104886251982
  21     0.424087009528
  22    -0.389720132249
  23    -0.034366877279
  24    -1.398219119475
  25     0.325450766772
  26     0.848728849404
  27    -0.043352118962
  28    -0.430234068588
  29    -0.221771149064
  30    -0.257881386979
  31     0.115515755090
  32    -0.121778530160
  33     0.316044357959
  34     0.461703819069
  35     0.419315749014
  36    -0.470102227741
  37     0.316566387647
  38     1.393929483135
  39     0.129519699716
  40     0.000883612530
  41     0.027005726167
  42    -0.212289929254
  43     0.028672902881
  44    -0.071863881091
  45    -0.072624948477
  46     2.232065520593
  47    -0.489092956913
  48    -0.091907458784
  49    -0.117232339850
  50    -0.018358703575
  51     1.236517647464
  52    -1.101456566700
  53    -0.211679545695
  54    -0.316560840193
  55    -0.124503348690
  56    -0.143607756896
  57    -0.011731687677
  58     0.089019232657
  59    -0.077287544980
  60     0.065003195068
  61    -0.081849237458
  62    -0.097240672144
  63    -0.249740316077
  64     0.388295355105
  65    -0.138555039028
  66    -0.595715556509
  67     0.057655634309
  68     0.033031953870
  69    -0.031375969906
  70     0.013520174431
  71     0.013886434479
  72     0.062983502072
  73    -0.414343015101
  74    -0.158615089930
  75    -0.020888221130
  76     0.396203797644
  77     0.139984483054
  78    -0.046768673117
  79     0.127257339169
  80    -0.187385576441
  81     0.196502299834
  82    -0.144625551427
  83     0.231329326533
  84     0.158966054157
  85    -0.058958465182
  86     0.139618397823
  87     0.118647682637
  88    -0.125242272792
  89    -0.110818208378
  90    -0.023151880184
  91     0.052638831150
  92     0.692706854226
  93     0.343044243664
  94    -0.033190813758
  95    -0.176973480376
  96    -0.011086993857
  97    -0.084805517294
  98    -0.403061271461
  99     0.207255383056
  100    0.054842298075
  101    0.112551744588
  102   -0.129880390315
 Sym=     1a
 Ene= 2.74365889307262E+00
Spin= Alpha
 Occup= 0
  1     -0.024091565732
  2      0.055901168935
  3     -0.015887487770
  4     -0.688322939201
  5     -0.785316378462
  6      0.036004730368
  7     -0.022819240504
  8      0.151927316023
  9      0.171509245316
  10     0.258926757005
  11    -0.191139578602
  12    -0.201553203858
  13    -0.102244712935
  14     0.487359838063
  15    -0.055883059927
  16     0.035163903904
  17     0.020719156023
  18     0.429872145539
  19     0.059533010620
  20    -0.062898137906
  21     0.073758773808
  22     0.268030467503
  23    -0.341789241311
  24    -0.302431107042
  25     0.162244850814
  26     0.386794384287
  27    -0.135317380420
  28    -0.135829872243
  29    -0.071639852297
  30     0.000269612089
  31     0.073485282359
  32    -0.082657353579
  33     0.181277704606
  34     0.108749614268
  35     0.178772301360
  36    -0.357818019231
  37     0.207174987481
  38     0.665973618044
  39    -0.276469130300
  40    -0.018901893065
  41     0.048996363812
  42    -0.127425893637
  43    -0.033417837501
  44     0.027832002676
  45     0.206395562810
  46    -0.840320142473
  47     1.378642073917
  48     0.330614592709
  49     0.012563393806
  50     0.054973340609
  51    -1.095691657448
  52    -0.130727809429
  53     0.077705751368
  54     1.057974965120
  55    -0.503302381368
  56    -0.420774013785
  57    -0.032242625491
  58    -0.055963293585
  59     0.088205919076
  60    -0.152099535351
  61     0.164219167602
  62     0.131753790010
  63     0.067648150091
  64     0.342635125172
  65    -0.410283275263
  66    -0.043304689950
  67    -0.182576327052
  68     0.419820155366
  69     0.038521568998
  70    -0.409976567089
  71    -0.088673630268
  72    -0.190985739773
  73     0.987675548174
  74     0.274164762054
  75     0.139303631645
  76    -0.437634264259
  77    -0.155196602999
  78    -0.012093438012
  79     0.085877610629
  80     0.134531492181
  81     0.269340121274
  82    -0.081068681266
  83     0.141232122020
  84     0.111066624787
  85    -0.071053893712
  86    -0.285880227755
  87     0.505925201924
  88     0.173957229905
  89     0.053681881853
  90     0.227806142402
  91     0.141542053988
  92     0.267722127099
  93    -0.437901384407
  94    -0.125705999510
  95     0.017875592372
  96    -0.112658381868
  97     0.143001820033
  98     0.579479598961
  99    -0.653810514402
  100   -0.118413078164
  101    0.001360135062
  102    0.173106401392
 Sym=     1a
 Ene= 2.75272255512475E+00
Spin= Alpha
 Occup= 0
  1      0.039741516557
  2     -0.027494120825
  3      0.208473534984
  4     -0.724649912279
  5     -0.283509758112
  6     -0.460560193559
  7      0.076111960062
  8     -0.017273478146
  9      1.091829641799
  10    -0.344653847420
  11     0.755462826757
  12    -0.090196625594
  13    -0.054998769085
  14    -0.577044577310
  15    -0.134505388454
  16    -0.045538712833
  17     0.180044101287
  18    -0.109076047243
  19     0.216092450808
  20    -0.946968775711
  21     0.285595253546
  22    -0.156149472211
  23    -0.129445781335
  24     0.584309993418
  25    -0.210969794927
  26     1.043214049937
  27    -0.082033656480
  28    -0.269224022278
  29    -0.317807247655
  30     0.126921806890
  31     0.140784507791
  32     0.376004181229
  33    -0.016862107491
  34     0.220417421203
  35     0.050378984470
  36    -0.114515961249
  37     0.090625389746
  38     0.203333054979
  39     0.279698797257
  40     0.034062966358
  41    -0.169971732640
  42     0.156517355157
  43    -0.008558423909
  44    -0.026883773568
  45     0.330804884777
  46     0.566666033986
  47     0.078796468979
  48    -0.062356192727
  49    -0.145643415995
  50    -0.020189732437
  51    -0.149339559461
  52    -0.589335830608
  53    -0.020423957789
  54    -0.152094305418
  55     0.030780613053
  56    -0.136237853482
  57     0.094940468917
  58     0.083910293078
  59    -0.178850761995
  60    -0.355970230373
  61     0.001333693553
  62    -0.289274953259
  63    -0.191814658328
  64     0.210702844852
  65    -0.018888186524
  66     0.541488739024
  67    -0.025488555678
  68     0.513328944222
  69     0.092200799644
  70     0.025722410631
  71    -0.050388431696
  72    -0.134276328696
  73     0.005608660574
  74    -0.000299991125
  75     0.010575975346
  76    -0.040118895804
  77     0.067903166256
  78    -0.026876989945
  79     0.085782940304
  80    -0.056643281257
  81    -0.155348783393
  82    -0.105280041737
  83     0.247891358443
  84     0.193577836360
  85    -0.027122627039
  86    -0.046214231801
  87     0.025984259431
  88    -0.044715027762
  89    -0.060783998351
  90     0.015511096581
  91    -0.093913410881
  92    -0.312495028229
  93     0.240901771003
  94     0.054937098520
  95     0.118839889624
  96    -0.042123331210
  97     0.012589693747
  98     0.172313041887
  99    -0.219232552088
  100   -0.042411337284
  101    0.071245232393
  102    0.050176337788
 Sym=     1a
 Ene= 2.76153115233606E+00
Spin= Alpha
 Occup= 0
  1     -0.035054679314
  2      0.079468680705
  3     -0.311121434575
  4     -0.148001864804
  5     -0.774808704388
  6     -0.115364428545
  7     -0.270963485033
  8      0.021813762067
  9      0.318069473306
  10     0.136102379106
  11     0.172083092468
  12     0.034477243496
  13    -0.202748702995
  14     0.227169372799
  15    -0.012344103848
  16    -0.101303032327
  17     0.113647136175
  18     0.011974220324
  19     0.049698334401
  20     0.027254751542
  21     0.236801864179
  22     0.108037678706
  23    -0.344839542885
  24     0.163580653714
  25     0.166050447274
  26     0.357950139240
  27    -0.437455513043
  28    -0.036812488363
  29    -0.066364622668
  30     0.673908903799
  31     0.059026861922
  32    -0.116059991219
  33    -0.087000745221
  34    -0.009637726081
  35     0.205097475771
  36     0.031114152983
  37     0.054610929953
  38     0.352418040879
  39    -0.136928361306
  40     0.014065779823
  41     0.014883073492
  42    -0.062448655403
  43     0.045113359704
  44    -0.097749920846
  45     0.251629621939
  46    -0.011385220363
  47     1.067622973749
  48     0.049997944710
  49    -0.051103196260
  50    -0.045312783793
  51    -0.642054281188
  52    -0.219672648379
  53    -0.076120044316
  54     0.456356310560
  55    -0.337191651602
  56     0.223967646208
  57    -0.209240930852
  58     0.156968117950
  59     0.052272812902
  60     0.097210870987
  61    -0.088391899215
  62     0.017895662630
  63    -0.167928975608
  64     0.124042066562
  65     0.043886909046
  66    -0.091522009829
  67    -0.115584282026
  68     0.455263225414
  69    -0.234270075995
  70    -0.596824366292
  71    -0.123152191493
  72     0.617849058498
  73     0.320860385191
  74    -0.155257427036
  75    -0.303542769486
  76     0.479863527003
  77     0.320483430090
  78     0.400646596297
  79    -0.061398899594
  80     0.157258030158
  81     0.065077053802
  82    -0.016665768404
  83     0.091190533122
  84    -0.061263359666
  85    -0.041643452892
  86    -0.464785608300
  87     0.093533326118
  88    -0.093712810422
  89     0.119011656055
  90    -0.031622335137
  91     0.067668768340
  92    -0.099959750508
  93    -0.269497894803
  94    -0.111851440542
  95     0.225370698969
  96    -0.075878554664
  97    -0.002770479282
  98     0.167345050579
  99    -0.069623816430
  100    0.099707290873
  101    0.094710782415
  102    0.009483783934
 Sym=     1a
 Ene= 2.77239897829336E+00
Spin= Alpha
 Occup= 0
  1      0.037903370996
  2     -0.068417227359
  3      0.430856836770
  4     -0.995019187443
  5      0.138198238654
  6      0.281945427101
  7      0.343532472911
  8      0.204650514595
  9     -0.689823787088
  10    -1.605512122032
  11    -0.046801417508
  12     0.426222461558
  13     0.430002231203
  14     0.596051459140
  15    -0.137611207522
  16     0.267429567499
  17    -0.129818359977
  18    -0.238012339605
  19    -0.050294272826
  20    -0.517879979398
  21     0.034699867773
  22    -0.599962750099
  23     0.565262882326
  24    -0.106877622804
  25    -0.327231495401
  26     0.386277224983
  27     0.175164277010
  28     0.371808005118
  29     0.612858976366
  30     0.018397403164
  31    -0.488912290085
  32    -0.612877945674
  33    -0.253404941539
  34    -0.009920494328
  35    -0.209358653391
  36    -0.408223788003
  37    -0.134037382747
  38    -0.481051583085
  39     0.007406027712
  40    -0.124453949871
  41    -0.258152338293
  42     0.105011512876
  43     0.018042445711
  44     0.002856980510
  45     0.107655840063
  46     0.649320380780
  47     0.035425294829
  48     0.131811231356
  49     0.043487848684
  50     0.063371800116
  51    -0.252840763537
  52    -0.572681672741
  53     0.034199624878
  54     0.019212007814
  55    -0.011244370538
  56    -0.489580377528
  57     0.078710257089
  58    -0.074237658810
  59    -0.004472598279
  60     0.050529112075
  61     0.031122252124
  62    -0.060694667874
  63    -0.116219526061
  64     0.229419590516
  65    -0.113200064455
  66     0.026404708994
  67    -0.089060488334
  68     0.233021723290
  69     0.086607100386
  70     0.061535574526
  71     0.025843287927
  72    -0.197431178898
  73     0.031620422680
  74    -0.228772101765
  75     0.081235560620
  76    -0.114179059285
  77     0.194099692625
  78     0.004380919034
  79    -0.002838623605
  80    -0.371568740022
  81     0.361763505013
  82    -0.079525708879
  83     0.013009186121
  84    -0.046521800067
  85    -0.032880445467
  86    -0.042917972299
  87     0.164017475548
  88    -0.003414643683
  89    -0.097284890705
  90     0.022847563592
  91     0.257539072422
  92     0.945368494555
  93    -0.494457852088
  94    -0.332501369863
  95    -0.328022134965
  96    -0.107650960317
  97     0.058100391446
  98     0.112437802770
  99    -0.297753467534
  100   -0.075719437741
  101    0.055823026612
  102    0.068367417927
 Sym=     1a
 Ene= 2.78790328533300E+00
Spin= Alpha
 Occup= 0
  1      0.015659081275
  2      0.030610133091
  3     -0.183223502281
  4     -0.141783995024
  5      1.110328110468
  6      0.201940453484
  7      0.013431514128
  8      0.107874708831
  9     -1.093111220906
  10    -0.176971382823
  11     0.213021659918
  12    -0.251281360063
  13     0.179844720084
  14    -0.130797959311
  15     0.070647588742
  16     0.081730068900
  17    -0.152377657642
  18    -0.021806832275
  19    -0.085875428029
  20     0.006891507453
  21    -0.066385017294
  22    -0.216895228835
  23     0.283280246129
  24    -0.727750635700
  25     0.096302847232
  26     0.005764377136
  27     0.796739967505
  28    -0.071116285974
  29    -0.047799080011
  30    -1.196144815953
  31     0.032126721083
  32     0.075436938542
  33     0.127205979314
  34     0.063285788763
  35    -0.011307743242
  36     0.026901010469
  37     0.004585163700
  38    -0.341473791738
  39    -0.107678609419
  40     0.002299040257
  41    -0.006780650374
  42     0.026029791304
  43     0.018405385680
  44    -0.010269602242
  45     0.114197383953
  46    -0.746220515713
  47     0.038799214869
  48     0.065169411576
  49     0.130627872819
  50    -0.064791360254
  51     0.428254598835
  52     0.030620314821
  53    -0.016569938282
  54     0.400360646676
  55     0.201619038999
  56     0.212780025517
  57    -0.098275317306
  58     0.054356556639
  59     0.043918760667
  60     0.017418175479
  61    -0.041121408958
  62     0.023471088313
  63     0.323677996755
  64    -0.165579837086
  65    -0.158098159669
  66    -0.734996240813
  67     0.283970240193
  68     0.279615637932
  69    -0.305216565590
  70    -0.157686434490
  71    -0.042355366569
  72     0.651962035705
  73    -0.052953773449
  74    -0.045763371932
  75    -0.242471042594
  76     0.264512325438
  77     0.102589059248
  78     0.123749371517
  79     0.103508692058
  80     0.070536653525
  81    -0.215423654987
  82    -0.033086356925
  83     0.000187825765
  84     0.130668839288
  85    -0.001409698747
  86     0.021616093518
  87    -0.128362470839
  88    -0.001751761713
  89    -0.011554281246
  90    -0.043255171248
  91     0.181287295171
  92     0.376354396495
  93    -0.450652620614
  94    -0.270945739832
  95    -0.116628654548
  96    -0.117659830429
  97     0.047846325594
  98     0.373034990827
  99    -0.108351412816
  100    0.042820129776
  101    0.008387293683
  102    0.039110466587
 Sym=     1a
 Ene= 2.84283993852190E+00
Spin= Alpha
 Occup= 0
  1     -0.016536990755
  2      0.021490934173
  3     -0.328049512952
  4     -0.112272477554
  5      0.704850400310
  6     -0.235817893106
  7     -0.075033744352
  8     -0.025209284655
  9      0.236388586330
  10     0.040479050241
  11     0.138949153542
  12    -0.349779216327
  13     0.315484229188
  14    -0.558721541333
  15    -0.092725450790
  16     0.027078141287
  17     0.065647309503
  18    -0.061730276643
  19     0.089653874928
  20    -0.470229519235
  21    -0.041102461288
  22     0.181132169123
  23    -0.140029707835
  24     0.030989946529
  25     0.057052894300
  26     0.270993436600
  27    -0.049871362627
  28     0.153210797777
  29    -0.099716585365
  30     0.108706272470
  31    -0.106309870995
  32     0.243250265222
  33    -0.041796818291
  34    -0.099243984235
  35    -0.109466427206
  36    -0.025216376918
  37     0.014044039734
  38     0.038395446421
  39     0.155265423939
  40    -0.008304213648
  41    -0.088356389743
  42     0.103224280100
  43     0.055011392409
  44     0.007025103986
  45    -0.352357904878
  46     0.032078444456
  47    -0.628390366481
  48     0.044150972007
  49     0.210599465133
  50     0.042176668757
  51    -0.001593196360
  52    -0.612111354956
  53    -0.121897748143
  54     0.455179370426
  55     0.188359116635
  56     0.334467767832
  57    -0.189902355334
  58    -0.222844992600
  59     0.412747347934
  60     0.807645284490
  61    -0.003735492733
  62     0.567297802950
  63     0.324026002015
  64     0.279537912319
  65    -0.603563914334
  66    -0.803818309191
  67     0.355470432780
  68    -0.619417671043
  69    -0.103035169438
  70     0.305858585427
  71    -0.054675791051
  72    -0.040375684631
  73    -0.125278919631
  74    -0.055998195334
  75     0.178611870394
  76    -0.285073433479
  77     0.129353466642
  78     0.038056541361
  79     0.023455462415
  80    -0.114250360904
  81    -0.116847516267
  82     0.012947533983
  83     0.106485213078
  84     0.062353291532
  85     0.133672712659
  86     0.383414323130
  87    -0.039254175096
  88     0.103516753545
  89    -0.181546968284
  90     0.045370347209
  91    -0.174914661296
  92    -0.559467646333
  93     0.068665728930
  94     0.089374018228
  95     0.078607453125
  96     0.042100523066
  97     0.080532052049
  98     0.285529428839
  99     0.042722481413
  100   -0.023760335753
  101   -0.008413327240
  102    0.058332657662
 Sym=     1a
 Ene= 2.85385268913689E+00
Spin= Alpha
 Occup= 0
  1      0.015298823195
  2      0.025016386242
  3      1.130455292434
  4     -10.472768373856
  5      0.476823130404
  6     -0.092187672482
  7      0.305178867555
  8     -0.065156637787
  9      0.777154147128
  10    -8.491853083185
  11     1.775321087814
  12    -0.091003788386
  13     0.921903424582
  14    -0.243914417593
  15     0.064992633235
  16    -0.140933847238
  17     0.075941214003
  18     0.008996043235
  19    -0.000218040364
  20     0.042440263271
  21     1.511605091607
  22    -2.884772527155
  23     1.373167435548
  24     0.315281642561
  25     0.041885029199
  26     0.889417599336
  27     0.367005471512
  28    -0.706863601424
  29    -0.092499867922
  30     0.126977164467
  31     0.693696147159
  32    -0.082775062852
  33    -0.619366673916
  34     0.254660891004
  35     0.206876658402
  36     0.241531945399
  37    -0.226762191461
  38    -0.297418917468
  39     0.619298052069
  40    -0.004124033855
  41    -0.092836978569
  42     0.139326384939
  43     0.082705958698
  44    -0.105877198156
  45    -1.309201411175
  46     11.726434569868
  47    -1.871764577946
  48    -0.148071341072
  49     0.166647785395
  50     0.059636142651
  51     2.441269817637
  52    -8.353167027339
  53     1.175931249408
  54    -0.698943088762
  55     1.224176094779
  56     0.484798574629
  57    -0.124479979744
  58     0.268623756929
  59    -0.144143777185
  60    -0.065685330639
  61     0.542380887840
  62    -0.282726023460
  63    -1.022706829149
  64     2.167732168924
  65    -1.145025339775
  66    -1.115080931094
  67    -0.045995580880
  68    -1.005584552377
  69    -0.500060353396
  70    -0.043985138858
  71    -0.460044916293
  72     0.401947954332
  73     0.038487293737
  74     0.133985886914
  75     0.268953411496
  76     0.020524962555
  77     0.483229136406
  78     0.005784595936
  79    -0.032655131761
  80    -0.076037475320
  81     0.597599085264
  82     0.064673205477
  83     0.067931519446
  84    -0.114907894453
  85     0.219145428653
  86     0.388393383097
  87    -0.860917827694
  88     0.209836033682
  89    -0.237815809453
  90    -0.192839478014
  91    -0.036245008513
  92    -0.361306382239
  93     0.427230272059
  94     0.169130311896
  95    -0.111957696494
  96     0.156412505249
  97    -0.028623603720
  98    -0.279066993449
  99     0.396761069853
  100   -0.034654524416
  101    0.154732445251
  102    0.033093017398
 Sym=     1a
 Ene= 2.88743563237838E+00
Spin= Alpha
 Occup= 0
  1     -0.014563123444
  2      0.053610026045
  3     -0.182198659562
  4     -0.333666224728
  5     -0.262873596611
  6     -0.005415112780
  7     -0.262095972807
  8     -0.062681858027
  9      0.623308668670
  10     0.544590594398
  11    -0.076595391808
  12    -0.268652034804
  13    -0.265716786056
  14     0.202295874600
  15     0.032348599063
  16    -0.088119403132
  17     0.055770804069
  18     0.107990149006
  19     0.009431635598
  20     0.125312488301
  21    -0.032858545992
  22     0.252015992035
  23    -0.219157446043
  24     0.461163849006
  25     0.130178345240
  26    -0.323551468371
  27    -0.155779145945
  28    -0.154361939422
  29    -0.102479084184
  30     0.208731993163
  31     0.056736331366
  32     0.257560968790
  33     0.000267662723
  34     0.150361942446
  35    -0.120070849685
  36     0.050460054523
  37     0.079074385105
  38     0.300765845974
  39    -0.307227635346
  40     0.082549132873
  41     0.107051962826
  42    -0.091429813901
  43    -0.049241367118
  44     0.044839895908
  45    -0.138832499191
  46     0.287036477538
  47     0.305476323602
  48     0.544917090673
  49     0.026135350482
  50     0.162280877338
  51    -1.586664987028
  52     0.511304861158
  53     0.373623929140
  54     0.055405235524
  55    -0.286275208575
  56    -0.170183355923
  57     0.222180700296
  58    -0.101276211132
  59    -0.120904489164
  60     0.117839028385
  61     0.128460713482
  62    -0.228532306537
  63    -0.697865891820
  64     0.417489503228
  65     0.280376388592
  66     0.070495791443
  67    -0.718155329603
  68     0.527063843088
  69     0.252672294318
  70    -0.455161422529
  71    -0.003457334324
  72    -0.452801002891
  73     0.447479031834
  74    -0.867677645039
  75     0.113805547216
  76     0.163184097072
  77     0.872316145781
  78    -0.173093509743
  79     0.052599040843
  80     0.375889447728
  81     0.016136630074
  82     0.007921361721
  83     0.048798429008
  84     0.014141192222
  85    -0.301308325046
  86    -1.197839328207
  87     0.385334873649
  88    -0.212917270109
  89    -0.019144732056
  90     0.140408380579
  91     0.093060794222
  92     0.688202413795
  93     0.018688341359
  94    -0.161647458840
  95     0.295541353750
  96    -0.115892498441
  97    -0.055210117949
  98     0.104280429707
  99    -0.110345432201
  100   -0.151296537261
  101    0.156566283042
  102    0.017706272080
 Sym=     1a
 Ene= 2.92916687038785E+00
Spin= Alpha
 Occup= 0
  1      0.022577129381
  2     -0.038509803599
  3      0.055273879071
  4     -0.034645597139
  5      1.593837424389
  6      0.144982504914
  7      0.117381829974
  8     -0.001837873275
  9      0.130104948388
  10    -0.627455044392
  11     0.048776787874
  12    -0.006107062716
  13     0.422245300716
  14    -0.522249392327
  15     0.023218309176
  16     0.093715177680
  17    -0.116933486856
  18    -0.108739207507
  19    -0.075765253870
  20    -0.108061127766
  21    -0.187738327269
  22    -0.327849554776
  23     0.515587882045
  24     0.428751243336
  25    -0.150550012466
  26    -0.396373396533
  27    -0.046316817139
  28     0.009170789131
  29    -0.259269662499
  30    -0.096542963207
  31     0.008743825934
  32    -0.309857186544
  33     0.158683494181
  34    -0.021047730676
  35     0.657703940455
  36     0.314192567069
  37    -0.119400895825
  38    -0.548906530447
  39     0.319303068422
  40    -0.103259522894
  41     0.181689482535
  42     0.165923346804
  43     0.145041949625
  44    -0.162036033490
  45     0.053596851479
  46     1.064177295566
  47    -2.574549993188
  48    -0.213261729722
  49    -0.076800206481
  50     0.167222497236
  51    -0.130057848504
  52    -0.224041130780
  53     0.112381658274
  54     0.255342940812
  55     0.683552588335
  56    -0.444716042725
  57     0.017164166763
  58     0.046602815479
  59    -0.063766982242
  60    -0.531358992533
  61     0.069681031098
  62     0.699034356753
  63    -0.092478773009
  64    -0.084601047505
  65     0.177079820514
  66     0.801690596524
  67    -0.131536328741
  68    -0.819085056099
  69     0.157843951527
  70     0.032144658213
  71    -0.035916570319
  72    -0.102407563004
  73    -0.090414593556
  74    -0.248524349667
  75    -0.109362320267
  76     0.047288009030
  77     0.296711485318
  78     0.077947761906
  79    -0.013792313358
  80    -0.093325115897
  81    -0.326726391711
  82    -0.059288303343
  83    -0.231879228775
  84     0.097977070217
  85    -0.015655052980
  86     0.295237034777
  87     0.524456461300
  88    -0.201779776740
  89     0.233837137610
  90     0.138686849092
  91     0.062444529947
  92     0.095912579943
  93     0.161021618715
  94     0.000741377867
  95     0.017309953645
  96    -0.048386505033
  97     0.011192738033
  98    -0.478119834121
  99     0.136763865468
  100   -0.057585727069
  101   -0.136301347524
  102    0.164531143624
 Sym=     1a
 Ene= 2.97857699716127E+00
Spin= Alpha
 Occup= 0
  1      0.184529040598
  2     -0.430757299500
  3      1.060444071091
  4      0.176143374873
  5      2.206392860985
  6     -0.157217184132
  7     -0.159548087632
  8      0.074557461539
  9     -0.279682236394
  10     2.881052489225
  11     0.008848288046
  12    -0.331731117729
  13    -0.224108990552
  14     1.039100383929
  15    -0.178732241955
  16     0.038537937452
  17     0.140194304503
  18     0.092646058804
  19     0.281761414618
  20    -0.056979694576
  21    -0.162513196991
  22     0.795820781035
  23    -0.633307584044
  24    -0.089576133571
  25    -0.090798869261
  26    -0.654078406301
  27     0.290210946799
  28     0.156905864942
  29     0.282251737818
  30    -0.290005150420
  31    -0.161812081589
  32    -0.324688640539
  33    -0.099353692494
  34    -0.048699226458
  35    -0.053991802979
  36     0.013863266471
  37    -0.070015415556
  38     0.142513239698
  39    -1.366466478717
  40    -0.031464662614
  41    -0.010470217846
  42    -0.020363853358
  43    -0.201188847371
  44     0.214177954390
  45     1.207895945144
  46    -7.051448511466
  47     4.200714457101
  48    -0.053491511964
  49     0.074747704899
  50    -0.014652032745
  51    -0.346281072722
  52     0.971422103756
  53    -0.290199954250
  54     0.520927213840
  55     0.501131282693
  56    -0.228999852609
  57     0.422131190526
  58    -0.482836957644
  59     0.060705767118
  60     0.018891509967
  61     0.199972912924
  62     0.093456478314
  63     0.462347351314
  64    -0.178002697127
  65    -0.284344654187
  66     0.498911792772
  67     0.315054859681
  68     0.543726055076
  69    -0.157083025345
  70     0.276481996454
  71     0.473258529050
  72     0.058407515876
  73    -0.103764096918
  74    -0.329043964578
  75     0.152341477794
  76    -0.267175426258
  77    -0.305898980555
  78     0.393104453676
  79     0.035609684811
  80     1.359857888083
  81    -0.433088379514
  82    -0.231903577509
  83     0.110281234090
  84     0.088456621299
  85     0.241328393521
  86     1.219351741802
  87    -1.229187218140
  88     0.159369619345
  89    -0.329126337770
  90    -0.326664131407
  91     0.048242582687
  92     0.399659330748
  93    -1.331505352331
  94    -0.119926815260
  95     0.065978092646
  96    -0.037080281350
  97     0.215591471493
  98     1.496422778737
  99    -1.522859823466
  100   -0.204447328553
  101   -0.206685766140
  102    0.340847278692
 Sym=     1a
 Ene= 3.08823810287046E+00
Spin= Alpha
 Occup= 0
  1     -0.051598862454
  2      0.232734945543
  3     -0.782073052857
  4     -0.543329803663
  5     -0.267575123164
  6     -0.125540937294
  7      0.023785176629
  8      0.035296721353
  9      0.395910282764
  10    -1.612829024385
  11     0.839107199759
  12    -0.571465622105
  13     0.137276910662
  14     0.236474358388
  15    -0.023509152314
  16    -0.078790054135
  17     0.102299206449
  18     0.117668568603
  19     0.082803985773
  20     0.070625077489
  21     0.401721298201
  22    -0.609102942335
  23     0.207381644134
  24     0.232971934385
  25    -0.183816079100
  26     0.243225709258
  27     0.068829186001
  28    -0.099449166286
  29    -0.031023688197
  30    -0.111190022872
  31     0.169114173942
  32    -0.174095963483
  33     0.018845979632
  34    -0.035689116269
  35     0.215718608916
  36    -0.041936623404
  37     0.002527062360
  38    -0.693823433252
  39     0.165841956916
  40    -0.037830518531
  41    -0.014917657666
  42     0.073260114308
  43     0.204633608565
  44    -0.222372862218
  45    -0.838551776168
  46     4.995162934943
  47    -3.238098896121
  48     0.239258458551
  49     0.010376688229
  50     0.120509295102
  51    -0.058645807568
  52    -0.906964826156
  53     0.003466793905
  54    -0.140479031904
  55     0.230046821904
  56    -0.557064196325
  57    -0.072894698947
  58     0.109544251406
  59    -0.036649552459
  60    -0.214712842361
  61     0.059032892675
  62     0.213138973302
  63    -0.504054564079
  64     0.470063174215
  65     0.033991389864
  66    -0.051711192395
  67    -0.566820764304
  68    -0.104165132448
  69    -0.390154894626
  70    -0.518171765770
  71     0.402002479028
  72     0.489291673226
  73     0.093311992478
  74    -0.131851537949
  75     0.034156046457
  76     0.601888382892
  77    -0.407491384189
  78    -0.778789127604
  79     0.024365743672
  80    -0.049520862023
  81     0.523075525878
  82    -0.051619357910
  83     0.005056526109
  84     0.053672053481
  85    -0.255707638316
  86    -0.968786915776
  87     0.991194685286
  88    -0.156373947449
  89     0.358515154173
  90     0.144553569260
  91     0.064309121567
  92    -0.049061052990
  93     0.917071556711
  94     0.070022707476
  95     0.095496507992
  96     0.010511929565
  97    -0.258749048519
  98    -0.999464839823
  99     0.614440488778
  100   -0.022092324768
  101   -0.065506738089
  102   -0.331157264157
 Sym=     1a
 Ene= 3.29460903181336E+00
Spin= Alpha
 Occup= 0
  1     -0.421440734655
  2      0.587309961629
  3     -1.712676086951
  4      5.871445285522
  5     -10.769448892417
  6     -0.099550054426
  7     -0.155346041036
  8      0.000456732875
  9     -0.061723454105
  10     0.797763064391
  11    -0.045575904631
  12    -0.206083558293
  13    -1.828962387007
  14    -0.736684573425
  15    -0.082938306075
  16     0.018506210878
  17     0.064432095197
  18    -0.051867718300
  19    -0.051605323933
  20    -0.057463844865
  21    -0.020472726935
  22     0.032521842373
  23    -0.012049115438
  24    -0.360880770722
  25    -0.130485863599
  26    -0.485032670358
  27     0.098031443442
  28     0.222025888499
  29     0.096203806912
  30    -0.082461907159
  31    -0.053119049177
  32    -0.116809064106
  33    -0.049061075721
  34    -0.244759938492
  35    -0.012261887064
  36     0.124115907598
  37    -0.217203289907
  38    -0.431725364478
  39     2.229739555242
  40    -0.077550234759
  41    -0.043103633166
  42     0.197492324952
  43    -0.037269044683
  44     0.043022213229
  45     0.352457427814
  46    -2.437144378381
  47     5.264760619775
  48    -0.080228633823
  49     0.308959745815
  50     0.113168855975
  51     0.087262476944
  52     0.297075816126
  53    -0.847171200236
  54    -0.256588189649
  55    -0.823830558778
  56     1.492461113955
  57    -0.096710227123
  58     0.414778616045
  59    -0.318068388922
  60     0.090883950140
  61    -0.219361445316
  62    -0.041773094014
  63     0.139798997893
  64    -0.703858823461
  65     0.564059825568
  66     0.083397704526
  67     0.184470734458
  68    -0.175922948075
  69    -0.079186305827
  70     0.043745822287
  71     0.215837950772
  72    -0.012183728018
  73     0.056715090387
  74    -0.191771707338
  75     0.118423305648
  76    -0.115406269807
  77    -0.097805290692
  78    -0.002696407615
  79    -0.096982926522
  80    -0.250287455214
  81     1.573360967043
  82     0.013761014064
  83    -0.104321810514
  84    -0.101190409519
  85     0.164264656749
  86     0.536175809501
  87    -1.157975485687
  88     0.103898262878
  89    -0.058845124313
  90    -0.149255769305
  91    -0.085632368538
  92     0.416129679015
  93     1.325520285086
  94    -0.074917124483
  95     0.095603568194
  96    -0.065918482145
  97    -0.037484627397
  98    -0.117919996876
  99     0.427305111496
  100   -0.004948603742
  101    0.017452203968
  102   -0.011195895781
 Sym=     1a
 Ene= 3.51486178696128E+00
Spin= Alpha
 Occup= 0
  1     -0.299245583759
  2      0.498639133316
  3     -1.955741360717
  4      5.584469181901
  5     -5.839936138524
  6      0.153700724581
  7      0.266455807927
  8     -0.042039903799
  9     -0.216978601575
  10     0.675351353430
  11    -0.011255610421
  12     1.205947219246
  13    -0.930512689363
  14    -0.527619414561
  15     0.056346405964
  16     0.195239335499
  17    -0.251585741463
  18    -0.185636526272
  19    -0.277808746334
  20    -0.022031829098
  21    -0.578045652194
  22     0.624771744809
  23    -0.046726092615
  24    -0.262434600522
  25    -0.151806484622
  26     1.018930328201
  27    -0.156152920337
  28     0.280538992839
  29    -0.238600330744
  30     0.058494225806
  31    -0.047351871970
  32     0.337791905446
  33     0.151006901050
  34    -0.329030683026
  35    -0.017675970047
  36     0.080876313167
  37     0.004391525093
  38    -0.281570712029
  39     1.444228887717
  40     0.022067174188
  41    -0.083244563690
  42     0.072703402386
  43    -0.127009599717
  44     0.124732497035
  45     1.231765560490
  46    -5.921744028693
  47     6.660026730410
  48    -0.051931899929
  49     0.038280056860
  50    -0.096098108703
  51    -0.205934553387
  52     0.411381577470
  53    -0.292028562389
  54    -0.384426380482
  55    -0.874658303010
  56     0.920229048692
  57     0.419839380982
  58    -0.489493316403
  59     0.069653935421
  60     0.005167252897
  61     0.197666111962
  62     0.114623786873
  63     0.423231574240
  64     0.419084913332
  65    -0.842316487572
  66     0.279514002916
  67     0.259688314142
  68     0.960883883029
  69    -0.139386412880
  70     0.161711265147
  71     0.547528687396
  72     0.083791654333
  73    -0.072229517579
  74    -0.317675751827
  75     0.103214842270
  76    -0.144728911379
  77    -0.416911066963
  78     0.348588169008
  79    -0.190852585204
  80    -1.533645686742
  81     0.400897124012
  82     0.276298777147
  83    -0.123056923225
  84    -0.162642711945
  85     0.256126915584
  86     0.659586219050
  87    -1.472234587123
  88     0.128770507674
  89    -0.282001929810
  90    -0.213003743460
  91     0.070675559833
  92    -0.098515174474
  93    -0.363487757675
  94    -0.056395460765
  95     0.096492644362
  96    -0.112866950487
  97     0.282554644094
  98     1.721878925972
  99    -0.755331881350
  100   -0.239651145876
  101   -0.219253934280
  102    0.342956054242
 Sym=     1a
 Ene= 3.70524607120451E+00
Spin= Alpha
 Occup= 0
  1      0.399756167841
  2     -0.484411641597
  3      2.440205343151
  4     -13.051852013644
  5      7.553519985616
  6      0.074184055911
  7      0.383533103177
  8     -0.013503702915
  9      1.151413800649
  10    -7.411621723712
  11     1.055862004851
  12     1.219600492942
  13     0.218012117125
  14    -0.908982090591
  15     0.123268897753
  16    -0.115569475010
  17    -0.007699422743
  18     0.072012167151
  19     0.038357502715
  20     0.097104034204
  21     1.337132942092
  22    -2.667268150873
  23     1.330135208781
  24     0.976731050745
  25    -0.399577277357
  26     1.592060670608
  27    -0.325369276917
  28    -0.476615384907
  29    -0.265279598423
  30     0.403925064816
  31     0.304081913576
  32     0.038575251361
  33     0.032603627770
  34     0.335364726289
  35     0.317334677709
  36    -0.192305451423
  37     0.073675463354
  38     0.479115055332
  39    -0.836093615850
  40     0.118593928572
  41     0.000902258679
  42    -0.171071708905
  43    -0.142729576736
  44     0.042192949349
  45     0.026535497797
  46     7.768817552177
  47     0.892897315018
  48    -0.086339088702
  49     0.097901701574
  50     0.143510258779
  51     1.272623894506
  52    -8.489823939079
  53     0.730693418966
  54     0.014327151006
  55     2.089874253966
  56     1.717740988779
  57    -0.223997957023
  58     0.678212674709
  59    -0.454214717686
  60     0.089152965874
  61    -0.250814290697
  62    -0.100218992117
  63    -0.757811734399
  64     1.846584597394
  65    -1.088772862995
  66    -0.376748147934
  67     0.911909831172
  68    -0.964322154606
  69    -0.068502376545
  70    -0.131327380427
  71     0.238750877549
  72    -0.005399382896
  73     0.270559449999
  74    -0.244448806950
  75     0.097304965241
  76    -0.094365280035
  77    -0.075869108183
  78     0.116053981641
  79     0.000857033053
  80    -0.682092970918
  81    -1.891357984616
  82     0.029860123654
  83    -0.017100020812
  84     0.041710265140
  85     0.319986008727
  86     1.316347378883
  87    -2.296875207354
  88     0.188143068087
  89    -0.212487233101
  90    -0.286380945219
  91     0.101504181447
  92    -0.510985158034
  93    -2.182111494835
  94    -0.075736472920
  95    -0.123502510299
  96    -0.071897498933
  97     0.117184232351
  98     0.761035441964
  99    -0.358328498133
  100   -0.109458040043
  101   -0.096574001638
  102    0.184367301387
 Sym=     1a
 Ene= 7.03839267668665E+00
Spin= Alpha
 Occup= 0
  1      0.040811609998
  2     -0.027959609409
  3     -0.256385378734
  4      1.185978271675
  5     -0.705991836206
  6      0.188269691478
  7     -0.099538998499
  8      0.059605380639
  9     -0.447754231235
  10     1.192171122469
  11     0.570437053409
  12    -0.826062033818
  13    -0.559130786271
  14     0.379176765304
  15    -0.031749756245
  16     0.147763126271
  17    -0.116013370026
  18    -0.109844825084
  19     0.018457807670
  20    -0.023983401330
  21    -0.136360119432
  22     0.046638658253
  23     0.089721461179
  24     0.326159773681
  25     0.252394496540
  26    -0.612400178238
  27     0.061449459993
  28     0.060062324210
  29    -0.034696667326
  30    -0.019756131879
  31     0.629293989553
  32    -0.096384942940
  33    -0.062686969956
  34    -0.709876053444
  35     0.142935406980
  36    -0.405420239097
  37    -0.101877552170
  38    -0.692913980489
  39    -0.110861821985
  40    -0.203756824610
  41     0.027211927045
  42     0.080607905801
  43    -0.678245142833
  44     0.860445868522
  45    -0.798107624332
  46     0.105538889404
  47    -0.889455932044
  48    -0.006794309073
  49    -0.054631782275
  50    -0.122681205171
  51    -0.240415080242
  52     0.842588632483
  53     0.057501919984
  54     0.657031881214
  55    -0.286706722795
  56    -1.002663059407
  57     0.039659599596
  58     0.016505135447
  59    -0.056164735043
  60     0.008249864713
  61     0.147609196608
  62     0.088680778662
  63    -0.094801538353
  64    -0.246950925296
  65     0.341752463649
  66     0.021810349206
  67    -0.169035202624
  68    -0.066366279181
  69    -0.101246953022
  70    -0.061328002004
  71     0.088278282285
  72     0.090236308548
  73     0.001927998642
  74     0.041758098540
  75     0.045600733135
  76     0.080352150201
  77    -0.160195842616
  78    -0.068440678701
  79     0.175893415434
  80     0.921544759383
  81     0.134405809350
  82     0.043267491759
  83     0.054732247308
  84     0.252511683973
  85    -0.084020370990
  86     0.105274921424
  87     0.982316870881
  88     0.031725804597
  89     0.002767667098
  90    -0.052816423497
  91    -0.150033795471
  92     0.128225777481
  93     0.544811089489
  94     0.020276347657
  95     0.149004106050
  96     0.051773006099
  97    -0.043145494489
  98    -0.261950251695
  99    -0.266280742470
  100   -0.012928892926
  101   -0.067343836268
  102    0.076686013408
 Sym=     1a
 Ene= 8.31458110022841E+00
Spin= Alpha
 Occup= 0
  1     -0.761774606227
  2      0.839876332018
  3      0.862112420087
  4     -4.627742111477
  5      4.695800408591
  6      0.020744481326
  7      0.105430989310
  8     -0.034231696855
  9     -0.334225477618
  10    -0.278266231559
  11    -0.005279935352
  12    -0.726694335534
  13     0.186166270922
  14     2.597927098522
  15     0.072789812204
  16     0.002198177194
  17    -0.074987989398
  18     0.028047858915
  19     0.139015794002
  20    -0.003530320093
  21     0.363515522554
  22    -0.525614066872
  23     0.162098544318
  24     0.361241621978
  25     0.371588136478
  26    -0.413962752397
  27    -0.017800096492
  28    -0.304191580619
  29    -0.076047897658
  30     0.053400173642
  31     0.081910862102
  32     0.007467327923
  33    -0.029518838185
  34     0.326204969366
  35     0.094561633303
  36    -0.227365727078
  37     0.148835188571
  38     0.403670915245
  39    -2.455887683261
  40     0.084169440886
  41     0.199939827265
  42    -0.307717625558
  43     0.233350171019
  44    -0.389108287881
  45     1.155283941919
  46    -1.539608868787
  47     3.120776580364
  48     0.139203431644
  49    -0.094035719268
  50    -0.321934766344
  51    -0.683512340597
  52    -1.135073054742
  53     2.199230060462
  54     2.056461564645
  55     0.725129585230
  56    -3.659773325269
  57    -0.002631071456
  58     0.445908429575
  59    -0.443277358119
  60     0.116310491809
  61     0.349451435278
  62     0.121825083305
  63    -0.026675512771
  64    -0.188898618359
  65     0.215574131130
  66    -0.305999218453
  67    -0.195965485993
  68    -0.038095276245
  69     0.202114495626
  70     0.070285902593
  71     0.047726541688
  72     0.001748762056
  73     0.048525427799
  74    -0.054136001187
  75    -0.272913812930
  76    -0.142823861433
  77    -0.009895873741
  78     0.059637291341
  79     0.127839859166
  80     1.730650888612
  81    -0.313378617864
  82    -0.247038515664
  83     0.267374021826
  84     0.353431034396
  85    -0.157144543033
  86    -0.091418298138
  87     0.990376191274
  88    -0.019113652684
  89     0.113293578761
  90    -0.033345823991
  91    -0.018038912462
  92     0.374490903548
  93    -1.720777113588
  94    -0.127088143614
  95    -0.099427093499
  96    -0.046697461952
  97     0.330312960171
  98     0.803921870519
  99    -3.613015501008
  100   -0.187610221361
  101   -0.190066217546
  102    0.510935380601
 Sym=     1a
 Ene= 9.74465373566991E+00
Spin= Alpha
 Occup= 0
  1      0.860817259313
  2     -0.964642874136
  3     -0.449677318931
  4      4.739536184970
  5     -9.384790211858
  6     -0.017168969414
  7      0.019135937673
  8     -0.050188495128
  9     -0.050930525646
  10     0.829740462154
  11     0.109333053187
  12    -0.654266203127
  13    -1.648588815133
  14     2.176166794426
  15    -0.084469125497
  16    -0.002740652385
  17     0.087209777882
  18    -0.041359509579
  19    -0.154631121859
  20    -0.011353544726
  21    -0.150631069704
  22     0.160765297322
  23    -0.010134227618
  24     0.293591163124
  25     0.068477482265
  26    -0.381793626714
  27    -0.008443958066
  28     0.137478767971
  29     0.021558221562
  30     0.094552505294
  31     0.014608422533
  32    -0.004996703436
  33    -0.083223746753
  34    -0.199055544920
  35    -0.023926685896
  36     0.170892757556
  37    -0.098610342322
  38    -1.088690549883
  39     0.433711956568
  40    -0.148962469362
  41    -0.092058179467
  42     0.360769948774
  43     0.263938859242
  44    -0.383111516580
  45     1.301574734672
  46    -4.527496062299
  47     9.117403840638
  48     0.104315894226
  49    -0.034259965302
  50    -0.296828347110
  51    -0.856445405212
  52     1.066783391169
  53     1.431246719009
  54     1.581486175643
  55    -2.144252690553
  56    -2.705960297033
  57     0.148362099486
  58     0.119176888136
  59    -0.267538987622
  60     0.155884746504
  61     0.312540853229
  62     0.190701239614
  63     0.110344657583
  64    -0.421902375593
  65     0.311557718010
  66    -0.102600408966
  67    -0.256023506836
  68     0.203548961093
  69     0.197450463114
  70     0.126973345702
  71     0.078973796745
  72    -0.037646548450
  73    -0.019736653848
  74    -0.027394372137
  75    -0.227261046176
  76    -0.150615965543
  77    -0.078560094641
  78     0.062403850727
  79    -0.105042166172
  80     0.024499780064
  81     2.027893714389
  82     0.120555298472
  83    -0.176654122799
  84    -0.141330968407
  85    -0.146242462875
  86    -0.144557642762
  87     0.711384328579
  88    -0.013403752088
  89     0.073852966998
  90    -0.008348792727
  91     0.011775586793
  92    -0.306376816557
  93     0.329618292785
  94     0.133642988705
  95     0.211326526937
  96     0.043324173498
  97     0.271522574836
  98     0.686234652837
  99    -3.096840034655
  100   -0.149651273291
  101   -0.180099256283
  102    0.433961300547
 Sym=     1a
 Ene= 1.19141879514679E+01
Spin= Alpha
 Occup= 0
  1      0.017087496741
  2     -0.036187915460
  3     -0.048976795087
  4      2.485660732912
  5      0.822053780039
  6      0.085236671646
  7      0.067125962977
  8      0.047972141405
  9     -0.273576038595
  10     2.469206748050
  11     0.153767079931
  12     0.525567583604
  13    -0.311252418665
  14    -1.177052619667
  15     0.031170775234
  16     0.018379128403
  17    -0.049549903637
  18    -0.050625827437
  19     0.024446508128
  20     0.015547069912
  21    -0.269475543032
  22     0.717388338884
  23    -0.447912795852
  24     0.112849470738
  25     0.199165485578
  26    -0.061954392043
  27    -0.018136583452
  28     0.038605134439
  29    -0.070971517995
  30     0.037573150620
  31     0.443464662435
  32    -0.055225974103
  33    -0.013240370533
  34    -0.495258885367
  35     0.150444257325
  36    -0.315004914829
  37    -0.069204290233
  38     0.266795743429
  39     0.202018910067
  40    -0.080891869485
  41     0.033974714403
  42    -0.071371725956
  43     0.983400725350
  44    -1.229813769462
  45     1.669946357798
  46    -4.154007521030
  47     1.204450481171
  48     0.001946438014
  49    -0.094417119623
  50     0.154319509768
  51    -0.201029820469
  52     2.059493923577
  53    -1.039021324309
  54    -1.011626795733
  55     0.590756342627
  56     1.820499905784
  57    -0.028230281157
  58    -0.069853145975
  59     0.098083427132
  60     0.004242794464
  61    -0.205562684638
  62    -0.062674508239
  63     0.454854273415
  64    -0.697260164209
  65     0.242405890794
  66     0.256459413912
  67    -0.044747400578
  68     0.907551047890
  69     0.105033771852
  70     0.072101343046
  71     0.119448573011
  72    -0.122118908136
  73     0.056376410132
  74     0.032009459009
  75    -0.018798684141
  76    -0.153110512723
  77    -0.192266536450
  78     0.035513614350
  79     0.108156472338
  80     0.401031398117
  81    -0.989578196838
  82     0.024645291280
  83     0.090863047278
  84     0.135815434559
  85     0.048146018763
  86    -0.398964734857
  87    -1.435837043265
  88    -0.041083492615
  89     0.039798598345
  90     0.062942715063
  91    -0.014597927352
  92    -0.200607873944
  93    -0.252493211418
  94     0.083650788172
  95     0.111253569574
  96     0.093514407951
  97    -0.002596519029
  98     0.170410187986
  99     0.797627156662
  100    0.029807425163
  101    0.141506564659
  102   -0.190558505243
