7
Coordinates from ORCA-job ./ethylium E -78.865437507677
  C          -2.63904665519305      1.07904316966087     -0.91120300173303
  H          -2.99276229456926      0.64478885015070      0.02012453529326
  C          -2.84904751132067      2.40916305547761     -1.18738522846310
  H          -2.13082099134046      0.43790306583779     -1.62649719188505
  H          -3.37181293021768      3.04652658755958     -0.47916431165719
  H          -1.76574165160178      1.99852022120658     -0.56903270023155
  H          -2.50958486575709      2.83986059010687     -2.12560494132333
