[Molden Format]
[Title]
NAOs

[Atoms] AU
C    1   6         -4.6986655653        -0.1997095353         0.3202313972 
C    2   6         -7.0254230648        -0.0338752999         1.7901495133 
H    3   1         -4.4649269644        -3.3822117695        -1.8347544063 
C    4   6         -2.3001997042         0.5509354551         1.4542380685 
C    5   6         -4.7363824160        -1.3415959864        -2.1888595720 
H    6   1         -2.5068495480         1.9756432311         2.9229335921 
H    7   1         -1.6121148786        -1.1768552940         2.4053263625 
H    8   1         -0.8670160367         1.0509364031         0.0664757358 
H    9   1         -6.9720548037         1.4314152355         3.2322177834 
H   10   1         -8.7179784396         0.0675781638         0.6260675936 
H   11   1         -7.1262146815        -1.8543858900         2.8092136458 
H   12   1         -6.5518267575        -1.1593055778        -3.1379905834 
H   13   1         -3.1644109730        -0.7510828042        -3.3763479121 
[GTO]
  1 0 
s   6 1.0  
    13575.3496820000         0.0006064549 
     2035.2333680000         0.0046979088 
      463.2256235900         0.0243324776 
      131.2001959800         0.0973999683 
       42.8530158910         0.3019558425 
       15.5841857660         0.6623360915 
s   2 1.0  
        6.2067138508         0.6559530853 
        2.5764896527         0.3758563329 
s   1 1.0  
        0.5769633942         1.0000000000 
s   1 1.0  
        0.2297283136         1.0000000000 
s   1 1.0  
        0.0951644400         1.0000000003 
p   4 1.0  
       34.6972322440         0.0113272200 
        7.9582622826         0.0761696592 
        2.3780826883         0.3019225220 
        0.8143320818         0.7278502735 
p   1 1.0  
        0.2888754725         0.9999999999 
p   1 1.0  
        0.1005682367         0.9999999995 
d   1 1.0  
        1.0970000000         1.0000000000 
d   1 1.0  
        0.3180000000         1.0000000000 
f   1 1.0  
        0.7610000000         1.0000000000 

  2 0 
s   6 1.0  
    13575.3496820000         0.0006064549 
     2035.2333680000         0.0046979088 
      463.2256235900         0.0243324776 
      131.2001959800         0.0973999683 
       42.8530158910         0.3019558425 
       15.5841857660         0.6623360915 
s   2 1.0  
        6.2067138508         0.6559530853 
        2.5764896527         0.3758563329 
s   1 1.0  
        0.5769633942         1.0000000000 
s   1 1.0  
        0.2297283136         1.0000000000 
s   1 1.0  
        0.0951644400         1.0000000003 
p   4 1.0  
       34.6972322440         0.0113272200 
        7.9582622826         0.0761696592 
        2.3780826883         0.3019225220 
        0.8143320818         0.7278502735 
p   1 1.0  
        0.2888754725         0.9999999999 
p   1 1.0  
        0.1005682367         0.9999999995 
d   1 1.0  
        1.0970000000         1.0000000000 
d   1 1.0  
        0.3180000000         1.0000000000 
f   1 1.0  
        0.7610000000         1.0000000000 

  3 0 
s   3 1.0  
       34.0613410000         0.0254393072 
        5.1235746000         0.1900859489 
        1.1646626000         0.8524411301 
s   1 1.0  
        0.3272304100         1.0000000002 
s   1 1.0  
        0.1030724100         1.0000000001 
p   1 1.0  
        0.8000000000         1.0000000000 

  4 0 
s   6 1.0  
    13575.3496820000         0.0006064549 
     2035.2333680000         0.0046979088 
      463.2256235900         0.0243324776 
      131.2001959800         0.0973999683 
       42.8530158910         0.3019558425 
       15.5841857660         0.6623360915 
s   2 1.0  
        6.2067138508         0.6559530853 
        2.5764896527         0.3758563329 
s   1 1.0  
        0.5769633942         1.0000000000 
s   1 1.0  
        0.2297283136         1.0000000000 
s   1 1.0  
        0.0951644400         1.0000000003 
p   4 1.0  
       34.6972322440         0.0113272200 
        7.9582622826         0.0761696592 
        2.3780826883         0.3019225220 
        0.8143320818         0.7278502735 
p   1 1.0  
        0.2888754725         0.9999999999 
p   1 1.0  
        0.1005682367         0.9999999995 
d   1 1.0  
        1.0970000000         1.0000000000 
d   1 1.0  
        0.3180000000         1.0000000000 
f   1 1.0  
        0.7610000000         1.0000000000 

  5 0 
s   6 1.0  
    13575.3496820000         0.0006064549 
     2035.2333680000         0.0046979088 
      463.2256235900         0.0243324776 
      131.2001959800         0.0973999683 
       42.8530158910         0.3019558425 
       15.5841857660         0.6623360915 
s   2 1.0  
        6.2067138508         0.6559530853 
        2.5764896527         0.3758563329 
s   1 1.0  
        0.5769633942         1.0000000000 
s   1 1.0  
        0.2297283136         1.0000000000 
s   1 1.0  
        0.0951644400         1.0000000003 
p   4 1.0  
       34.6972322440         0.0113272200 
        7.9582622826         0.0761696592 
        2.3780826883         0.3019225220 
        0.8143320818         0.7278502735 
p   1 1.0  
        0.2888754725         0.9999999999 
p   1 1.0  
        0.1005682367         0.9999999995 
d   1 1.0  
        1.0970000000         1.0000000000 
d   1 1.0  
        0.3180000000         1.0000000000 
f   1 1.0  
        0.7610000000         1.0000000000 

  6 0 
s   3 1.0  
       34.0613410000         0.0254393072 
        5.1235746000         0.1900859489 
        1.1646626000         0.8524411301 
s   1 1.0  
        0.3272304100         1.0000000002 
s   1 1.0  
        0.1030724100         1.0000000001 
p   1 1.0  
        0.8000000000         1.0000000000 

  7 0 
s   3 1.0  
       34.0613410000         0.0254393072 
        5.1235746000         0.1900859489 
        1.1646626000         0.8524411301 
s   1 1.0  
        0.3272304100         1.0000000002 
s   1 1.0  
        0.1030724100         1.0000000001 
p   1 1.0  
        0.8000000000         1.0000000000 

  8 0 
s   3 1.0  
       34.0613410000         0.0254393072 
        5.1235746000         0.1900859489 
        1.1646626000         0.8524411301 
s   1 1.0  
        0.3272304100         1.0000000002 
s   1 1.0  
        0.1030724100         1.0000000001 
p   1 1.0  
        0.8000000000         1.0000000000 

  9 0 
s   3 1.0  
       34.0613410000         0.0254393072 
        5.1235746000         0.1900859489 
        1.1646626000         0.8524411301 
s   1 1.0  
        0.3272304100         1.0000000002 
s   1 1.0  
        0.1030724100         1.0000000001 
p   1 1.0  
        0.8000000000         1.0000000000 

 10 0 
s   3 1.0  
       34.0613410000         0.0254393072 
        5.1235746000         0.1900859489 
        1.1646626000         0.8524411301 
s   1 1.0  
        0.3272304100         1.0000000002 
s   1 1.0  
        0.1030724100         1.0000000001 
p   1 1.0  
        0.8000000000         1.0000000000 

 11 0 
s   3 1.0  
       34.0613410000         0.0254393072 
        5.1235746000         0.1900859489 
        1.1646626000         0.8524411301 
s   1 1.0  
        0.3272304100         1.0000000002 
s   1 1.0  
        0.1030724100         1.0000000001 
p   1 1.0  
        0.8000000000         1.0000000000 

 12 0 
s   3 1.0  
       34.0613410000         0.0254393072 
        5.1235746000         0.1900859489 
        1.1646626000         0.8524411301 
s   1 1.0  
        0.3272304100         1.0000000002 
s   1 1.0  
        0.1030724100         1.0000000001 
p   1 1.0  
        0.8000000000         1.0000000000 

 13 0 
s   3 1.0  
       34.0613410000         0.0254393072 
        5.1235746000         0.1900859489 
        1.1646626000         0.8524411301 
s   1 1.0  
        0.3272304100         1.0000000002 
s   1 1.0  
        0.1030724100         1.0000000001 
p   1 1.0  
        0.8000000000         1.0000000000 

[MO]
 Sym=     1a
 Ene= -1.04587353716889E+01
Spin= Alpha
 Occup= 2
  1     -0.474640155913
  2     -0.634180642165
  3      0.036164640948
  4     -0.034645956438
  5      0.003897195472
  6     -0.000017755247
  7      0.000120617794
  8     -0.000048580575
  9     -0.000317561704
  10     0.002109129834
  11    -0.000877863606
  12    -0.000147326183
  13     0.000999970024
  14    -0.000408451875
  15     0.000241546329
  16    -0.000386866493
  17     0.000145320164
  18     0.000114178581
  19    -0.000047178252
  20     0.000310230819
  21    -0.004611635705
  22     0.007382379381
  23    -0.002770743676
  24    -0.002178102881
  25     0.000902615659
  26    -0.005917730621
  27    -0.000098047449
  28    -0.000017775599
  29     0.000975770957
  30    -0.000124626343
  31    -0.000616844726
  32    -0.001654570511
  33     0.000256170800
  34     0.000640693195
  35     0.000345436397
  36    -0.000188118845
  37    -0.001712351999
  38    -0.002848667273
  39    -0.004429277110
  40     0.044787544564
  41    -0.000723321366
  42     0.005212628597
  43    -0.000765343514
  44    -0.003084728883
  45     0.029819204826
  46    -0.002776711776
  47    -0.018496059476
  48     0.004849651857
  49    -0.001504624477
  50    -0.002444441954
  51     0.000123210361
  52    -0.000087707246
  53    -0.000035503115
  54    -0.000038479271
  55    -0.000194896209
  56    -0.000014463801
  57     0.002418894648
  58    -0.002297313853
  59    -0.000121580795
  60    -0.000261148336
  61    -0.002875482600
  62     0.000658182184
  63    -0.000003755729
  64    -0.000029760557
  65    -0.000144864105
  66     0.000080338277
  67     0.000069623523
  68     0.000115859183
  69    -0.000075299438
  70    -0.000029695546
  71     0.000078496409
  72     0.000047289228
  73    -0.000711259842
  74    -0.004461032746
  75    -0.002223502800
  76    -0.000012651474
  77    -0.000128425440
  78    -0.000412172697
  79    -0.001712478058
  80    -0.002849123041
  81    -0.004429215387
  82     0.044793638107
  83    -0.000725093104
  84    -0.005244379431
  85    -0.002059610762
  86    -0.002345274004
  87    -0.030534618245
  88    -0.010237913434
  89    -0.014202156265
  90    -0.004611775309
  91    -0.002684775304
  92    -0.001798919359
  93     0.000138238702
  94    -0.000058586790
  95    -0.000079651912
  96     0.000098351961
  97     0.000162350790
  98     0.000019961476
  99     0.002607536761
  100   -0.001869980902
  101   -0.000737555859
  102    0.001731757662
  103    0.002158390623
  104    0.001149953601
  105    0.000003132752
  106   -0.000057750200
  107   -0.000159084755
  108   -0.000015134341
  109    0.000082401160
  110    0.000148750451
  111    0.000010931313
  112   -0.000004921137
  113    0.000064684145
  114   -0.000046049653
  115   -0.001712390609
  116   -0.002849116278
  117   -0.004428596026
  118    0.044789893710
  119   -0.000714620263
  120    0.000142078126
  121    0.002129233697
  122    0.005725826614
  123    0.000583667270
  124    0.013925922860
  125    0.032337154336
  126    0.000241232677
  127    0.001108728796
  128    0.005524556118
  129   -0.000153366012
  130   -0.000026935469
  131    0.000180301481
  132   -0.000008799367
  133    0.000011230023
  134    0.000133468577
  135   -0.001507525796
  136   -0.001463344136
  137    0.002970869932
  138    0.000188479845
  139    0.000025482393
  140    0.002707983709
  141   -0.000033067981
  142   -0.000067156427
  143   -0.000074885507
  144    0.000054877379
  145    0.000170294843
  146    0.000092420717
  147   -0.000010512027
  148   -0.000080195040
  149    0.000008048734
  150   -0.000009693695
  151   -0.000341627403
  152   -0.003270834357
  153   -0.000397153151
  154    0.000270847501
  155    0.000132632139
  156    0.000025442688
  157   -0.000710708151
  158   -0.004456824471
  159   -0.002222474618
  160    0.000365754708
  161    0.000167175641
  162    0.000157390735
  163   -0.000339764140
  164   -0.003245245575
  165   -0.000423901482
  166    0.000198095966
  167    0.000172439688
  168    0.000150335132
  169   -0.000340710301
  170   -0.003249953237
  171   -0.000417392194
  172   -0.000289906779
  173    0.000060826329
  174    0.000061904315
  175   -0.000337404141
  176   -0.003243953898
  177   -0.000400964682
  178   -0.000213264362
  179    0.000120882983
  180    0.000176700068
  181   -0.000712027217
  182   -0.004461142656
  183   -0.002223109237
  184   -0.000370978688
  185    0.000074957459
  186    0.000208243695
  187   -0.000337726674
  188   -0.003234145856
  189   -0.000419119030
  190    0.000061135622
  191   -0.000034074360
  192   -0.000294338007
  193   -0.000335608993
  194   -0.003238835986
  195   -0.000399999338
  196   -0.000088331130
  197   -0.000052199445
  198   -0.000284163653
 Sym=     1a
 Ene= -1.03373797745349E+01
Spin= Alpha
 Occup= 2
  1      0.002004391899
  2      0.001061272700
  3      0.011145396411
  4     -0.056111019352
  5     -0.001807443339
  6     -0.005165374238
  7     -0.001455613439
  8     -0.002495557493
  9     -0.038784692074
  10    -0.012602566793
  11    -0.018215363181
  12    -0.037003394409
  13    -0.013113878131
  14    -0.017035838194
  15     0.000023866567
  16    -0.000092226952
  17     0.000068360385
  18    -0.000036751302
  19    -0.000041553533
  20     0.000053423826
  21    -0.004143480686
  22     0.003796547465
  23     0.000346933221
  24    -0.002118065155
  25    -0.002781988370
  26    -0.002244448920
  27    -0.000201703652
  28     0.000198050210
  29     0.000343183024
  30     0.000195962374
  31    -0.000342571125
  32    -0.000593073079
  33     0.000074651471
  34     0.000076858886
  35     0.000132644737
  36    -0.000228343627
  37    -0.000129677610
  38    -0.000669773842
  39     0.002841736096
  40    -0.006914866178
  41    -0.003710889439
  42     0.001723358140
  43     0.000574821988
  44     0.001502420195
  45     0.005606486282
  46     0.004233282415
  47     0.008595901823
  48     0.000220478973
  49     0.002438598000
  50     0.005569257490
  51     0.000006850615
  52    -0.000039687273
  53     0.000032836658
  54    -0.000036782443
  55    -0.000070513019
  56     0.000003777659
  57     0.001329173320
  58    -0.000155225744
  59    -0.001173947576
  60     0.000729000144
  61     0.000031665988
  62    -0.000094756080
  63     0.000231945231
  64     0.000021310240
  65    -0.000017957457
  66    -0.000104288338
  67     0.000051495752
  68     0.000053789569
  69    -0.000206898844
  70    -0.000080086439
  71    -0.000029697112
  72    -0.000101046893
  73     0.000303016840
  74    -0.001452761817
  75    -0.000910027041
  76     0.000026311100
  77     0.000052531365
  78    -0.000036568660
  79     0.475800417193
  80     0.629427786056
  81    -0.015257267901
  82    -0.007068725201
  83     0.023257984991
  84     0.000772216596
  85     0.000323986499
  86     0.000338245442
  87    -0.022338926276
  88    -0.008519317982
  89    -0.010083499442
  90    -0.008025062316
  91    -0.002579223088
  92    -0.003771701688
  93    -0.000012589700
  94    -0.000003638709
  95     0.000016228409
  96    -0.000006060801
  97    -0.000028661658
  98     0.000010763226
  99     0.004319588964
  100   -0.002676049829
  101   -0.001643539135
  102    0.002994394705
  103    0.004017800474
  104    0.001526084614
  105   -0.000531129244
  106    0.000021602858
  107    0.000157465081
  108    0.000411026918
  109   -0.000418505621
  110   -0.001149451189
  111    0.000301557739
  112    0.000389522346
  113    0.000938189613
  114   -0.000875779839
  115   -0.000129640290
  116   -0.000669346603
  117    0.002844285411
  118   -0.006946866197
  119   -0.003721764508
  120    0.002283017888
  121    0.000253717020
  122    0.000525145883
  123    0.011005737583
  124    0.001115293964
  125   -0.000839857238
  126    0.005209405585
  127   -0.000432551668
  128   -0.003126822049
  129   -0.000040280487
  130   -0.000023304823
  131    0.000063585310
  132   -0.000037579787
  133   -0.000033483441
  134    0.000038282504
  135   -0.000199466352
  136    0.000074966878
  137    0.000124499474
  138    0.001001213779
  139    0.001132528209
  140    0.000547534530
  141   -0.000182533173
  142   -0.000017603095
  143   -0.000079597849
  144    0.000031963126
  145   -0.000025935048
  146    0.000143181098
  147    0.000212930824
  148    0.000049552079
  149   -0.000036389377
  150    0.000112413292
  151   -0.001260380186
  152   -0.022078035058
  153   -0.000878712679
  154    0.000092811005
  155    0.000617485712
  156    0.000639382642
  157   -0.001127804576
  158   -0.021150485955
  159   -0.000986082023
  160    0.000532052308
  161   -0.000664645430
  162    0.000519884029
  163   -0.001259675212
  164   -0.022079337659
  165   -0.000875640448
  166    0.000720791225
  167    0.000262801988
  168   -0.000456690679
  169   -0.000102690819
  170   -0.002644195695
  171   -0.001652268710
  172   -0.000049400892
  173    0.000020770199
  174   -0.000003690868
  175    0.000603370788
  176    0.000763047468
  177   -0.001109960857
  178    0.000091805199
  179    0.000024928949
  180    0.000075890494
  181    0.000301301795
  182   -0.001430101115
  183   -0.000903576383
  184   -0.000000087973
  185    0.000069715666
  186    0.000009298941
  187    0.000605100622
  188    0.000737800575
  189   -0.001116092510
  190    0.000116518273
  191    0.000010151858
  192    0.000031936442
  193   -0.000101143505
  194   -0.002679378335
  195   -0.001663284897
  196   -0.000022475730
  197    0.000006238656
  198   -0.000048350700
 Sym=     1a
 Ene= -1.03373659555268E+01
Spin= Alpha
 Occup= 2
  1      0.002004674812
  2      0.001061597769
  3      0.011145960181
  4     -0.056116003122
  5     -0.001802941719
  6      0.004963528351
  7     -0.000202104726
  8     -0.003216157331
  9      0.037763534672
  10    -0.003113075696
  11    -0.023619727064
  12     0.036344456400
  13    -0.004013035187
  14    -0.022193919089
  15     0.000009210689
  16    -0.000068518758
  17     0.000059308069
  18     0.000072733646
  19     0.000035527280
  20     0.000055097787
  21    -0.003662840100
  22     0.004147314355
  23    -0.000484474255
  24    -0.000449913252
  25     0.003907389248
  26    -0.001531827837
  27     0.000121889098
  28     0.000045968137
  29     0.000330634976
  30    -0.000324026192
  31    -0.000115112488
  32    -0.000674667257
  33     0.000160494807
  34     0.000053439761
  35     0.000231073888
  36     0.000038579662
  37     0.475800477861
  38     0.629428284825
  39    -0.015256353645
  40    -0.007077728087
  41     0.023235752002
  42    -0.000773213040
  43     0.000132454357
  44     0.000449906625
  45     0.022110785008
  46    -0.003013941942
  47    -0.013212929015
  48     0.007799711424
  49    -0.000621581809
  50    -0.004892899620
  51    -0.000007596680
  52    -0.000001436234
  53     0.000009032914
  54     0.000005753712
  55     0.000028620808
  56     0.000017127021
  57     0.003980293641
  58    -0.003468225045
  59    -0.000512068596
  60    -0.000732941585
  61    -0.005170322789
  62     0.000648942176
  63     0.000185060914
  64    -0.000177221047
  65     0.000198285130
  66    -0.000299076019
  67     0.000037426684
  68    -0.001512986640
  69     0.000050790749
  70     0.000200340300
  71     0.001246959223
  72     0.000234348080
  73     0.000300548650
  74    -0.001427260616
  75    -0.000904600615
  76    -0.000042796281
  77     0.000046924692
  78    -0.000030591119
  79    -0.000129843518
  80    -0.000669615024
  81     0.002840135976
  82    -0.006912846669
  83    -0.003707724586
  84    -0.001583222494
  85     0.000165993357
  86     0.001737275888
  87    -0.005178418774
  88     0.002887604777
  89     0.009368188386
  90    -0.000007888360
  91     0.002402516988
  92     0.005587948348
  93     0.000006150186
  94    -0.000021487832
  95     0.000015337646
  96     0.000048782132
  97     0.000071095700
  98     0.000015254396
  99     0.001475830913
  100   -0.000363306791
  101   -0.001112524122
  102   -0.000256372279
  103   -0.000437349058
  104   -0.000082553332
  105   -0.000205707674
  106    0.000076555295
  107   -0.000082376434
  108    0.000085523701
  109   -0.000045263781
  110    0.000106943596
  111    0.000190462104
  112   -0.000057445925
  113    0.000003575987
  114    0.000117248044
  115   -0.000129414601
  116   -0.000670401055
  117    0.002846774029
  118   -0.006925559959
  119   -0.003718504279
  120   -0.002180908587
  121   -0.000296778897
  122    0.000847812757
  123   -0.010964961811
  124   -0.001573578228
  125    0.000759275034
  126   -0.005338087183
  127   -0.001721074982
  128   -0.002360391863
  129   -0.000046769100
  130   -0.000007717291
  131    0.000054486391
  132    0.000035317028
  133    0.000040482487
  134    0.000042017953
  135   -0.000075422973
  136   -0.000342845076
  137    0.000418268049
  138   -0.000934598649
  139   -0.001187751645
  140    0.000406656472
  141    0.000215626409
  142   -0.000035230057
  143   -0.000002914083
  144   -0.000028491314
  145    0.000035714956
  146    0.000072657183
  147   -0.000260801871
  148    0.000011551126
  149   -0.000068747530
  150   -0.000061750191
  151   -0.000099835930
  152   -0.002663739820
  153   -0.001660930444
  154    0.000041561292
  155    0.000032706305
  156   -0.000008426305
  157    0.000303255236
  158   -0.001452743720
  159   -0.000907937134
  160   -0.000013328737
  161    0.000066212907
  162    0.000013007927
  163    0.000605394783
  164    0.000731247648
  165   -0.001117815690
  166   -0.000082578931
  167    0.000002865905
  168    0.000088478720
  169   -0.001260451086
  170   -0.022081755007
  171   -0.000875108667
  172   -0.000150918686
  173    0.000590154263
  174    0.000653355579
  175   -0.001258699342
  176   -0.022074066419
  177   -0.000875311445
  178   -0.000819779824
  179    0.000067449039
  180   -0.000347054330
  181   -0.001128714514
  182   -0.021159619729
  183   -0.000983479677
  184   -0.000273907434
  185   -0.000762674189
  186    0.000582455060
  187   -0.000102747034
  188   -0.002651389006
  189   -0.001653529481
  190    0.000015004269
  191    0.000011163889
  192   -0.000050253159
  193    0.000603239338
  194    0.000768329030
  195   -0.001109750975
  196   -0.000110338872
  197   -0.000017283139
  198    0.000048722641
 Sym=     1a
 Ene= -1.03373612099579E+01
Spin= Alpha
 Occup= 2
  1      0.002004805506
  2      0.001063180396
  3      0.011138715721
  4     -0.056104804757
  5     -0.001800839718
  6      0.000059664577
  7      0.002603645290
  8      0.005317766315
  9      0.000665085426
  10     0.018069849996
  11     0.040840070362
  12     0.000787739054
  13     0.016280637761
  14     0.039564462866
  15     0.000100417071
  16    -0.000052461634
  17    -0.000047955437
  18     0.000026918381
  19    -0.000020060824
  20     0.000062345958
  21     0.001163400395
  22     0.002681435351
  23    -0.003844835746
  24    -0.000565826825
  25     0.000176999618
  26    -0.004737521324
  27    -0.000021309691
  28    -0.000250355293
  29     0.000382674611
  30    -0.000012386896
  31    -0.000216691412
  32    -0.000502051826
  33     0.000040976847
  34     0.000552578284
  35    -0.000011360040
  36    -0.000007593321
  37    -0.000129868513
  38    -0.000669901896
  39     0.002843274705
  40    -0.006928070443
  41    -0.003713955270
  42    -0.000580333153
  43    -0.001212336901
  44    -0.001938012199
  45    -0.005746138077
  46    -0.004567785105
  47    -0.008315745000
  48    -0.005228182873
  49    -0.001789072735
  50    -0.002546350756
  51     0.000074868172
  52    -0.000020669732
  53    -0.000054198440
  54     0.000008072702
  55    -0.000045596837
  56    -0.000001085522
  57    -0.000750132794
  58    -0.000548982638
  59     0.001299115432
  60    -0.000497543589
  61    -0.000797998486
  62     0.000203127336
  63    -0.000158596075
  64     0.000016130492
  65    -0.000054769729
  66    -0.000014265497
  67     0.000035021018
  68     0.000090154267
  69     0.000227044460
  70    -0.000056662344
  71    -0.000016672965
  72     0.000146781260
  73    -0.001128864437
  74    -0.021163643587
  75    -0.000983820666
  76     0.000112087245
  77    -0.000986769015
  78    -0.000097336745
  79    -0.000129349184
  80    -0.000668723579
  81     0.002843042636
  82    -0.006942875828
  83    -0.003719173482
  84     0.000581502271
  85    -0.001068044069
  86    -0.002018432002
  87     0.005449756192
  88    -0.003177274634
  89    -0.009132041377
  90     0.005088754761
  91    -0.000508319408
  92    -0.003291122320
  93     0.000080830749
  94    -0.000017810080
  95    -0.000063020669
  96     0.000020654283
  97     0.000021855463
  98     0.000006300651
  99    -0.000725040773
  100   -0.000349708861
  101    0.001074749634
  102    0.000456733219
  103    0.001052768694
  104    0.000369582112
  105    0.000160520664
  106    0.000027781958
  107    0.000018984942
  108    0.000019231948
  109    0.000044530958
  110    0.000052983641
  111   -0.000234593018
  112   -0.000081804365
  113   -0.000078454614
  114   -0.000129872994
  115    0.475800364194
  116    0.629428551380
  117   -0.015259775448
  118   -0.007060334184
  119    0.023249056963
  120   -0.000023879320
  121   -0.000295578749
  122   -0.000852033488
  123    0.000575331294
  124    0.009272153929
  125    0.024202602749
  126    0.000138241567
  127    0.003752394907
  128    0.008427731811
  129    0.000032507500
  130   -0.000014921180
  131   -0.000017586320
  132    0.000005975793
  133   -0.000002785827
  134   -0.000011476255
  135   -0.003215709708
  136   -0.001984072219
  137    0.005199781927
  138    0.000130598149
  139    0.000154618024
  140    0.004343571314
  141   -0.000299802788
  142   -0.001068878189
  143    0.000692178371
  144    0.000291167040
  145    0.000334426167
  146   -0.001240332315
  147    0.000111060609
  148    0.001099624407
  149    0.000311677581
  150   -0.000163900765
  151    0.000603125917
  152    0.000758144050
  153   -0.001112924419
  154    0.000026149439
  155   -0.000059560051
  156   -0.000103014101
  157    0.000300592473
  158   -0.001427286070
  159   -0.000905531673
  160    0.000016609073
  161    0.000049732123
  162   -0.000047737591
  163   -0.000103285960
  164   -0.002647852218
  165   -0.001651886389
  166    0.000022572090
  167    0.000042986198
  168    0.000023057257
  169    0.000605264037
  170    0.000734932052
  171   -0.001115852809
  172   -0.000025428808
  173   -0.000066211521
  174   -0.000098364072
  175   -0.000100942784
  176   -0.002669092461
  177   -0.001659924282
  178   -0.000030328774
  179    0.000035750520
  180    0.000025652117
  181    0.000302656482
  182   -0.001448809872
  183   -0.000908621068
  184   -0.000036801443
  185    0.000040499958
  186   -0.000042378094
  187   -0.001259174982
  188   -0.022078236788
  189   -0.000874474501
  190   -0.000701557212
  191    0.000003385578
  192   -0.000552158071
  193   -0.001259119352
  194   -0.022082033828
  195   -0.000873665377
  196    0.000597483923
  197    0.000160629868
  198   -0.000643132460
 Sym=     1a
 Ene= -5.56076619764039E-01
Spin= Alpha
 Occup= 2
  1      0.011207473016
  2      0.053211999879
  3     -0.153549142020
  4      0.124801977596
  5     -0.014657647442
  6     -0.117109703248
  7     -0.042803752390
  8     -0.053426500570
  9      0.013679498792
  10    -0.001881991622
  11     0.008481001657
  12    -0.064304389083
  13    -0.018654852943
  14    -0.030684921567
  15    -0.000265360595
  16     0.000910598251
  17    -0.000645237656
  18     0.000258336972
  19     0.000423095486
  20    -0.000587328187
  21     0.053920867936
  22    -0.047279668411
  23    -0.006641199525
  24     0.029839792487
  25     0.037441601983
  26     0.028623851995
  27     0.002350706873
  28    -0.002196249660
  29    -0.004271913781
  30    -0.002111016212
  31     0.004205568663
  32     0.007517882495
  33    -0.001042788006
  34    -0.001258990542
  35    -0.001786508730
  36     0.002812865256
  37     0.000759999527
  38     0.009839524424
  39    -0.035969494166
  40    -0.005728736281
  41    -0.012204288316
  42     0.000772763182
  43     0.012495641232
  44     0.027839723099
  45    -0.013503852617
  46     0.005446213762
  47     0.033577801389
  48     0.003845109844
  49    -0.003087520683
  50    -0.014827977289
  51    -0.000360063136
  52     0.000244714009
  53     0.000115349127
  54     0.000143596339
  55     0.000664823465
  56     0.000202675252
  57    -0.014727820587
  58     0.004784644608
  59     0.009943175979
  60    -0.006216417956
  61     0.001629303382
  62    -0.001285072724
  63    -0.002381037001
  64    -0.000418426389
  65     0.000243400979
  66     0.001104347676
  67    -0.000531784213
  68    -0.000459910165
  69     0.002090148679
  70     0.001093162122
  71     0.000133353484
  72     0.000828056952
  73    -0.006988387932
  74    -0.011214359741
  75     0.012969231811
  76     0.000167250300
  77    -0.000659863718
  78     0.000782605056
  79    -0.078433473331
  80    -0.280331953482
  81     0.660084974885
  82     0.815298594478
  83     0.186103149534
  84    -0.038424566170
  85    -0.021129617267
  86    -0.015337090369
  87     0.184037732323
  88     0.053440661204
  89     0.088244168608
  90     0.025322332381
  91    -0.003084116934
  92     0.015326708632
  93    -0.000438893491
  94     0.000471021715
  95    -0.000032128224
  96    -0.000339512742
  97    -0.000118066851
  98    -0.000411056094
  99    -0.050490831119
  100    0.031153727650
  101    0.019337103469
  102   -0.034875596088
  103   -0.047260719883
  104   -0.017597373366
  105    0.006710499267
  106   -0.000031602491
  107   -0.002022762246
  108   -0.005198074634
  109    0.005131143931
  110    0.014809810738
  111   -0.003805004880
  112   -0.005088744741
  113   -0.012095990407
  114    0.011023336487
  115    0.000757894633
  116    0.009838811284
  117   -0.035966213797
  118   -0.005790523568
  119   -0.012134527842
  120    0.025960692288
  121   -0.001933990131
  122   -0.016000201994
  123    0.021008091104
  124   -0.014234056953
  125   -0.026341474625
  126   -0.010516562197
  127    0.005389524467
  128    0.010229756841
  129    0.000594949481
  130   -0.000041150337
  131   -0.000553799144
  132    0.000120376995
  133   -0.000069427837
  134   -0.000428950135
  135    0.001562193725
  136    0.002658370791
  137   -0.004220564516
  138   -0.009416697008
  139   -0.009990182768
  140   -0.007709678935
  141    0.001914098556
  142    0.000372471795
  143    0.000652589772
  144   -0.000547284935
  145    0.000164109652
  146   -0.001483400794
  147   -0.002020747756
  148   -0.000663833004
  149    0.000607859739
  150   -0.001111946525
  151   -0.047086672399
  152   -0.260006132402
  153   -0.085301332753
  154   -0.001284796726
  155   -0.007989945697
  156   -0.008675152548
  157   -0.037941512894
  158   -0.241433780832
  159   -0.099747822415
  160   -0.006926457354
  161    0.008636845437
  162   -0.006758319821
  163   -0.047078614425
  164   -0.259945381089
  165   -0.085542014833
  166   -0.009691345288
  167   -0.003235602133
  168    0.005996113174
  169   -0.004058742577
  170   -0.009506494472
  171    0.014809278426
  172    0.000546733638
  173   -0.000317490378
  174    0.000474701951
  175   -0.007175773714
  176   -0.013641703671
  177    0.010773510725
  178   -0.000642982718
  179   -0.000545866364
  180   -0.000587318229
  181   -0.006962383333
  182   -0.011324890495
  183    0.012787774045
  184    0.000528859755
  185   -0.000876075171
  186    0.000146194854
  187   -0.007220763604
  188   -0.013565993336
  189    0.010738710719
  190   -0.000960810477
  191   -0.000367290766
  192   -0.000028598832
  193   -0.004115045343
  194   -0.009500352364
  195    0.014707798195
  196    0.000560642075
  197   -0.000346451179
  198    0.000408653020
 Sym=     1a
 Ene= -5.56073824646796E-01
Spin= Alpha
 Occup= 2
  1      0.011209670580
  2      0.053212880748
  3     -0.153547012954
  4      0.124806026765
  5     -0.014640292824
  6      0.115411446948
  7     -0.013989299646
  8     -0.069839498226
  9     -0.011422748933
  10    -0.005005301281
  11     0.010273140289
  12     0.061978752376
  13    -0.003139369028
  14    -0.039850971758
  15    -0.000156740909
  16     0.000716394049
  17    -0.000559653140
  18    -0.000642089795
  19    -0.000334515223
  20    -0.000615827336
  21     0.048461567109
  22    -0.052923474826
  23     0.004461907717
  24     0.003167858161
  25    -0.052288555016
  26     0.019354241691
  27    -0.001348895367
  28    -0.000512189211
  29    -0.004154788704
  30     0.003662506004
  31     0.001624285696
  32     0.008521375062
  33    -0.001852772963
  34    -0.000937111760
  35    -0.002947141077
  36    -0.000438398392
  37    -0.078430740296
  38    -0.280333970485
  39     0.660072122517
  40     0.815403698885
  41     0.186228479359
  42     0.039928891258
  43    -0.011391196547
  44    -0.020738129502
  45    -0.177284239540
  46     0.008772536821
  47     0.114046683367
  48    -0.021308774625
  49    -0.008780942409
  50     0.018855747667
  51    -0.000464825679
  52     0.000546916688
  53    -0.000082091009
  54     0.000003828599
  55     0.000289807916
  56    -0.000386326362
  57    -0.046441378589
  58     0.040377574455
  59     0.006063804134
  60     0.008529712560
  61     0.060661107029
  62    -0.007257206903
  63    -0.002188625102
  64     0.002430954142
  65    -0.002530211865
  66     0.003616988142
  67    -0.000534253843
  68     0.019333768360
  69    -0.000680639439
  70    -0.002727213384
  71    -0.015939132923
  72    -0.002788921930
  73    -0.006954478687
  74    -0.011355039963
  75     0.012814791451
  76     0.000101896988
  77    -0.000685191215
  78     0.000771063626
  79     0.000761022686
  80     0.009831519060
  81    -0.035917558995
  82    -0.005885555879
  83    -0.012278239320
  84     0.000164821862
  85     0.012416963552
  86     0.027876413064
  87     0.016315384099
  88     0.009154056552
  89     0.031417620797
  90    -0.005115308987
  91    -0.003963454302
  92    -0.014179276457
  93    -0.000424906377
  94     0.000153032200
  95     0.000271874177
  96    -0.000299478529
  97    -0.000603585137
  98     0.000074673796
  99    -0.015839368049
  100    0.006096185306
  101    0.009743182743
  102   -0.000054515041
  103    0.002937635119
  104   -0.001595373214
  105    0.002106445562
  106   -0.000990570437
  107    0.000899346948
  108   -0.000842655116
  109    0.000533881744
  110   -0.001108729801
  111   -0.001983438165
  112    0.000795107955
  113   -0.000097870745
  114   -0.000914419087
  115    0.000760111827
  116    0.009852822798
  117   -0.036020594640
  118   -0.005715402031
  119   -0.012112191379
  120   -0.026699151861
  121   -0.008418321258
  122   -0.012212058139
  123   -0.020393736707
  124   -0.019410188084
  125   -0.023441710421
  126    0.010323405375
  127    0.007781463910
  128    0.008775289067
  129    0.000622824994
  130   -0.000066940853
  131   -0.000555884141
  132    0.000011833054
  133   -0.000018459530
  134   -0.000414192633
  135    0.000555644417
  136    0.006266003619
  137   -0.006821648036
  138    0.007422633378
  139    0.010731376553
  140   -0.006395111855
  141   -0.002174753562
  142    0.000643143293
  143   -0.000079629955
  144    0.000382820872
  145   -0.000571964523
  146   -0.000775877664
  147    0.002534917208
  148   -0.000290902750
  149    0.000882712459
  150    0.000527453543
  151   -0.004101703447
  152   -0.009436278470
  153    0.014726481195
  154   -0.000371424117
  155   -0.000445596618
  156    0.000511161458
  157   -0.006987099236
  158   -0.011186843967
  159    0.012960284446
  160   -0.000291714208
  161   -0.000977899031
  162    0.000181138549
  163   -0.007235005597
  164   -0.013584513640
  165    0.010750586426
  166    0.000665379131
  167   -0.000387328639
  168   -0.000683200436
  169   -0.047088761550
  170   -0.259982539884
  171   -0.085487674388
  172    0.001977236382
  173   -0.007622009396
  174   -0.008863410768
  175   -0.047079450997
  176   -0.260001585392
  177   -0.085419337083
  178    0.010927254795
  179   -0.000623737237
  180    0.004527565058
  181   -0.037949987148
  182   -0.241447882674
  183   -0.099774205763
  184    0.003569065234
  185    0.009913026706
  186   -0.007575726299
  187   -0.004072841766
  188   -0.009555636582
  189    0.014766305212
  190   -0.000427291415
  191   -0.000469436968
  192    0.000469767149
  193   -0.007168737809
  194   -0.013641730455
  195    0.010770175701
  196    0.001004735716
  197   -0.000123429282
  198   -0.000173887697
 Sym=     1a
 Ene= -5.56068874117589E-01
Spin= Alpha
 Occup= 2
  1      0.011215503657
  2      0.053203614177
  3     -0.153473796142
  4      0.124716579662
  5     -0.014629851396
  6      0.002705678931
  7      0.050342571697
  8      0.125945383307
  9      0.000706180123
  10    -0.011944184750
  11    -0.010809620229
  12     0.000842616085
  13     0.031849675432
  14     0.066548148514
  15    -0.000985715844
  16     0.000621344659
  17     0.000364371185
  18    -0.000280168795
  19     0.000185725510
  20    -0.000599712432
  21    -0.017973449586
  22    -0.034835335311
  23     0.052808784897
  24     0.006825235543
  25    -0.001691493613
  26     0.060241411815
  27     0.000352437433
  28     0.002967089889
  29    -0.004897064844
  30     0.000140023043
  31     0.002582907143
  32     0.006591910846
  33    -0.000612867477
  34    -0.006563675955
  35    -0.000021808917
  36     0.000203721935
  37     0.000759700075
  38     0.009832337083
  39    -0.035942407170
  40    -0.005773213979
  41    -0.012272200816
  42    -0.026399505015
  43    -0.008571012827
  44    -0.012697705663
  45    -0.034812356271
  46    -0.011100705350
  47     0.001650898342
  48     0.014552723581
  49     0.005426224761
  50     0.001150876641
  51    -0.000342100187
  52     0.000168484527
  53     0.000173615660
  54     0.000096244547
  55     0.000707611641
  56     0.000130891119
  57     0.003730635360
  58     0.008068090645
  59    -0.011798726005
  60     0.004510098803
  61     0.009118926362
  62    -0.004147264813
  63     0.001337697093
  64    -0.000143303961
  65     0.000638092809
  66     0.000378767801
  67    -0.000370446741
  68    -0.000895360340
  69    -0.002173476781
  70     0.000562709179
  71     0.000039269002
  72    -0.001698455043
  73    -0.037938874092
  74    -0.241405340018
  75    -0.099775400261
  76    -0.001456734803
  77     0.012829390602
  78     0.001275319169
  79     0.000759065679
  80     0.009845033930
  81    -0.035996329216
  82    -0.005710091849
  83    -0.012116656146
  84     0.025640397077
  85    -0.002146344462
  86    -0.016431966575
  87     0.036411851697
  88    -0.002314466086
  89    -0.003370425340
  90    -0.015150390446
  91     0.001596365738
  92     0.003427468612
  93    -0.000435712104
  94     0.000095981722
  95     0.000339730382
  96    -0.000235941528
  97    -0.000612101235
  98    -0.000005977127
  99     0.003661180386
  100    0.005791443024
  101   -0.009452623410
  102   -0.006181970574
  103   -0.010296542553
  104   -0.005826990992
  105   -0.001439111009
  106   -0.000381283322
  107   -0.000070035670
  108   -0.000372883656
  109   -0.000232280471
  110   -0.000689568814
  111    0.002303653682
  112    0.000743825727
  113    0.000783531525
  114    0.001500455551
  115   -0.078431004313
  116   -0.280345634253
  117    0.660079496283
  118    0.815501783629
  119    0.186083555891
  120    0.001923900565
  121    0.010209231750
  122    0.045171046477
  123   -0.002290536152
  124   -0.091268936296
  125   -0.190246055013
  126    0.001187007557
  127   -0.021718704408
  128   -0.020403557869
  129   -0.000073220259
  130    0.000547536289
  131   -0.000474316030
  132   -0.000122360210
  133    0.000024648570
  134   -0.000463538701
  135    0.037938172466
  136    0.022814408517
  137   -0.060752580983
  138   -0.001420024606
  139   -0.001824050155
  140   -0.050839059453
  141    0.003838262324
  142    0.013521096043
  143   -0.008678025837
  144   -0.003712637641
  145   -0.004239076472
  146    0.015947119975
  147   -0.001436931642
  148   -0.013901377458
  149   -0.004304326566
  150    0.002164441294
  151   -0.007182339929
  152   -0.013690639175
  153    0.010783066350
  154   -0.000280281131
  155    0.000159971386
  156    0.000976960526
  157   -0.006957171434
  158   -0.011373226200
  159    0.012781844804
  160   -0.000230908709
  161   -0.000999449390
  162    0.000144286365
  163   -0.004067034357
  164   -0.009569354575
  165    0.014786132373
  166    0.000114902436
  167   -0.000716617874
  168   -0.000321053617
  169   -0.007228428131
  170   -0.013594913498
  171    0.010731058152
  172    0.000372857135
  173    0.000240460559
  174    0.000928458757
  175   -0.004104492777
  176   -0.009489919116
  177    0.014710743610
  178    0.000039910374
  179   -0.000716617176
  180   -0.000292504453
  181   -0.006979987642
  182   -0.011209247935
  183    0.012953099889
  184    0.000510034547
  185   -0.000896464668
  186    0.000086226403
  187   -0.047075234539
  188   -0.259922788940
  189   -0.085472673092
  190    0.009347333756
  191    0.000235221516
  192    0.007274425813
  193   -0.047081930806
  194   -0.260039894266
  195   -0.085376148140
  196   -0.008036354964
  197   -0.001868838198
  198    0.008489641029
 Sym=     1a
 Ene= -5.26861331593087E-01
Spin= Alpha
 Occup= 2
  1     -0.076285089273
  2     -0.310591432484
  3      0.827144255035
  4      0.555031762060
  5      0.165160668193
  6      0.000823299173
  7     -0.005505826321
  8      0.002285667474
  9     -0.001303454025
  10     0.008436595992
  11    -0.003568126155
  12     0.000370854051
  13    -0.002472616343
  14     0.001103950661
  15     0.002221374675
  16    -0.003558678381
  17     0.001337303706
  18     0.001050630191
  19    -0.000433160307
  20     0.002854054032
  21    -0.050272912497
  22     0.080478566406
  23    -0.030205653909
  24    -0.023746330986
  25     0.009836223488
  26    -0.064510661328
  27    -0.001158700947
  28    -0.000240272825
  29     0.011379524205
  30    -0.001438407429
  31    -0.007176668870
  32    -0.019352961286
  33     0.002992967878
  34     0.007499028692
  35     0.004085727481
  36    -0.002210110247
  37     0.015442528896
  38     0.043262641016
  39    -0.100117141930
  40     0.005488729251
  41    -0.105646756001
  42    -0.091543699359
  43     0.008066551127
  44     0.057005141719
  45    -0.060199492416
  46     0.012773732189
  47     0.033463320717
  48    -0.083961083652
  49    -0.007209562169
  50     0.060097747842
  51     0.001667697491
  52    -0.001203318197
  53    -0.000464379294
  54    -0.000499855669
  55    -0.002625347395
  56    -0.000181179419
  57     0.026467491373
  58    -0.024937732882
  59    -0.001529758491
  60    -0.003181535483
  61    -0.031439138661
  62     0.007162199543
  63    -0.000299448287
  64    -0.000379613334
  65    -0.001657228833
  66     0.001333466006
  67     0.000664464153
  68     0.001776787055
  69    -0.000931713971
  70    -0.000155159421
  71     0.000446618740
  72     0.000316225193
  73    -0.000475671524
  74     0.016341396177
  75    -0.020608022807
  76    -0.000193427518
  77    -0.001480036666
  78    -0.005452724476
  79     0.015446809827
  80     0.043266741132
  81    -0.100125531566
  82     0.005513404756
  83    -0.105685617620
  84     0.093853898724
  85     0.031005637823
  86     0.043847376473
  87     0.059151392487
  88     0.027646617515
  89     0.025233303283
  90     0.090953541215
  91     0.014275578821
  92     0.047278479112
  93     0.001875173944
  94    -0.000817210368
  95    -0.001057963576
  96     0.001319294901
  97     0.002184045032
  98     0.000283868469
  99     0.028393133442
  100   -0.020129956117
  101   -0.008263177325
  102    0.019161511968
  103    0.023603305504
  104    0.012522606532
  105    0.000371366059
  106   -0.000930187141
  107   -0.001819682293
  108   -0.000555849865
  109    0.001208201263
  110    0.001941084500
  111    0.000057610013
  112    0.000039775745
  113    0.000500275483
  114   -0.000083724879
  115    0.015445749197
  116    0.043260487947
  117   -0.100091453984
  118    0.005512787033
  119   -0.105473011180
  120   -0.001717075739
  121   -0.043234377745
  122   -0.099143346946
  123   -0.002162034927
  124   -0.020231723922
  125   -0.067102327739
  126    0.000452927988
  127   -0.055684846513
  128   -0.087256362246
  129   -0.002046294014
  130   -0.000377662478
  131    0.002423956492
  132   -0.000112321067
  133    0.000146459404
  134    0.001821194043
  135   -0.016692022644
  136   -0.016008768368
  137    0.032700791012
  138    0.002016916261
  139    0.000335123516
  140    0.029309182256
  141   -0.000313545374
  142   -0.000183368240
  143   -0.001085196093
  144    0.000504595834
  145    0.001819404690
  146    0.001232758966
  147   -0.000083930572
  148   -0.001573390380
  149    0.000223184373
  150   -0.000149060734
  151    0.000682537195
  152    0.004221256755
  153    0.001809938526
  154    0.003103125712
  155    0.001391057199
  156    0.000034698329
  157   -0.000469882142
  158    0.016376001452
  159   -0.020591736122
  160    0.004737857512
  161    0.002371922513
  162    0.001971264353
  163    0.000700868395
  164    0.004443190251
  165    0.001395410045
  166    0.002028565964
  167    0.001982732961
  168    0.001890100760
  169    0.000690707375
  170    0.004410194797
  171    0.001492366652
  172   -0.003329980692
  173    0.000562145278
  174    0.000448444207
  175    0.000686686402
  176    0.004160185445
  177    0.001694063394
  178   -0.002193450149
  179    0.001453557856
  180    0.002149957512
  181   -0.000478068708
  182    0.016379109758
  183   -0.020598101763
  184   -0.004866032680
  185    0.001169577341
  186    0.002633160794
  187    0.000691166756
  188    0.004315259595
  189    0.001421686742
  190    0.000960954673
  191   -0.000325583943
  192   -0.003252057375
  193    0.000688834815
  194    0.004073649732
  195    0.001681374898
  196   -0.001254483234
  197   -0.000592483228
  198   -0.003100571643
 Sym=     1a
 Ene= -3.66144176220056E-01
Spin= Alpha
 Occup= 2
  1     -0.000085913844
  2     -0.001818146769
  3      0.013629121666
  4     -0.044701357407
  5     -0.021977447789
  6     -0.009573532601
  7     -0.062818744784
  8     -0.006457534336
  9      0.024431356055
  10    -0.048287138010
  11    -0.018841775991
  12     0.013630831983
  13    -0.043546535981
  14     0.013887245521
  15     0.001893130110
  16    -0.000949889978
  17    -0.000943240132
  18     0.004546529528
  19    -0.000147016232
  20    -0.004143901370
  21    -0.023476300812
  22     0.013592373253
  23     0.009883927559
  24    -0.040010181357
  25     0.007761996776
  26     0.033872030643
  27    -0.000998008585
  28    -0.003776803904
  29     0.000922381473
  30    -0.000766765724
  31     0.003474562598
  32    -0.001677790465
  33     0.002105734747
  34     0.001592551562
  35     0.000440285860
  36    -0.005018394992
  37     0.000600656300
  38     0.006371949663
  39    -0.028061223741
  40     0.047459546529
  41     0.017987028902
  42    -0.001219062905
  43     0.585398079547
  44     0.014101889420
  45     0.025759022153
  46     0.522053500197
  47    -0.033770182926
  48     0.002322552113
  49     0.232991744708
  50     0.016956862416
  51     0.000289520010
  52    -0.000624077624
  53     0.000334557614
  54     0.000676171997
  55    -0.000290188683
  56    -0.000794503959
  57    -0.001314299732
  58     0.021180625959
  59    -0.019866326227
  60    -0.031890667423
  61    -0.022037220562
  62    -0.065104236987
  63     0.000546906353
  64     0.001221448658
  65    -0.002849338333
  66    -0.001318174795
  67     0.006833729137
  68     0.000930062967
  69     0.000584422925
  70    -0.008472474475
  71     0.002892725555
  72     0.004251423806
  73    -0.002261900631
  74     0.000700384886
  75    -0.005746231860
  76     0.001463659464
  77     0.000605255395
  78     0.000098371589
  79     0.000431586049
  80    -0.002046160514
  81     0.009714082790
  82     0.005284819441
  83     0.000542931758
  84    -0.002594004304
  85     0.008197888155
  86    -0.004252989554
  87     0.001926019242
  88    -0.000419752954
  89    -0.026216509666
  90    -0.002532851268
  91    -0.003877871309
  92    -0.003240437578
  93    -0.000322927918
  94     0.000589879332
  95    -0.000266951414
  96     0.000223035933
  97     0.000362765294
  98     0.000553258292
  99     0.002924856865
  100   -0.008020246406
  101    0.005095389541
  102    0.005535160837
  103   -0.000635038235
  104   -0.005263366262
  105    0.000269597265
  106   -0.000121318585
  107   -0.000040512899
  108   -0.000316330608
  109   -0.000540095156
  110   -0.000589906130
  111   -0.000045372079
  112    0.000702861117
  113    0.000644259887
  114    0.000278607253
  115   -0.001832954783
  116    0.000403125801
  117   -0.010326711124
  118    0.001392356238
  119    0.014530858234
  120   -0.008458635622
  121    0.001537047121
  122   -0.002783088926
  123   -0.010964959747
  124    0.008585300009
  125   -0.008079896765
  126   -0.021192622339
  127   -0.006127051057
  128    0.013762109122
  129    0.000158179461
  130    0.000113995967
  131   -0.000272175428
  132   -0.000001728243
  133    0.001072065166
  134   -0.000286787338
  135    0.000843148932
  136   -0.000700119875
  137   -0.000143029057
  138    0.001637107101
  139   -0.017999160008
  140   -0.000953201965
  141    0.001302432929
  142   -0.000632375160
  143   -0.000196802096
  144    0.000322239783
  145    0.000486399058
  146    0.000114678031
  147   -0.002069636922
  148    0.000362021249
  149    0.000149359688
  150   -0.000848647591
  151    0.002684694208
  152    0.011369225694
  153    0.001668234732
  154    0.000116851965
  155    0.000239673090
  156   -0.001307017139
  157    0.000843797205
  158    0.000253892467
  159   -0.003124259172
  160   -0.000064655072
  161    0.000102098963
  162   -0.001182575994
  163   -0.000013291805
  164   -0.010720580889
  165    0.001664934998
  166    0.002424708521
  167    0.000321614614
  168   -0.000837755404
  169   -0.026523209065
  170   -0.115709841587
  171   -0.106472169403
  172    0.002252201950
  173   -0.013254019145
  174   -0.017007194791
  175   -0.002470171573
  176   -0.007595149609
  177    0.000177014232
  178    0.001972694530
  179    0.002112517553
  180    0.000564775054
  181    0.020616450449
  182    0.149966485385
  183    0.094880926725
  184   -0.004251834698
  185   -0.017224727446
  186    0.013720566861
  187    0.000509184923
  188    0.006014034469
  189   -0.006395025356
  190    0.001464814493
  191    0.000481232787
  192   -0.001191420323
  193   -0.001225405404
  194   -0.006604971994
  195    0.016815662301
  196    0.001749687546
  197    0.000599549842
  198   -0.000652263994
 Sym=     1a
 Ene= -3.65679085395240E-01
Spin= Alpha
 Occup= 2
  1     -0.001290944435
  2     -0.012043953671
  3      0.059300572273
  4     -0.164926808492
  5     -0.038223867189
  6      0.035725156553
  7     -0.050725676504
  8      0.008521478682
  9     -0.061145303945
  10    -0.064068630794
  11    -0.031842994983
  12    -0.001130681803
  13    -0.047403693873
  14     0.014548036328
  15     0.004073727792
  16    -0.003477580341
  17    -0.000596147451
  18    -0.003127124838
  19     0.001887375420
  20    -0.002325462011
  21    -0.060174657065
  22     0.047918665948
  23     0.012255991117
  24     0.012534185754
  25    -0.035080416906
  26     0.009458083661
  27    -0.002668741774
  28    -0.001618561285
  29     0.003355807003
  30     0.004694537344
  31     0.001667935395
  32    -0.007309245687
  33    -0.001114044532
  34     0.000503592440
  35     0.002806958140
  36     0.002028514633
  37    -0.000490358583
  38    -0.003169113411
  39     0.006693122964
  40     0.026037308208
  41     0.006704596505
  42     0.000601291278
  43     0.007025202200
  44    -0.006262522051
  45     0.008880133178
  46     0.000472070162
  47    -0.033255635332
  48     0.011091702845
  49    -0.000769365725
  50     0.003077210970
  51    -0.000492874762
  52     0.000556061963
  53    -0.000063187201
  54    -0.000457326675
  55    -0.000492441306
  56     0.000414285582
  57     0.010996429637
  58    -0.014039193390
  59     0.003042763753
  60    -0.000878836815
  61     0.000262304670
  62    -0.002482074055
  63     0.000884515862
  64     0.000190216321
  65    -0.000334477098
  66    -0.000573558594
  67    -0.000418422680
  68    -0.000357405907
  69    -0.000613143963
  70     0.000163220705
  71     0.000806154024
  72    -0.000353299148
  73    -0.000079487607
  74     0.003697559318
  75    -0.006796939478
  76    -0.001505473658
  77     0.000452658957
  78    -0.000020946196
  79     0.000549318993
  80     0.010480959796
  81    -0.061200688865
  82     0.171853039033
  83     0.047891166362
  84     0.008481480622
  85     0.587441938917
  86     0.012606458605
  87    -0.096570970704
  88     0.493221155138
  89    -0.056579050655
  90    -0.008210815415
  91     0.232480743214
  92     0.007045293541
  93     0.000799382966
  94    -0.000972290395
  95     0.000172907429
  96    -0.000410044673
  97     0.000700548876
  98    -0.000412761675
  99     0.023544637904
  100    0.020375863194
  101   -0.043920501098
  102    0.027768815129
  103    0.067863817625
  104   -0.048709438164
  105   -0.004610745089
  106    0.005332180745
  107   -0.001517438848
  108    0.006539608363
  109    0.000212540354
  110    0.002045737864
  111   -0.000353644696
  112   -0.007366411522
  113   -0.000009880014
  114   -0.006509388489
  115   -0.002040081814
  116   -0.001478127169
  117   -0.007004338341
  118    0.022575532084
  119    0.015727153790
  120    0.003082467650
  121    0.005084065605
  122   -0.001439673045
  123   -0.000098365700
  124    0.019156715932
  125    0.008721632633
  126    0.025343894675
  127    0.000574933945
  128    0.011469423516
  129   -0.000243948907
  130    0.000147567866
  131    0.000096381041
  132   -0.000115088439
  133   -0.000973771627
  134   -0.000587874967
  135    0.005035409796
  136   -0.005486779183
  137    0.000451369387
  138    0.000060385842
  139    0.015525231875
  140    0.008291548657
  141   -0.001642190470
  142   -0.001078449348
  143   -0.000606141303
  144    0.000280550423
  145    0.000394681989
  146    0.000782137598
  147    0.001922679291
  148    0.001052209642
  149    0.000031086297
  150    0.000756726979
  151   -0.026905719557
  152   -0.116803639164
  153   -0.102829681321
  154    0.000572053941
  155   -0.013436316141
  156   -0.016040596264
  157    0.016975658583
  158    0.136321466691
  159    0.092094790385
  160    0.012170023834
  161   -0.014118145896
  162    0.012658803837
  163   -0.010611636051
  164   -0.043575769515
  165   -0.030322643591
  166   -0.005573428411
  167   -0.000047231646
  168    0.005487790392
  169    0.003826662521
  170    0.011994958249
  171   -0.001011884688
  172   -0.000683325654
  173    0.000546660375
  174   -0.001442221919
  175    0.000912516780
  176   -0.007773271811
  177    0.003969330009
  178   -0.002763724399
  179    0.000039175433
  180   -0.000305422438
  181    0.002072200531
  182    0.003140013171
  183   -0.004941606584
  184   -0.000459772408
  185    0.000228524538
  186   -0.001211375686
  187    0.000098723744
  188   -0.004785674089
  189    0.013855405682
  190   -0.001726066572
  191    0.000076387214
  192   -0.001221370925
  193    0.002314828980
  194    0.008318824798
  195   -0.006082775099
  196   -0.001722010828
  197    0.000603568232
  198   -0.000971115528
 Sym=     1a
 Ene= -3.61773227338472E-01
Spin= Alpha
 Occup= 2
  1      0.002606065609
  2      0.021077165645
  3     -0.088542361928
  4      0.224189882787
  5      0.013782815905
  6     -0.002559052927
  7     -0.030692647352
  8      0.062053797541
  9     -0.001500742357
  10    -0.072758435099
  11    -0.053165873279
  12     0.005938663177
  13    -0.037151724212
  14     0.021356962962
  15     0.000054194889
  16     0.005243364182
  17    -0.005297559071
  18    -0.000402576138
  19     0.000639492962
  20     0.000706361986
  21    -0.018838116355
  22    -0.062946454418
  23     0.081784570773
  24     0.005342201660
  25    -0.005748128617
  26     0.028323563129
  27     0.000790845382
  28     0.003375546160
  29    -0.008614678551
  30    -0.000297076227
  31    -0.000414175473
  32     0.005502815239
  33    -0.000763954193
  34    -0.004114594932
  35     0.006054988868
  36    -0.000153070234
  37     0.000209611351
  38     0.002929351980
  39    -0.003788774161
  40    -0.044235588120
  41     0.001546396264
  42    -0.011717926857
  43     0.000671699183
  44    -0.007841583318
  45    -0.036824705699
  46     0.007898882038
  47     0.014920479284
  48     0.003176920886
  49    -0.005208131590
  50    -0.000198572445
  51     0.000536864638
  52    -0.000292813978
  53    -0.000244050660
  54    -0.000139763802
  55     0.000593937128
  56    -0.000275383166
  57    -0.016126378838
  58     0.014563466032
  59     0.001562912806
  60     0.002545833945
  61     0.001831243349
  62     0.003011102801
  63    -0.001263522455
  64    -0.000176648905
  65     0.000185994792
  66     0.001234986124
  67    -0.000273511102
  68    -0.000257130779
  69     0.000460207136
  70     0.000510510478
  71     0.000007592579
  72    -0.000915876150
  73     0.028839923088
  74     0.181774150653
  75     0.101738857678
  76     0.003447620219
  77    -0.022377588857
  78     0.004357385352
  79     0.000897449376
  80     0.002186555642
  81     0.002236529819
  82    -0.042464539116
  83    -0.002313355217
  84     0.007612141348
  85     0.005335142356
  86    -0.008486545185
  87     0.027325787698
  88     0.017308797469
  89     0.016759920503
  90    -0.004191296171
  91    -0.001789233924
  92     0.006155581918
  93     0.000280316882
  94    -0.000218516183
  95    -0.000061800699
  96     0.000448478026
  97    -0.000446835713
  98    -0.000386367163
  99    -0.009580314925
  100    0.011092843460
  101   -0.001512528535
  102   -0.010194227808
  103   -0.001264128138
  104    0.002892487088
  105    0.000530204241
  106   -0.000957676889
  107    0.000532632591
  108   -0.001054779751
  109    0.000742244560
  110   -0.001146676808
  111    0.000343436116
  112    0.000542613814
  113    0.000432075200
  114    0.000941071379
  115    0.000727463223
  116   -0.002737024540
  117    0.045817505594
  118   -0.230870916578
  119   -0.048847773649
  120    0.004080781878
  121    0.579402473349
  122    0.004513916005
  123   -0.007563218981
  124    0.481362653203
  125   -0.122774020811
  126    0.006039301017
  127    0.204688683816
  128   -0.023470013043
  129    0.000100812669
  130    0.000704463443
  131   -0.000805276112
  132   -0.000155573801
  133    0.000029106627
  134    0.000365982313
  135   -0.004283937378
  136    0.065834911846
  137   -0.061550974468
  138   -0.022346215753
  139    0.010720213968
  140   -0.081989885418
  141   -0.001484562122
  142   -0.003631148043
  143   -0.005408743966
  144    0.004229149897
  145    0.009126647589
  146    0.006885144708
  147   -0.002237400803
  148   -0.004254951273
  149    0.000371446801
  150    0.000140960041
  151   -0.002970334775
  152   -0.014658720739
  153    0.008023366484
  154   -0.000985853568
  155    0.000469866488
  156    0.001969012464
  157   -0.004015356194
  158   -0.006434557071
  159   -0.001092094902
  160   -0.001359390603
  161   -0.000114460816
  162    0.000555289572
  163   -0.001305375474
  164    0.005875614445
  165    0.001580452266
  166   -0.000403803724
  167    0.000013954043
  168    0.001069704588
  169   -0.003350532836
  170   -0.013309483778
  171    0.012378274834
  172    0.001484631127
  173    0.000790769538
  174    0.001527526531
  175   -0.001977738120
  176    0.004426859682
  177   -0.000523188056
  178    0.000332422548
  179    0.000242146609
  180    0.001306075279
  181   -0.004995723409
  182   -0.006068887075
  183   -0.001891297055
  184    0.001478605760
  185    0.000279334423
  186    0.000509310083
  187   -0.001465113966
  188   -0.004213440828
  189   -0.007535552437
  190    0.001493403680
  191    0.004571179490
  192    0.004119302107
  193   -0.008657211933
  194   -0.036589433375
  195   -0.039490687062
  196   -0.005977520187
  197    0.002872831354
  198    0.008472129531
 Sym=     1a
 Ene= -3.60498996654081E-01
Spin= Alpha
 Occup= 2
  1      0.000039758832
  2      0.000507968602
  3     -0.003041661947
  4      0.009222711918
  5      0.003427505344
  6     -0.086970911967
  7     -0.002939853531
  8      0.003265312917
  9     -0.053278542265
  10    -0.003282252527
  11    -0.004432275460
  12    -0.000885746496
  13     0.006273673654
  14    -0.003982705586
  15     0.000777142699
  16    -0.000037620130
  17    -0.000739522569
  18     0.002447587354
  19     0.009310584019
  20     0.000420473944
  21    -0.006930717479
  22    -0.001314932637
  23     0.008245650116
  24    -0.025093735067
  25    -0.083577714252
  26    -0.002288290714
  27    -0.001842021653
  28    -0.000162005339
  29     0.000150142741
  30    -0.000396857804
  31     0.000494535798
  32     0.000404489418
  33     0.002868189184
  34    -0.000277182828
  35    -0.000605927043
  36     0.001735074043
  37    -0.002703978652
  38     0.003222298686
  39    -0.024961610690
  40    -0.006083610491
  41     0.016002292859
  42    -0.007477676201
  43    -0.010943283626
  44    -0.001695660160
  45    -0.036126443959
  46    -0.012741207623
  47    -0.023364304488
  48    -0.009453820347
  49    -0.018353918237
  50    -0.022768178614
  51    -0.000139258636
  52     0.000357706731
  53    -0.000218448095
  54     0.000647185575
  55     0.000574280205
  56    -0.000147035802
  57    -0.015100562105
  58     0.001258315766
  59     0.013842246339
  60    -0.005085803004
  61    -0.000409081273
  62     0.001386700519
  63    -0.001267381102
  64     0.000250948261
  65    -0.001701315429
  66    -0.000611014053
  67     0.000562130219
  68     0.001367162716
  69     0.002311384231
  70    -0.000898812642
  71     0.000915391454
  72     0.000843696289
  73    -0.003046331413
  74    -0.022139811896
  75    -0.014170621189
  76     0.003136441471
  77     0.003771330723
  78    -0.000078067538
  79     0.002931894439
  80    -0.002903108550
  81     0.024955298089
  82     0.004443315119
  83    -0.018241515376
  84    -0.009827983481
  85     0.007220304310
  86     0.004597001761
  87    -0.031676894902
  88     0.000675569285
  89     0.028255010212
  90    -0.010255627875
  91     0.018392925504
  92     0.027251345335
  93    -0.000123882481
  94    -0.000059267173
  95     0.000183149654
  96     0.000635881721
  97     0.000697051497
  98     0.000377594766
  99     0.016655281064
  100   -0.003004610337
  101   -0.013650670727
  102    0.000861295308
  103   -0.006470464237
  104   -0.005033765136
  105   -0.001509239991
  106   -0.000568270882
  107    0.000832913718
  108   -0.000784707326
  109   -0.000584197557
  110   -0.000669820019
  111    0.002809565255
  112    0.001346612950
  113   -0.000447650997
  114    0.001235220435
  115   -0.000087949270
  116   -0.001044742977
  117    0.004935735224
  118   -0.009843148553
  119   -0.003359040323
  120    0.610182525459
  121    0.004217216367
  122   -0.000830252716
  123    0.491045482933
  124   -0.007990522107
  125   -0.004187911098
  126    0.267744866820
  127    0.005347177516
  128   -0.002247483900
  129    0.000327950603
  130   -0.000238295284
  131   -0.000089655319
  132   -0.000717364915
  133    0.001175057786
  134    0.000045063432
  135    0.026377125993
  136   -0.018322067529
  137   -0.008055058464
  138   -0.047194683024
  139    0.040004061544
  140    0.010558244583
  141    0.000129422053
  142    0.003782439239
  143    0.001925046491
  144    0.009488003811
  145   -0.002712656763
  146   -0.002861759207
  147   -0.009661641715
  148   -0.002362017992
  149    0.000279038319
  150    0.002540366015
  151    0.001561626120
  152   -0.003933641416
  153   -0.019925758412
  154    0.001717689315
  155    0.000023276188
  156    0.000576378083
  157    0.003960143904
  158   -0.000849781699
  159    0.003846086108
  160    0.000290886867
  161   -0.000099778680
  162   -0.000873569522
  163    0.002475167395
  164    0.005151592992
  165    0.010276899526
  166   -0.000922724776
  167   -0.000810981972
  168   -0.001279154151
  169   -0.001441352927
  170    0.006493664208
  171    0.017323539861
  172    0.001621099599
  173    0.000027697091
  174   -0.001374740223
  175   -0.002968844295
  176   -0.008051508820
  177   -0.009219712349
  178   -0.001031655086
  179    0.000196790462
  180    0.001136662411
  181   -0.003798885645
  182    0.000521396103
  183   -0.002670481174
  184    0.000106157759
  185   -0.000070069879
  186    0.000655798724
  187    0.032100504041
  188    0.144026557863
  189    0.140762026817
  190   -0.021257558584
  191    0.000726498941
  192   -0.015450886278
  193   -0.027595462327
  194   -0.124594517720
  195   -0.124415522357
  196   -0.015299005507
  197   -0.005200739888
  198    0.015928363662
 Sym=     1a
 Ene= -3.57890302137817E-01
Spin= Alpha
 Occup= 2
  1     -0.002441613171
  2     -0.020284046357
  3      0.088288411753
  4     -0.228672060208
  5     -0.024179683126
  6      0.067872629947
  7      0.010903892854
  8     -0.052054407404
  9     -0.058612198423
  10    -0.018561608066
  11    -0.080831560974
  12    -0.001800977996
  13     0.014925698503
  14    -0.005480369240
  15     0.007486318976
  16    -0.002879251813
  17    -0.004607067163
  18     0.002587394996
  19    -0.003757201105
  20    -0.001797285415
  21    -0.100884761975
  22     0.048979452691
  23     0.051905309284
  24    -0.041821371757
  25     0.006910710822
  26     0.001038318415
  27    -0.003820317603
  28     0.002498951771
  29     0.002712411982
  30     0.001427634773
  31    -0.005394307292
  32    -0.004546214331
  33     0.003697859141
  34     0.002041611673
  35     0.000907131786
  36    -0.002513281452
  37     0.001507840767
  38    -0.005337000327
  39     0.021551917881
  40     0.045834292053
  41    -0.010227674529
  42    -0.001469311968
  43    -0.003670741880
  44    -0.018136441071
  45     0.023989815057
  46    -0.022097194394
  47    -0.052489512413
  48    -0.013691869291
  49    -0.000128615477
  50    -0.014636086455
  51     0.000818032496
  52    -0.000215451179
  53    -0.000602581317
  54    -0.000141859218
  55    -0.000229662869
  56    -0.000253417238
  57    -0.001629392415
  58    -0.008503038354
  59     0.010132430769
  60    -0.005514715574
  61    -0.017180765600
  62     0.010548557665
  63    -0.000873039710
  64     0.001303591657
  65    -0.000194123778
  66    -0.000129231162
  67    -0.001487935853
  68    -0.000299800413
  69     0.001300536846
  70    -0.000261015882
  71     0.000560244791
  72     0.000937297384
  73     0.000544335456
  74     0.006468986621
  75    -0.003795730112
  76    -0.000171912753
  77    -0.000239188138
  78    -0.000815053787
  79    -0.000354433179
  80     0.005814824367
  81    -0.056560885601
  82     0.236265026696
  83     0.054020449475
  84    -0.005593634910
  85     0.011677904649
  86     0.603730638542
  87    -0.106750272177
  88    -0.053438055153
  89     0.446348845537
  90    -0.038780140476
  91     0.011995318610
  92     0.242251910968
  93     0.000650434199
  94    -0.000632962514
  95    -0.000017471685
  96     0.000833154797
  97    -0.000263967381
  98    -0.000651146243
  99     0.066878570837
  100   -0.075592127217
  101    0.008713556380
  102    0.060193023817
  103    0.035431284435
  104   -0.013014251427
  105   -0.000115053575
  106    0.003615036878
  107    0.010330660377
  108   -0.001218670002
  109    0.002093879709
  110   -0.008984699171
  111    0.001373030571
  112   -0.006943960628
  113   -0.004875336142
  114   -0.004620753121
  115   -0.003242552544
  116   -0.000165576731
  117   -0.020603192385
  118    0.037418304107
  119    0.018896039926
  120    0.001941134990
  121   -0.007310737850
  122    0.004068205625
  123    0.030720344997
  124    0.015172881762
  125    0.016631402599
  126    0.034738965454
  127    0.002334147254
  128    0.005978511896
  129    0.000255451645
  130    0.000380226738
  131   -0.000635678383
  132   -0.000519613402
  133   -0.000214658478
  134   -0.000142399845
  135    0.000410496909
  136   -0.003624558224
  137    0.003214061315
  138    0.012204752848
  139    0.008987409846
  140    0.006414963815
  141   -0.001842160769
  142   -0.001712547619
  143   -0.001066657125
  144    0.001056343097
  145    0.000619640311
  146    0.002242606395
  147    0.001415174925
  148    0.001677983424
  149   -0.000811535691
  150    0.001786068679
  151   -0.027857361578
  152   -0.125605574664
  153   -0.117102314557
  154    0.002569981603
  155   -0.016065394574
  156   -0.013427465190
  157   -0.016063020163
  158   -0.090786507982
  159   -0.045261111546
  160   -0.002512771926
  161    0.010484988746
  162   -0.001241433501
  163    0.022468887036
  164    0.100886392374
  165    0.106366874448
  166    0.018692221276
  167    0.005406021649
  168   -0.008088666813
  169    0.004642937780
  170    0.005139364293
  171    0.006693483583
  172    0.001557390425
  173    0.000845788833
  174   -0.000243918677
  175    0.003841616347
  176    0.004127622691
  177   -0.020287258588
  178   -0.001333032390
  179    0.000684190957
  180    0.002115235381
  181    0.007055523806
  182    0.005347614380
  183    0.001738733049
  184    0.000008431796
  185    0.000980909568
  186    0.000864166411
  187    0.001319819612
  188    0.012855818036
  189    0.011126915750
  190    0.001005094480
  191    0.001084564499
  192    0.000513622987
  193    0.000050566171
  194   -0.006184243402
  195   -0.009788989195
  196   -0.000211796125
  197    0.000120921826
  198   -0.001361459604
 Sym=     1a
 Ene= -3.55778354354447E-01
Spin= Alpha
 Occup= 2
  1     -0.003131319014
  2     -0.026195786331
  3      0.114577288655
  4     -0.297659247090
  5     -0.032866275966
  6     -0.081549050574
  7     -0.003891584687
  8     -0.030933863143
  9      0.075421466356
  10    -0.004953081063
  11    -0.101201452571
  12    -0.002049177586
  13     0.013543521994
  14    -0.005433541391
  15     0.008705075555
  16    -0.003872906504
  17    -0.004832169051
  18     0.000383403521
  19     0.000997945259
  20    -0.000459394655
  21    -0.116962006278
  22     0.070704729647
  23     0.046257276631
  24    -0.002390069241
  25     0.037994264589
  26    -0.006736518382
  27     0.004209825439
  28     0.001103282545
  29     0.004584666520
  30    -0.004553750758
  31    -0.002510494926
  32    -0.009117307094
  33    -0.001094322755
  34     0.001030286064
  35     0.002966331498
  36     0.001392675321
  37    -0.000397112373
  38     0.008086750565
  39    -0.075307750557
  40     0.307658396001
  41     0.071128767394
  42     0.001852487806
  43     0.013112382750
  44     0.602610718395
  45     0.142710150597
  46    -0.030469047310
  47     0.410775011573
  48     0.039599364244
  49     0.022183939526
  50     0.230278214186
  51     0.001051440447
  52    -0.000985457884
  53    -0.000065982563
  54    -0.000407655660
  55     0.000074716658
  56    -0.000408870216
  57     0.087003392852
  58    -0.101295451790
  59     0.014292058938
  60    -0.017863267672
  61    -0.065042816434
  62    -0.013802345499
  63    -0.002764311621
  64     0.004303829147
  65     0.010515951666
  66    -0.002131939995
  67     0.001361948029
  68    -0.010519935114
  69     0.005840653212
  70    -0.007136140751
  71    -0.003588694550
  72     0.001565587459
  73     0.001756383011
  74     0.008285038799
  75    -0.004108478865
  76     0.000044974934
  77    -0.000099195408
  78    -0.001005442718
  79     0.000987634804
  80    -0.005986009645
  81     0.019880956789
  82     0.057638883450
  83    -0.006931856127
  84    -0.000568129980
  85    -0.004406062879
  86    -0.019273761907
  87    -0.033697979669
  88    -0.029263039020
  89    -0.052156292304
  90     0.007175274653
  91     0.003686901851
  92    -0.012157143480
  93     0.000641843819
  94    -0.000040183040
  95    -0.000601660779
  96     0.000360293751
  97     0.000104356519
  98    -0.000295435788
  99     0.002761352195
  100   -0.007826691569
  101    0.005065339374
  102    0.009919867378
  103    0.015661344669
  104    0.014774199729
  105    0.001012970373
  106    0.001401618110
  107   -0.000090003549
  108   -0.000570923960
  109   -0.001288366523
  110   -0.000216503601
  111   -0.000788118408
  112   -0.000592101501
  113    0.000337256033
  114   -0.001037112359
  115   -0.003354085497
  116   -0.001286802085
  117   -0.018487359598
  118    0.049392858450
  119    0.019291192665
  120    0.002744369221
  121   -0.005950231155
  122    0.005259612096
  123   -0.026239937255
  124    0.013407381361
  125    0.030917521550
  126   -0.034020942370
  127   -0.005288252932
  128    0.011133694545
  129    0.000009270488
  130    0.000600131280
  131   -0.000609401768
  132    0.000381278830
  133    0.000124202527
  134   -0.000191189700
  135    0.002201233801
  136   -0.010437823779
  137    0.008236589978
  138   -0.008290420894
  139   -0.009547289063
  140    0.008452108090
  141    0.002095740878
  142   -0.002295688647
  143   -0.000283641845
  144   -0.000096959127
  145    0.001397518861
  146    0.001867613732
  147   -0.002714772313
  148    0.001682470660
  149   -0.001487068264
  150   -0.000598968632
  151    0.005236327940
  152    0.005545075696
  153    0.004903335804
  154   -0.001625356235
  155    0.000694109444
  156   -0.000120090708
  157    0.007762801555
  158    0.007064034312
  159    0.000943036429
  160    0.000037189934
  161    0.001088654138
  162    0.000868446744
  163    0.004421995110
  164    0.005858721945
  165   -0.019318405472
  166    0.001502875355
  167    0.001242242013
  168    0.002026130134
  169   -0.027994772063
  170   -0.126061956798
  171   -0.114517626160
  172   -0.001397735109
  173   -0.016644894909
  174   -0.012451234796
  175    0.017942077854
  176    0.080566973085
  177    0.089350875754
  178   -0.018075792782
  179    0.000085934696
  180   -0.002986813984
  181   -0.018285178238
  182   -0.100034332182
  183   -0.047687891633
  184   -0.001567730607
  185    0.011386242773
  186   -0.001312279597
  187    0.001044503381
  188   -0.004502100747
  189   -0.009917197764
  190   -0.000021084944
  191    0.000443539238
  192   -0.001346721838
  193    0.002085483020
  194    0.013909373223
  195    0.009328787335
  196   -0.001294984761
  197    0.000710405982
  198    0.000211985573
 Sym=     1a
 Ene= -3.48823184596369E-01
Spin= Alpha
 Occup= 2
  1      0.004745554778
  2      0.040561878128
  3     -0.181938616457
  4      0.480058245808
  5      0.066657935561
  6      0.041834606220
  7     -0.013394730400
  8     -0.079588367925
  9     -0.185191276749
  10     0.003525192788
  11     0.086350183692
  12    -0.007168277599
  13     0.013575523325
  14    -0.002209830741
  15     0.000027607851
  16     0.003592512954
  17    -0.003620120805
  18     0.000239301681
  19     0.006680049024
  20    -0.002824922086
  21     0.061717465944
  22    -0.093655334316
  23     0.031937868372
  24    -0.007570733385
  25    -0.134297114315
  26     0.041541452039
  27    -0.000463597228
  28    -0.000308831210
  29    -0.006755928852
  30     0.005822408779
  31     0.001963333762
  32     0.014669185905
  33    -0.005200427830
  34    -0.001548993214
  35    -0.005605156207
  36    -0.000142001200
  37     0.000120892451
  38    -0.017075589323
  39     0.134508565667
  40    -0.496933554256
  41    -0.120362907326
  42     0.609063794266
  43     0.000258487278
  44     0.001087691111
  45     0.256719265521
  46     0.020789633107
  47     0.145307978056
  48     0.207745330385
  49    -0.005523559127
  50     0.043686771641
  51    -0.000325944844
  52     0.000420654483
  53    -0.000094709639
  54    -0.000386489457
  55     0.001417621784
  56    -0.000446651745
  57    -0.084452686910
  58     0.051901522317
  59     0.032551164593
  60     0.010390259442
  61     0.167616841229
  62    -0.008577693049
  63    -0.009732372172
  64    -0.002005459251
  65    -0.003597686665
  66     0.018018188698
  67     0.001663958619
  68     0.006841961033
  69    -0.004960841243
  70     0.001026647308
  71    -0.002015157866
  72    -0.000644835837
  73    -0.008570911431
  74    -0.011457198224
  75     0.004330675665
  76     0.000246602651
  77    -0.000769080790
  78     0.001192354151
  79     0.003774779339
  80     0.004470262524
  81     0.012237133406
  82    -0.080210692296
  83    -0.024219141225
  84     0.002594472169
  85     0.005349985048
  86     0.006603478283
  87     0.059773855044
  88     0.005058968147
  89     0.021858638631
  90     0.029996071764
  91    -0.001712373299
  92    -0.031014613911
  93     0.000875403884
  94    -0.000538592662
  95    -0.000336811222
  96     0.000107603141
  97    -0.000371311546
  98     0.000210983802
  99    -0.025171371481
  100    0.017759568301
  101    0.007411803180
  102   -0.007076205379
  103    0.001598093245
  104   -0.007035458381
  105    0.003617875925
  106   -0.002197210274
  107    0.002020500918
  108   -0.002368341075
  109    0.001217599066
  110   -0.001823733724
  111   -0.002485548826
  112    0.001730267853
  113   -0.000887052716
  114    0.000294676707
  115    0.000864735677
  116    0.007652446469
  117   -0.013632609966
  118   -0.085454040540
  119   -0.006429333620
  120   -0.015276356235
  121   -0.011274920556
  122   -0.007035527250
  123   -0.032505898202
  124   -0.041894596413
  125   -0.067716638673
  126    0.008855963447
  127   -0.002834643474
  128   -0.005942699308
  129    0.000611777165
  130   -0.000152566022
  131   -0.000459211143
  132    0.000158592271
  133   -0.000256490407
  134    0.000189742986
  135    0.002695160034
  136    0.015820764708
  137   -0.018515924742
  138   -0.006725536691
  139   -0.001703428575
  140   -0.019855475067
  141   -0.000728084364
  142    0.001724270213
  143   -0.001086802173
  144   -0.000150303381
  145   -0.001031953474
  146    0.000033739120
  147    0.001127131060
  148   -0.001281397770
  149    0.001424359002
  150   -0.001146743916
  151   -0.004581164355
  152   -0.003828715632
  153    0.010290029213
  154   -0.000861097295
  155   -0.001805572728
  156    0.001015617388
  157   -0.004602935208
  158   -0.012100693646
  159    0.007776646500
  160   -0.001058396968
  161   -0.000979245096
  162    0.000467435916
  163   -0.003608676999
  164   -0.010767789329
  165   -0.009391423721
  166   -0.000805168356
  167   -0.001657425205
  168   -0.000469978974
  169    0.003499849567
  170    0.012871985779
  171   -0.007864959441
  172    0.006744949199
  173    0.001930892776
  174   -0.002767515286
  175    0.034227646012
  176    0.151244414984
  177    0.128921833116
  178   -0.018126979413
  179    0.002465144642
  180   -0.016815696139
  181    0.011264828757
  182    0.032153274709
  183   -0.002854505030
  184    0.009249120891
  185   -0.000775885687
  186   -0.003381592052
  187   -0.007384129358
  188   -0.010856920063
  189    0.000345120388
  190    0.000090650575
  191   -0.002028879938
  192    0.000082916545
  193   -0.005115782630
  194   -0.005377756365
  195    0.009630501170
  196    0.000667467089
  197    0.000627091851
  198    0.003365870384
 Sym=     1a
 Ene= -3.48528634884295E-01
Spin= Alpha
 Occup= 2
  1      0.005053955721
  2      0.043469975449
  3     -0.196372350277
  4      0.520512916485
  5      0.076177993273
  6      0.003895166371
  7      0.057104597457
  8      0.065733160254
  9     -0.001127999608
  10    -0.080299257156
  11    -0.208843104732
  12    -0.003867731691
  13     0.021496097557
  14    -0.018215823145
  15     0.001921973097
  16     0.001353548662
  17    -0.003275521759
  18    -0.000585380537
  19    -0.000265256027
  20    -0.006769952873
  21    -0.058284508313
  22    -0.052986900321
  23     0.111271408634
  24     0.011109317610
  25     0.002809125797
  26     0.138685154733
  27     0.000475958551
  28     0.005351736793
  29    -0.006428876322
  30     0.000325482479
  31     0.005824325368
  32     0.012155641139
  33    -0.000964047884
  34    -0.013004433727
  35    -0.003530398454
  36     0.000588616563
  37     0.002838701936
  38     0.006405900010
  39     0.001156672710
  40    -0.088249652838
  41    -0.019369816238
  42    -0.012167038968
  43    -0.005858833411
  44    -0.001670314017
  45    -0.066847119988
  46    -0.010480802577
  47     0.035350915232
  48     0.004562894635
  49     0.017075734863
  50     0.028650496254
  51    -0.000342044233
  52    -0.000365620665
  53     0.000707664898
  54     0.000183426987
  55    -0.000219591391
  56     0.000578299646
  57    -0.009715961956
  58     0.017932384983
  59    -0.008216423027
  60    -0.000295715428
  61     0.017855293964
  62    -0.015405164098
  63     0.000319331379
  64    -0.000131610012
  65     0.000759290062
  66     0.001381994931
  67    -0.001337863483
  68    -0.000036626435
  69    -0.001810422934
  70     0.001514436843
  71    -0.000982068081
  72    -0.003023647805
  73     0.006720707444
  74    -0.003820629126
  75    -0.027040437083
  76    -0.000622396254
  77     0.008869636733
  78     0.009974730374
  79     0.002433571515
  80     0.006863511822
  81    -0.002508845857
  82    -0.088947804280
  83    -0.016885774062
  84     0.014221643074
  85    -0.003880112795
  86    -0.003971972861
  87     0.076557101991
  88     0.006281250821
  89     0.021276861889
  90    -0.003084751550
  91     0.013553914901
  92     0.025794835690
  93    -0.000224189735
  94    -0.000407188310
  95     0.000631378045
  96    -0.000160551944
  97     0.000141848685
  98     0.000611911407
  99    -0.013679972270
  100    0.016208981113
  101   -0.002529008843
  102   -0.010178375004
  103   -0.012162864921
  104   -0.018084974970
  105    0.000061455913
  106   -0.000907373692
  107    0.000084544250
  108   -0.001420493320
  109    0.000247148087
  110   -0.000791635365
  111    0.001338041560
  112    0.000970221467
  113    0.000678207351
  114    0.003100472711
  115   -0.000023012709
  116   -0.019702141028
  117    0.149710313039
  118   -0.539234565910
  119   -0.132261652442
  120   -0.001066168685
  121    0.006426181582
  122    0.607499777818
  123   -0.003408441660
  124   -0.129216393463
  125    0.217178949991
  126   -0.001009225070
  127   -0.033633874282
  128    0.198676105858
  129    0.000581369693
  130    0.000080790443
  131   -0.000662160136
  132    0.000014882777
  133    0.000002101751
  134   -0.001543748639
  135    0.138970383554
  136    0.007832461399
  137   -0.146802844953
  138    0.014199718062
  139   -0.012323263436
  140   -0.116310647556
  141   -0.002061234267
  142    0.008344572696
  143   -0.004855754025
  144    0.000164287533
  145    0.007145597917
  146   -0.000051988525
  147    0.002601148431
  148   -0.018341016991
  149    0.006566666174
  150   -0.003298095725
  151   -0.004556915307
  152   -0.005936110030
  153   -0.000959567256
  154   -0.002390453953
  155   -0.001911318995
  156   -0.000720117914
  157   -0.007064566352
  158   -0.012626950695
  159    0.007241741110
  160   -0.000253020751
  161   -0.001549751064
  162   -0.000351063184
  163   -0.006936087282
  164   -0.010653861892
  165    0.005690732782
  166    0.000675983306
  167   -0.002239599254
  168    0.000126174783
  169   -0.004380329600
  170   -0.006742854818
  171   -0.003441072199
  172    0.002447512290
  173   -0.001319115525
  174   -0.000879481569
  175   -0.006539358290
  176   -0.009481625653
  177    0.006928625723
  178    0.000094374471
  179   -0.002380538725
  180    0.000038697270
  181   -0.006532135395
  182   -0.012684414098
  183    0.007754568863
  184    0.000581856530
  185   -0.001445609496
  186   -0.000493952666
  187    0.021601774301
  188    0.093301571305
  189    0.068206361846
  190   -0.014276743361
  191    0.004439933659
  192   -0.002275816320
  193    0.025761551578
  194    0.112201780440
  195    0.087094700920
  196    0.014737477400
  197    0.008394847921
  198   -0.006575798543
 Sym=     1a
 Ene= -3.47170411511428E-01
Spin= Alpha
 Occup= 2
  1     -0.004970382276
  2     -0.042166503791
  3      0.187351281232
  4     -0.491491499596
  5     -0.062957577989
  6      0.050886779646
  7      0.039918731667
  8      0.066515048723
  9     -0.189720282454
  10    -0.038397034675
  11    -0.065873337610
  12    -0.003286295421
  13    -0.001563970380
  14    -0.001590519315
  15     0.001236111364
  16    -0.002829819541
  17     0.001593708177
  18     0.003133114799
  19     0.005390841884
  20     0.004784660341
  21    -0.080364625714
  22     0.077524923766
  23     0.002839701948
  24    -0.072665187011
  25    -0.106323762286
  26    -0.072348478657
  27    -0.003023355758
  28     0.004068826070
  29     0.007438353675
  30     0.003234703004
  31    -0.007232183227
  32    -0.013317246087
  33     0.000821554393
  34     0.001773280218
  35     0.003337647412
  36    -0.005908224283
  37    -0.003581449465
  38    -0.004661496563
  39    -0.011129127197
  40     0.083393764481
  41     0.021807291327
  42     0.002629538529
  43    -0.007152619729
  44    -0.008310187281
  45     0.059035491528
  46     0.006124382989
  47    -0.030745148236
  48     0.029181839026
  49     0.010301345543
  50     0.024687674273
  51    -0.000670206519
  52     0.000333723866
  53     0.000336482653
  54    -0.000243956824
  55    -0.000015017334
  56    -0.000399162360
  57     0.022867673162
  58    -0.016329776778
  59    -0.006537896384
  60     0.006076151323
  61    -0.008369364871
  62     0.008888818080
  63     0.003710149352
  64     0.000905713840
  65    -0.001190717672
  66    -0.002645048935
  67     0.001396984273
  68     0.000327563015
  69    -0.002332638760
  70    -0.002612126902
  71     0.001269952379
  72     0.000126297703
  73     0.009049069200
  74     0.011920129539
  75    -0.003254229848
  76     0.000265538708
  77     0.000657971082
  78    -0.001384205569
  79    -0.000321006363
  80     0.015950449240
  81    -0.132741237075
  82     0.508419029121
  83     0.121145291160
  84     0.605912978671
  85     0.006861767712
  86    -0.005084528463
  87     0.250011816845
  88    -0.091159290493
  89    -0.108467627722
  90     0.195987431605
  91     0.000354959030
  92    -0.041489244255
  93     0.000652393333
  94    -0.000380843185
  95    -0.000271550148
  96     0.000212659162
  97     0.000974909113
  98     0.000843542123
  99     0.116855784520
  100   -0.056243179985
  101   -0.060612604535
  102    0.059141568132
  103    0.129962385723
  104    0.054644532140
  105   -0.006650588346
  106    0.010408231578
  107    0.006819926412
  108    0.010765833143
  109   -0.013157760868
  110   -0.007663283994
  111   -0.001843132565
  112   -0.000806347132
  113   -0.001486607442
  114   -0.000553700117
  115   -0.000850032213
  116   -0.007611997159
  117    0.012963950991
  118    0.088737197927
  119    0.005362381346
  120   -0.017628243036
  121    0.005371987125
  122    0.010642073543
  123   -0.028652716682
  124    0.032683224368
  125    0.075497244634
  126    0.007444250919
  127    0.005488931149
  128    0.002563843811
  129   -0.000594028638
  130    0.000193486236
  131    0.000400542402
  132   -0.000150815395
  133    0.000201433309
  134   -0.000109275278
  135   -0.003150169268
  136   -0.017088423781
  137    0.020238593049
  138    0.001997032842
  139   -0.006057869883
  140    0.019332503551
  141   -0.000894794144
  142   -0.001642907882
  143    0.000802015659
  144    0.000642658471
  145    0.000429275087
  146    0.000938466647
  147    0.000557833848
  148    0.001774917136
  149   -0.002014483567
  150   -0.000406114045
  151   -0.000767546294
  152   -0.001865249705
  153    0.017382868738
  154    0.007872557123
  155    0.000924259983
  156    0.003979619979
  157   -0.018417323518
  158   -0.081895371449
  159   -0.027359356820
  160    0.006071549145
  161    0.008352101138
  162   -0.001290535439
  163   -0.029686842131
  164   -0.131764063362
  165   -0.110690280071
  166   -0.010803548774
  167   -0.006114271597
  168    0.017344912955
  169    0.004454949656
  170    0.002025974321
  171   -0.009697721584
  172   -0.001069104006
  173    0.001534563634
  174   -0.000618040399
  175    0.004063310833
  176    0.013755791537
  177    0.005862536964
  178   -0.000669757743
  179    0.001529254375
  180    0.001014662221
  181    0.005250821388
  182    0.012669842271
  183   -0.006387624640
  184   -0.001250714403
  185    0.000774084293
  186    0.000090267496
  187    0.005544294472
  188    0.008703870641
  189   -0.012183898437
  190    0.000943253068
  191   -0.000375007960
  192   -0.003197549592
  193    0.007074574658
  194    0.008196096232
  195   -0.000357289565
  196    0.000005451899
  197    0.001943539847
  198   -0.000026330375
 Sym=     1a
 Ene= -2.87275367385234E-01
Spin= Alpha
 Occup= 0
  1      0.000491858775
  2      0.004541983755
  3     -0.018637621389
  4      0.031174148237
  5      0.007951725487
  6      0.025822288330
  7      0.581392477512
  8      0.070121537785
  9     -0.066427713318
  10     0.371612036405
  11    -0.180541698802
  12    -0.059704149614
  13     0.101171434251
  14    -0.162079635940
  15     0.003369895834
  16    -0.001125958402
  17    -0.002243937432
  18     0.000761988082
  19     0.000890956968
  20    -0.001501138088
  21    -0.071280178988
  22     0.012269317733
  23     0.059010861255
  24    -0.017062099597
  25    -0.019250755732
  26     0.035164620414
  27     0.000003980051
  28     0.012395158723
  29     0.002005314118
  30    -0.000914644885
  31    -0.005683034971
  32     0.001983041655
  33     0.000909305085
  34    -0.010946815527
  35    -0.004673452865
  36    -0.001007908196
  37     0.000753953301
  38     0.005355860834
  39    -0.022180619657
  40     0.042770891541
  41     0.021596204742
  42    -0.018075087045
  43    -0.089199252036
  44    -0.005551401272
  45     0.019874572648
  46    -0.058128365807
  47     0.016370861215
  48     0.026772884831
  49     0.024269011528
  50     0.025434901996
  51    -0.000525684172
  52     0.000069018780
  53     0.000456665392
  54    -0.001228900756
  55    -0.000220207867
  56     0.000518316873
  57     0.015009739167
  58    -0.008437727153
  59    -0.006572012014
  60     0.028586219003
  61    -0.002514419185
  62    -0.006969779808
  63     0.001616823139
  64    -0.001763281021
  65     0.000457885915
  66    -0.001329900339
  67     0.002073888223
  68    -0.001344862201
  69    -0.000839295529
  70     0.000291801514
  71     0.000730543782
  72    -0.003509214142
  73     0.015980972200
  74    -0.011527595704
  75    -0.015949728634
  76    -0.000222600943
  77     0.004798905393
  78     0.004418649318
  79     0.002929942137
  80     0.019069368822
  81    -0.076676911724
  82     0.142647917280
  83     0.071229699331
  84     0.054556840297
  85    -0.071971334099
  86     0.014627029137
  87    -0.045797658574
  88    -0.074784252792
  89    -0.002183654628
  90    -0.038741704342
  91     0.011648081647
  92     0.009212932680
  93    -0.000382505023
  94     0.000177852878
  95     0.000204652145
  96     0.001052768304
  97     0.000283744495
  98     0.000576139329
  99     0.040172810389
  100   -0.027652424208
  101   -0.012520386181
  102   -0.004984793132
  103    0.024617508451
  104    0.000477242856
  105   -0.003362536456
  106   -0.000101471562
  107    0.001280224654
  108    0.003636093686
  109    0.000104580667
  110   -0.004215939363
  111    0.000875222370
  112    0.000031557719
  113    0.002498337751
  114    0.000859603510
  115   -0.004127938767
  116   -0.025272029028
  117    0.099361469282
  118   -0.179755308624
  119   -0.088866727120
  120   -0.003805627544
  121   -0.046214623962
  122    0.079793656028
  123    0.007211619885
  124   -0.097036300296
  125   -0.065284403187
  126    0.012385970716
  127   -0.012079684376
  128   -0.033706914349
  129   -0.000197183285
  130    0.000004619726
  131    0.000192563559
  132   -0.000337898661
  133   -0.000050983326
  134   -0.001558296325
  135    0.048885787244
  136    0.015772226535
  137   -0.064658013779
  138    0.007582430006
  139   -0.001973916678
  140   -0.018981063524
  141   -0.000009161854
  142    0.002655612861
  143   -0.004890131369
  144   -0.000249320592
  145   -0.000370107994
  146    0.003940481768
  147    0.000261612509
  148   -0.003192770533
  149    0.002620317928
  150    0.000264040402
  151   -0.005193574825
  152   -0.010641409775
  153    0.012338511554
  154    0.002365053348
  155    0.000847989141
  156    0.002045549815
  157   -0.003389465769
  158   -0.005269630597
  159    0.005213069444
  160   -0.000858280250
  161   -0.000799270694
  162   -0.000135884590
  163   -0.002925697988
  164   -0.004639168632
  165    0.014458241693
  166    0.002216352715
  167   -0.000332075426
  168    0.000851180691
  169   -0.002930049275
  170   -0.009099036061
  171    0.004069723859
  172   -0.001965499443
  173    0.001012247741
  174    0.001848504615
  175    0.000404913014
  176   -0.000468623498
  177    0.007154692252
  178   -0.001146698021
  179   -0.000329553466
  180    0.000615961769
  181    0.002563130462
  182   -0.007003962969
  183   -0.001305055140
  184    0.002176310185
  185    0.000267385703
  186   -0.001414591134
  187    0.005578316445
  188    0.002643659498
  189   -0.011474709680
  190   -0.000469220188
  191    0.001189697005
  192   -0.000895339630
  193    0.004516999630
  194   -0.000034517885
  195   -0.012424964926
  196    0.000182463850
  197    0.001344537852
  198   -0.001442567063
 Sym=     1a
 Ene= -2.78238233116192E-01
Spin= Alpha
 Occup= 0
  1     -0.000203714604
  2     -0.001909185742
  3      0.007826487105
  4     -0.012823652156
  5     -0.003356277078
  6     -0.010691740640
  7      0.070128223629
  8      0.720341799335
  9      0.027594753466
  10    -0.180530849836
  11     0.013881080067
  12     0.024660160494
  13    -0.162110878681
  14    -0.219995933635
  15     0.007251720504
  16    -0.002025183446
  17    -0.005226537058
  18     0.000889827018
  19    -0.001149996662
  20    -0.004587978686
  21    -0.167744771013
  22     0.037761568540
  23     0.129983202473
  24    -0.019227601455
  25     0.028661619043
  26     0.088336466807
  27    -0.000676038700
  28     0.013682529689
  29    -0.003272618618
  30    -0.002652488492
  31     0.001819073249
  32    -0.007520759102
  33     0.003559489585
  34    -0.020176113143
  35     0.011911437718
  36    -0.003814637104
  37     0.005434101958
  38     0.033794569330
  39    -0.133669665460
  40     0.243723792161
  41     0.120851590186
  42    -0.110146710963
  43    -0.007079829889
  44    -0.045762032342
  45     0.101579195732
  46     0.015290496243
  47    -0.076950750736
  48     0.081184857370
  49     0.034432726332
  50     0.035442707462
  51    -0.000840699035
  52    -0.001197067101
  53     0.002037766136
  54    -0.000186795735
  55    -0.001326704456
  56     0.000628040699
  57     0.071651933376
  58    -0.023057420761
  59    -0.048594512615
  60    -0.004192959438
  61    -0.055523106879
  62    -0.007628051247
  63     0.005989883934
  64     0.000515726595
  65     0.002753439638
  66    -0.003991453208
  67    -0.000802363340
  68    -0.006806481253
  69    -0.004044819385
  70     0.000110443506
  71     0.003112354332
  72    -0.001466762525
  73     0.023918769180
  74    -0.005138737555
  75    -0.026740777259
  76    -0.000467787431
  77     0.005719107949
  78     0.003286104608
  79     0.004166701521
  80     0.025964368635
  81    -0.102759270559
  82     0.187409604212
  83     0.092950106207
  84     0.091620033772
  85     0.013195998602
  86    -0.074698796543
  87    -0.086955355566
  88    -0.003438636642
  89    -0.050076787786
  90    -0.075002267720
  91     0.017597396998
  92     0.058660113769
  93    -0.000938897864
  94    -0.000854166643
  95     0.001793064507
  96     0.000380064891
  97     0.001570566256
  98     0.000853896901
  99     0.067029576038
  100   -0.010652244295
  101   -0.056377331743
  102    0.022489008351
  103    0.020211546362
  104   -0.000989143201
  105   -0.006153136509
  106    0.002115654356
  107    0.000471650835
  108    0.002088969897
  109   -0.004024493544
  110   -0.002970959055
  111    0.006166329008
  112    0.001186045370
  113    0.002338173058
  114    0.000406034707
  115   -0.009415285084
  116   -0.059412658742
  117    0.236253283137
  118   -0.433571178982
  119   -0.215436351165
  120    0.004877963422
  121    0.082731148415
  122    0.089133027077
  123   -0.006647806029
  124   -0.062977276932
  125   -0.204089496810
  126   -0.006200611255
  127   -0.051055267121
  128   -0.068338824666
  129   -0.000016848315
  130    0.001328181597
  131   -0.001311333282
  132   -0.000184803902
  133    0.000226051251
  134   -0.001380392914
  135    0.084686662383
  136    0.011423810875
  137   -0.096110473258
  138    0.001841268327
  139   -0.006942949805
  140   -0.088852095552
  141    0.001052214573
  142    0.006071399616
  143   -0.004157356424
  144   -0.000653194143
  145    0.002442368154
  146    0.007938681963
  147   -0.000758499844
  148   -0.010588005510
  149   -0.002361003021
  150    0.000235284572
  151   -0.008719361476
  152   -0.012837629191
  153    0.010495969853
  154    0.001554173918
  155    0.000253310641
  156    0.001450513682
  157   -0.013322316188
  158    0.006614530752
  159    0.013987943989
  160    0.003838947508
  161   -0.000794445583
  162    0.002778736647
  163   -0.001758638761
  164    0.005248801003
  165    0.016928487166
  166   -0.000831123784
  167   -0.002313446726
  168    0.000999236845
  169   -0.010128856338
  170   -0.013382582400
  171    0.015383067368
  172   -0.001460846540
  173   -0.000539265591
  174    0.001947571996
  175   -0.003688578219
  176    0.003207009336
  177    0.021307168548
  178    0.001141920600
  179   -0.002291987487
  180    0.001162223182
  181   -0.016873860824
  182    0.008318835395
  183    0.017790304209
  184   -0.003721691584
  185   -0.002057468560
  186    0.003915034479
  187    0.012003537259
  188    0.012758760992
  189   -0.035302249835
  190    0.000180467444
  191    0.004081459881
  192    0.001917458346
  193    0.012485434647
  194    0.014294499398
  195   -0.034741994274
  196   -0.000901040584
  197    0.003875052293
  198    0.002255474112
 Sym=     1a
 Ene= -2.76614616214229E-01
Spin= Alpha
 Occup= 0
  1     -0.000074474304
  2     -0.000683317838
  3      0.002799733867
  4     -0.004689099613
  5     -0.001184423517
  6      0.745567578658
  7      0.025809122564
  8     -0.010731329498
  9     -0.050872714732
  10    -0.066453337481
  11     0.027512818485
  12    -0.278244939615
  13    -0.059676933911
  14     0.024702665118
  15     0.000864495118
  16     0.000397090695
  17    -0.001261585813
  18     0.001894476498
  19     0.009205120046
  20     0.000891680543
  21    -0.015362414291
  22    -0.012143859547
  23     0.027506273838
  24    -0.062110824303
  25    -0.202054105621
  26    -0.019262856445
  27    -0.013319931272
  28     0.005622476561
  29     0.000033842884
  30     0.021187770877
  31    -0.008482019227
  32     0.002597596353
  33    -0.003317207809
  34     0.000938675352
  35    -0.002643001347
  36    -0.011165234765
  37    -0.008700293453
  38    -0.054739263313
  39     0.217406838474
  40    -0.398279869994
  41    -0.197903528991
  42     0.055577571522
  43    -0.015770204129
  44    -0.111256518888
  45    -0.168254790749
  46     0.021631228382
  47     0.100537446286
  48    -0.034366038386
  49     0.013336928552
  50     0.087995774447
  51    -0.002122311343
  52     0.001325604520
  53     0.000796706823
  54    -0.000770722149
  55     0.000511150477
  56    -0.000533531221
  57    -0.047670879287
  58     0.053780997227
  59    -0.006110117940
  60     0.025343178202
  61     0.113799639236
  62     0.005746908985
  63     0.001243205477
  64     0.000442332044
  65    -0.003459991604
  66     0.004188643002
  67     0.000069429045
  68     0.010286424858
  69    -0.005856578176
  70    -0.000662879756
  71    -0.005644359002
  72    -0.002142914543
  73    -0.000200652920
  74     0.000693347774
  75     0.000023319589
  76     0.000336535998
  77    -0.000180030964
  78    -0.000347231446
  79     0.008934027541
  80     0.055957500102
  81    -0.221885561315
  82     0.405678579212
  83     0.201428493641
  84     0.067299852721
  85     0.052063402289
  86     0.092462963002
  87    -0.178627962139
  88    -0.047667976958
  89    -0.086482740409
  90    -0.045067471216
  91    -0.024116506861
  92    -0.079857028628
  93     0.002313462677
  94    -0.001642528122
  95    -0.000670934555
  96     0.000152235162
  97     0.000001592928
  98     0.000616467408
  99     0.059447315157
  100   -0.032912920528
  101   -0.026534394629
  102    0.061390178621
  103    0.103519123790
  104    0.015747844440
  105   -0.001262527599
  106    0.002288752272
  107    0.004707044445
  108    0.003412968164
  109   -0.003978773933
  110   -0.009383796328
  111   -0.001719109643
  112    0.000908090534
  113    0.003068633517
  114   -0.006419076294
  115   -0.000164933808
  116   -0.001079707191
  117    0.004381099594
  118   -0.008356853621
  119   -0.004127983777
  120   -0.122344788536
  121   -0.003572122081
  122    0.005286093964
  123   -0.002448460716
  124    0.007167338191
  125   -0.006498155574
  126    0.105720032692
  127    0.011042975001
  128   -0.008475262386
  129    0.000078952522
  130   -0.000239378926
  131    0.000160426404
  132   -0.001542562673
  133   -0.002218854718
  134   -0.000068242010
  135   -0.001986402980
  136    0.006010005227
  137   -0.004023602247
  138    0.032666879673
  139    0.040891219044
  140   -0.001333947098
  141   -0.005746600259
  142    0.000295946497
  143   -0.000842556088
  144    0.000654290584
  145   -0.000611066728
  146    0.001114641314
  147    0.007055582707
  148    0.000214012838
  149    0.000015766299
  150    0.002633033200
  151   -0.009440028102
  152   -0.005304980306
  153    0.033544161299
  154    0.001779420100
  155   -0.002730321582
  156    0.001784777392
  157   -0.025261710797
  158    0.009421847876
  159    0.027316900155
  160    0.006436469263
  161   -0.001960279055
  162    0.004091094286
  163   -0.013550966495
  164   -0.015675607345
  165    0.029820060639
  166    0.003388266224
  167   -0.001393107943
  168    0.001675430962
  169    0.009149486495
  170    0.006040001201
  171   -0.033621124725
  172    0.001102587208
  173    0.002825147972
  174   -0.002309232827
  175    0.013328364750
  176    0.017140104165
  177   -0.029632521265
  178    0.003211165448
  179    0.001958008838
  180   -0.002198478991
  181    0.023147352498
  182   -0.006498024112
  183   -0.025517119760
  184    0.004236184224
  185    0.003168067580
  186   -0.004277368081
  187    0.004413038684
  188    0.011377976706
  189    0.002761283510
  190    0.000935150528
  191   -0.000081813797
  192    0.002284498407
  193   -0.003838808782
  194   -0.010173789520
  195   -0.004977357887
  196    0.000437313617
  197    0.000498056299
  198   -0.001826919481
 Sym=     1a
 Ene= -1.59762931876925E-01
Spin= Alpha
 Occup= 0
  1     -0.000244322659
  2      0.004471255009
  3     -0.014795610862
  4      0.056092960017
  5     -0.056610903203
  6     -0.024989666196
  7     -0.004795569984
  8     -0.012725916026
  9     -0.047927241707
  10    -0.024039842503
  11    -0.020405477720
  12    -0.049469403014
  13    -0.044482254193
  14    -0.015294209882
  15     0.000307371005
  16    -0.000386574485
  17     0.000079203480
  18     0.000049265423
  19     0.000150703581
  20     0.000188576933
  21    -0.007174573216
  22     0.004561440892
  23     0.002613132324
  24     0.000971635353
  25    -0.010565662028
  26     0.002160951910
  27    -0.000930577065
  28     0.000027173665
  29    -0.000032965882
  30     0.001860594809
  31     0.000697907190
  32    -0.000683812101
  33    -0.000612094664
  34    -0.000734364487
  35     0.000728040473
  36     0.000000639751
  37     0.000446488492
  38     0.002097591947
  39    -0.000385360363
  40    -0.032221713910
  41     0.009463748189
  42    -0.002609789592
  43     0.000088445973
  44     0.009505637031
  45    -0.026312342959
  46     0.010282826416
  47     0.009117468317
  48    -0.007292136020
  49     0.004828446220
  50     0.011149436864
  51    -0.000331569204
  52     0.000012653671
  53     0.000318915533
  54    -0.000672986257
  55    -0.000498013302
  56     0.000248072653
  57    -0.000454159435
  58    -0.000910734729
  59     0.001364894164
  60     0.004264440499
  61     0.007107739447
  62    -0.001110324446
  63     0.000242983802
  64    -0.000007682627
  65     0.000221780789
  66     0.000694750856
  67     0.000085872083
  68     0.000593461629
  69    -0.001020747835
  70    -0.000075564757
  71    -0.000891011781
  72    -0.000347951979
  73    -0.001239846757
  74     0.003796514172
  75    -0.016068912888
  76    -0.000047173579
  77     0.001401725547
  78     0.000259827201
  79     0.019400586152
  80     0.061807695117
  81    -0.106327184824
  82    -0.296129098788
  83    -0.077522092156
  84    -0.056192360557
  85     0.137172500148
  86    -0.076353113725
  87    -0.116346357254
  88     0.202308100063
  89    -0.131664073452
  90    -0.076094755279
  91     0.129966989329
  92    -0.085306602695
  93    -0.000588355291
  94     0.001100629924
  95    -0.000512274633
  96    -0.000888024778
  97     0.000737704333
  98    -0.001387973169
  99    -0.001890394903
  100    0.012339805673
  101   -0.010449410770
  102   -0.006577376627
  103    0.016152266655
  104   -0.017040700316
  105    0.000206922589
  106    0.001225479446
  107    0.001020760305
  108   -0.000201068107
  109   -0.001097014239
  110    0.000212594930
  111   -0.000076547678
  112   -0.000547138969
  113   -0.001582088589
  114    0.000408280299
  115    0.000457133317
  116    0.002070098400
  117   -0.000065876842
  118   -0.033758123270
  119    0.008457947039
  120    0.006188705020
  121   -0.004863071350
  122   -0.005835722358
  123   -0.004268641036
  124   -0.002504197030
  125   -0.029855133271
  126    0.005599903661
  127   -0.003124322598
  128   -0.012904703655
  129   -0.000344183853
  130   -0.000269860876
  131    0.000614044729
  132   -0.000382643279
  133   -0.000577386127
  134   -0.000202543694
  135    0.006690506274
  136    0.000590905052
  137   -0.007281411326
  138    0.000402526736
  139    0.002697648809
  140   -0.000310046076
  141   -0.000530357858
  142    0.000899844272
  143   -0.000338525937
  144    0.000218214850
  145   -0.000108858161
  146    0.000440911261
  147    0.000493334884
  148   -0.001098409615
  149    0.000013268944
  150    0.000606799120
  151    0.001067720541
  152    0.017407787403
  153   -0.005858114594
  154   -0.001197293143
  155    0.000244774626
  156   -0.002682095352
  157    0.409059181799
  158    0.878732570033
  159    0.313615204371
  160    0.009619614463
  161   -0.023505312452
  162    0.013086485487
  163    0.001083016296
  164    0.017599305262
  165   -0.005719606470
  166   -0.002732511709
  167    0.001125670356
  168   -0.000025741949
  169   -0.001374957423
  170   -0.000766251317
  171   -0.008143467932
  172   -0.000258019236
  173   -0.000265473566
  174   -0.000208465870
  175   -0.001408675816
  176   -0.010602032198
  177    0.001037504479
  178   -0.000842000136
  179    0.000543561817
  180   -0.000406389391
  181   -0.001227474328
  182    0.003783268965
  183   -0.015971435135
  184    0.000531078349
  185    0.001029969660
  186   -0.000776463736
  187   -0.001397376390
  188   -0.010479409209
  189    0.000519707329
  190   -0.000589873055
  191    0.000437361738
  192   -0.000757124524
  193   -0.001331464797
  194   -0.000540358668
  195   -0.008003570668
  196   -0.000380941259
  197   -0.000197518893
  198    0.000032123308
 Sym=     1a
 Ene= -1.59757927931457E-01
Spin= Alpha
 Occup= 0
  1     -0.000243415257
  2      0.004472890750
  3     -0.014794140174
  4      0.056077742969
  5     -0.056622976945
  6      0.000006866335
  7      0.014545541661
  8      0.024454683490
  9      0.001720416352
  10     0.015173903625
  11     0.055391512351
  12     0.004390712747
  13    -0.001376762627
  14     0.068246848996
  15     0.000045982354
  16    -0.000200738197
  17     0.000154755843
  18     0.000063466504
  19    -0.000040587407
  20     0.000421441605
  21     0.008359577795
  22    -0.004564100583
  23    -0.003795477212
  24     0.001157260111
  25     0.000122424744
  26    -0.009947594390
  27     0.000141818182
  28    -0.001055062776
  29    -0.001214736983
  30     0.000201899407
  31    -0.000288841878
  32     0.000427297296
  33    -0.000392168465
  34     0.001704357131
  35     0.001202443385
  36     0.000068611700
  37     0.000456092058
  38     0.002072873629
  39    -0.000106309085
  40    -0.033509135714
  41     0.008654908387
  42    -0.008669248335
  43    -0.004572406698
  44     0.000383783449
  45    -0.024278062436
  46     0.012272668795
  47     0.013015139340
  48    -0.014294104787
  49    -0.000173016460
  50     0.001518023639
  51     0.000798532735
  52     0.000007040834
  53    -0.000805573569
  54    -0.000180790375
  55     0.000045346903
  56    -0.000099508748
  57    -0.006070322646
  58     0.001842929608
  59     0.004227393038
  60     0.003814906084
  61     0.003519673571
  62     0.002674420245
  63    -0.000774313721
  64     0.000155159287
  65    -0.000491022964
  66     0.000534402327
  67    -0.000581439946
  68     0.001103770985
  69     0.000504448543
  70     0.000373271918
  71    -0.000444994549
  72     0.000121076512
  73     0.409073552679
  74     0.878745119751
  75     0.313689341693
  76     0.003701024152
  77    -0.027953188975
  78     0.004594510431
  79     0.000448810003
  80     0.002091783943
  81    -0.000302521427
  82    -0.032629357103
  83     0.009278601032
  84     0.009525968867
  85    -0.002367988190
  86    -0.000901964227
  87     0.021868215329
  88     0.017913257852
  89     0.009593945583
  90     0.013946465413
  91     0.002986831797
  92    -0.000986995445
  93     0.000647995308
  94     0.000118594404
  95    -0.000766589712
  96     0.000348081729
  97    -0.000263063561
  98    -0.000176189680
  99    -0.004844404558
  100   -0.000181993169
  101    0.005026397727
  102   -0.005182829478
  103   -0.002448313278
  104    0.002639278213
  105    0.001211718810
  106   -0.000207250449
  107   -0.000255141397
  108   -0.000726226592
  109    0.000110232049
  110    0.000625083918
  111   -0.000899464785
  112    0.000167823606
  113   -0.000282775813
  114    0.000323118140
  115    0.019402623493
  116    0.061817778145
  117   -0.106346878705
  118   -0.296118964321
  119   -0.077481167950
  120   -0.021623215504
  121    0.163165504463
  122   -0.026734783851
  123   -0.032800691416
  124    0.265772847127
  125   -0.010172360959
  126   -0.021157837521
  127    0.171768699126
  128   -0.005389259273
  129   -0.001210250844
  130    0.001976357867
  131   -0.000766107023
  132   -0.000485867035
  133    0.000099367997
  134   -0.000502623961
  135   -0.022377866465
  136    0.024014110193
  137   -0.001636243728
  138   -0.006693328036
  139    0.001955205181
  140   -0.001536353026
  141    0.000473647977
  142    0.000922081539
  143    0.000723799737
  144   -0.000609420558
  145   -0.001356495203
  146    0.000509552112
  147   -0.000026044887
  148    0.000119393002
  149   -0.001480631360
  150    0.000418106093
  151   -0.001409112237
  152   -0.010586614264
  153    0.000996098717
  154    0.000114188692
  155    0.001009866228
  156    0.000357286750
  157   -0.001218648092
  158    0.003811268816
  159   -0.016088306724
  160   -0.000790409553
  161    0.000820214373
  162   -0.000819876974
  163   -0.001372354602
  164   -0.000777044287
  165   -0.008171225536
  166   -0.000100228672
  167    0.000017353636
  168    0.000414185643
  169   -0.001400088997
  170   -0.010489571048
  171    0.000608186236
  172   -0.000317256597
  173    0.000943442340
  174    0.000357098330
  175   -0.001339142019
  176   -0.000572441011
  177   -0.008040131638
  178    0.000175371785
  179    0.000039108008
  180    0.000390555238
  181   -0.001237239392
  182    0.003796812732
  183   -0.016050270090
  184    0.000442366501
  185    0.000973280791
  186   -0.000936906958
  187    0.001081325543
  188    0.017519795109
  189   -0.005800770083
  190    0.001420285685
  191    0.002276678633
  192    0.001225238113
  193    0.001077995911
  194    0.017622087823
  195   -0.005735369735
  196   -0.001740797688
  197    0.001905978760
  198    0.001444784508
 Sym=     1a
 Ene= -1.59747436008520E-01
Spin= Alpha
 Occup= 0
  1     -0.000242433379
  2      0.004476673832
  3     -0.014805940639
  4      0.056100312988
  5     -0.056620205057
  6      0.023316885489
  7      0.001158836956
  8     -0.016256785822
  9      0.049406683226
  10    -0.011711339914
  11    -0.026674881470
  12     0.056955744884
  13    -0.030735056354
  14    -0.021525253000
  15     0.000234844468
  16    -0.000356526494
  17     0.000121682026
  18     0.000164379915
  19    -0.000224019225
  20     0.000140249601
  21    -0.003432379535
  22     0.003557158430
  23    -0.000124778895
  24    -0.003168363107
  25     0.010880784758
  26     0.005024343449
  27     0.000080359012
  28    -0.000797329045
  29    -0.000294116700
  30    -0.001034664405
  31     0.001514671112
  32    -0.000410262918
  33     0.000926851477
  34    -0.000444941945
  35     0.000804861879
  36    -0.000683543153
  37     0.019400796096
  38     0.061811566754
  39    -0.106332348365
  40    -0.296158029026
  41    -0.077599810125
  42     0.009377447730
  43     0.144900934140
  44    -0.081978819261
  45     0.043180479428
  46     0.221376775634
  47    -0.144640237990
  48     0.028939103435
  49     0.142584874675
  50    -0.093826175276
  51    -0.000934084305
  52     0.001298831989
  53    -0.000364747684
  54     0.000082370037
  55    -0.000300545054
  56    -0.001607382523
  57    -0.006693130989
  58     0.013349005373
  59    -0.006655874384
  60    -0.001393816497
  61    -0.012034654053
  62    -0.021125369217
  63     0.000474989282
  64     0.000983343148
  65     0.000959385322
  66    -0.000953273080
  67    -0.000877577340
  68     0.000291610477
  69     0.000316008086
  70    -0.000441715935
  71    -0.001578760955
  72     0.000239741091
  73    -0.001224276400
  74     0.003788436701
  75    -0.016064091242
  76    -0.000236922689
  77     0.001357850697
  78     0.000269835520
  79     0.000455664084
  80     0.002076870127
  81    -0.000158529344
  82    -0.033267339500
  83     0.008680836446
  84     0.003788102991
  85     0.000917794298
  86     0.008996944824
  87     0.024351957340
  88     0.016631794817
  89     0.005669642632
  90     0.007990732552
  91     0.006724140918
  92     0.009745722466
  93    -0.000467187486
  94     0.000284002093
  95     0.000183185393
  96     0.000556786007
  97     0.000538027883
  98     0.000285406162
  99    -0.000450243099
  100   -0.002661782390
  101    0.003112025489
  102   -0.004131793394
  103   -0.006249213323
  104   -0.002227493025
  105   -0.000181246650
  106   -0.000373991436
  107   -0.000084066807
  108   -0.000593844089
  109    0.000499010725
  110    0.000690026543
  111    0.000837011988
  112    0.000002751439
  113   -0.000577239086
  114    0.000705409551
  115    0.000447973248
  116    0.002090460785
  117   -0.000299400248
  118   -0.032657350160
  119    0.009234965419
  120   -0.005593906245
  121   -0.006389267190
  122   -0.004996904119
  123    0.000533303911
  124   -0.001802050687
  125   -0.029824514363
  126   -0.006908536306
  127   -0.004612728247
  128   -0.011602576004
  129   -0.000325665989
  130   -0.000119828823
  131    0.000445494812
  132    0.000323296599
  133    0.000760210140
  134   -0.000080369259
  135    0.005607050483
  136    0.000660347210
  137   -0.006267397693
  138    0.001026818218
  139   -0.004733146907
  140   -0.001225866786
  141    0.000673874590
  142    0.000686905533
  143   -0.000171858708
  144   -0.000494499196
  145    0.000127137037
  146    0.000431254192
  147   -0.000409598439
  148   -0.001048717517
  149   -0.000200681540
  150   -0.000640449070
  151   -0.001339914449
  152   -0.000523689757
  153   -0.007994428230
  154    0.000260973039
  155   -0.000221682090
  156   -0.000262483037
  157   -0.001245595636
  158    0.003774250712
  159   -0.015948506003
  160   -0.000892726279
  161    0.000872947371
  162   -0.000667603513
  163   -0.001400936560
  164   -0.010484077082
  165    0.000588917308
  166    0.000593353456
  167    0.000732624741
  168   -0.000481885554
  169    0.001077870228
  170    0.017466973476
  171   -0.005831966556
  172    0.000714031691
  173    0.000475075285
  174   -0.002822216490
  175    0.001073123944
  176    0.017564100080
  177   -0.005740062898
  178    0.002342534969
  179    0.001759858696
  180   -0.000392728343
  181    0.409102779777
  182    0.878735987320
  183    0.313652840026
  184   -0.001598240023
  185   -0.024830443811
  186    0.014047084241
  187   -0.001368900586
  188   -0.000755928532
  189   -0.008138468934
  190    0.000409450650
  191   -0.000101740922
  192   -0.000054582583
  193   -0.001404586665
  194   -0.010590977489
  195    0.000935215719
  196    0.000392100060
  197    0.000554460938
  198   -0.000835741837
 Sym=     1a
 Ene= -1.39171413371031E-01
Spin= Alpha
 Occup= 0
  1     -0.000320026811
  2     -0.001041985138
  3      0.000713830665
  4      0.031803368893
  5     -0.008170147183
  6     -0.022174952880
  7     -0.000051051215
  8     -0.003215616690
  9     -0.088782644718
  10    -0.009553304219
  11    -0.002457629824
  12    -0.121903156243
  13    -0.004461406362
  14     0.018201089784
  15     0.000178706439
  16     0.000199411986
  17    -0.000378118425
  18     0.000092113104
  19     0.001571945413
  20     0.000147986067
  21    -0.000625511800
  22    -0.004838218836
  23     0.005463730636
  24    -0.005135054254
  25    -0.020129426473
  26     0.000809195902
  27     0.000215894498
  28     0.000712668154
  29    -0.000336221517
  30     0.000672877635
  31    -0.000103342060
  32     0.001269167837
  33    -0.000962530500
  34    -0.000852802602
  35    -0.000818079336
  36    -0.001938292986
  37     0.000935844163
  38     0.001820983338
  39     0.009409816872
  40    -0.090675019688
  41    -0.024447367978
  42    -0.006327499203
  43    -0.004074389157
  44     0.006374023308
  45    -0.048320974283
  46    -0.000490028084
  47     0.026784302265
  48    -0.033935947738
  49     0.010540684005
  50     0.031709836047
  51     0.000181318181
  52    -0.000226055481
  53     0.000044737300
  54     0.000113997465
  55    -0.000115478596
  56    -0.000273599056
  57    -0.006728143190
  58     0.004886338721
  59     0.001841804469
  60     0.001766929199
  61     0.009205564004
  62    -0.000269607037
  63    -0.000443210568
  64     0.000180046849
  65    -0.000281375711
  66     0.000712555981
  67     0.000124604436
  68     0.001445645608
  69    -0.000117926607
  70    -0.000366162633
  71    -0.001068140478
  72    -0.000242095518
  73    -0.001360241692
  74     0.005292107050
  75     0.004169104789
  76     0.000897250227
  77     0.001024749295
  78     0.000752434189
  79     0.018170908454
  80     0.055900376907
  81    -0.086026534557
  82    -0.297419377402
  83    -0.041163649450
  84     0.016354615409
  85    -0.113237239392
  86    -0.122366268353
  87    -0.004522908619
  88    -0.209432646479
  89    -0.226559039265
  90    -0.014466493882
  91    -0.142663981619
  92    -0.159256856708
  93    -0.000575370454
  94     0.000690495806
  95    -0.000115125352
  96    -0.000587374863
  97    -0.000831183757
  98     0.000989293998
  99    -0.002372585794
  100   -0.000640173141
  101    0.003012758935
  102    0.000805885522
  103    0.008380364726
  104    0.024092614889
  105   -0.001011306804
  106    0.001240606460
  107    0.001031004750
  108    0.000890263706
  109    0.001171894767
  110    0.001706372085
  111    0.000466546750
  112   -0.002836342994
  113   -0.003089610108
  114    0.001202336441
  115    0.001837345625
  116    0.002772366324
  117    0.002805617835
  118   -0.032810069228
  119   -0.009561666071
  120   -0.004619809851
  121   -0.001153140197
  122   -0.006663411145
  123   -0.003343802998
  124   -0.008655054349
  125   -0.025369679519
  126   -0.014189076547
  127    0.002878695020
  128   -0.022950104272
  129   -0.000056996449
  130   -0.000256396318
  131    0.000313392767
  132    0.000034244432
  133    0.000164266109
  134   -0.000004957360
  135    0.001657143830
  136    0.004266815672
  137   -0.005923959502
  138   -0.000018705770
  139   -0.002059575148
  140   -0.002631003077
  141   -0.000147217117
  142    0.000850627655
  143   -0.000952602433
  144   -0.000461619278
  145   -0.000260999760
  146    0.001411761694
  147    0.000659131766
  148   -0.000880236997
  149   -0.000133711416
  150   -0.000044448470
  151    0.430069886696
  152    0.889535981228
  153    0.347577749589
  154   -0.002572948819
  155    0.016541439751
  156    0.016744978123
  157    0.004231299205
  158   -0.000525670809
  159   -0.010167956873
  160    0.000132508121
  161   -0.000775122281
  162   -0.001881391008
  163    0.001928668769
  164   -0.004220282613
  165   -0.017003359638
  166   -0.000987830013
  167   -0.000977537479
  168    0.000153694795
  169   -0.003925186730
  170   -0.007816241529
  171   -0.046943205550
  172   -0.001272633991
  173   -0.000794032550
  174   -0.000565828438
  175   -0.000539314273
  176   -0.009268829688
  177   -0.007612602423
  178    0.000023378308
  179   -0.000082639216
  180   -0.000007061347
  181    0.000582264676
  182   -0.004428941055
  183   -0.007195807842
  184    0.000714831598
  185    0.000831163310
  186   -0.000354864914
  187   -0.000769379220
  188   -0.005134293452
  189   -0.019482493112
  190    0.001550286220
  191   -0.000623931795
  192    0.000207414093
  193   -0.001890391073
  194    0.000834705987
  195   -0.001337512998
  196    0.000194086408
  197   -0.000072282557
  198    0.000831829143
 Sym=     1a
 Ene= -1.39166447630536E-01
Spin= Alpha
 Occup= 0
  1     -0.000324199078
  2     -0.001017313557
  3      0.000636420535
  4      0.031965199300
  5     -0.008518164400
  6      0.020834572396
  7      0.005279808330
  8     -0.006346333262
  9      0.087151514188
  10     0.012331419416
  11    -0.015026068335
  12     0.120578328433
  13     0.025834323854
  14     0.000604115418
  15    -0.000162976007
  16     0.000153607530
  17     0.000009368477
  18    -0.000150100681
  19    -0.001587260279
  20    -0.000232053598
  21     0.001735139971
  22    -0.002318721010
  23     0.000583581039
  24     0.006805679893
  25     0.019771115691
  26     0.004950878351
  27    -0.000076788194
  28     0.000295440301
  29    -0.000607869059
  30    -0.000730071706
  31     0.000750253265
  32     0.000646128956
  33     0.000833093880
  34    -0.001146628023
  35     0.000169412966
  36     0.002106580949
  37     0.018174629380
  38     0.055951063872
  39    -0.086239196054
  40    -0.297191594042
  41    -0.041195050152
  42    -0.004952695316
  43    -0.116603932841
  44    -0.120258898987
  45     0.024165134561
  46    -0.206900004922
  47    -0.227376681587
  48     0.026651799365
  49    -0.138365736590
  50    -0.161406920830
  51    -0.000594183104
  52     0.000903558225
  53    -0.000309375121
  54     0.000338284501
  55     0.000626363165
  56     0.001106891250
  57    -0.005293301293
  58    -0.000206766309
  59     0.005500067602
  60     0.001500770664
  61    -0.012797006474
  62     0.021438827991
  63     0.000764546847
  64     0.000663580426
  65     0.001142669486
  66    -0.000957256775
  67     0.001755035882
  68     0.001795134387
  69    -0.000068490458
  70    -0.002645322447
  71    -0.003328186375
  72    -0.000441271623
  73    -0.001366398919
  74     0.005474359912
  75     0.004029207562
  76    -0.001014670179
  77     0.000837311779
  78     0.000890555935
  79     0.000930594984
  80     0.001802989776
  81     0.009462646275
  82    -0.090631508942
  83    -0.024252199028
  84     0.007905961023
  85    -0.002363031957
  86     0.005439536003
  87     0.050259388635
  88     0.011498231325
  89     0.019849891801
  90     0.034173269241
  91     0.018686665636
  92     0.027416618088
  93     0.000246319024
  94    -0.000265687877
  95     0.000019368853
  96    -0.000020065880
  97     0.000148935485
  98    -0.000229100838
  99    -0.007364348313
  100    0.003534382851
  101    0.003829965462
  102   -0.005167248650
  103   -0.007260757037
  104   -0.001924649724
  105    0.000608408119
  106   -0.000203024461
  107   -0.000279543235
  108   -0.000617703929
  109    0.000793058166
  110    0.001104870758
  111   -0.000198561218
  112   -0.000520672269
  113   -0.000729824152
  114    0.000729623867
  115    0.001835326639
  116    0.002784476998
  117    0.002754320631
  118   -0.032907039092
  119   -0.009645881049
  120    0.003810692332
  121   -0.000127936891
  122   -0.007267197452
  123    0.001685956175
  124   -0.007926523715
  125   -0.025715808393
  126    0.009951618836
  127    0.005706869104
  128   -0.024510052581
  129   -0.000089510919
  130   -0.000255604166
  131    0.000345115085
  132    0.000021307040
  133   -0.000091238735
  134   -0.000043086307
  135    0.002344562570
  136    0.003970959704
  137   -0.006315522274
  138   -0.000974982526
  139    0.001333269665
  140   -0.002083224497
  141    0.000681545630
  142    0.000993830383
  143   -0.000690846521
  144    0.000015137514
  145   -0.000202093311
  146    0.001024403720
  147   -0.000929526930
  148   -0.001131270066
  149   -0.000097535850
  150    0.000305437349
  151   -0.003908628244
  152   -0.007698704471
  153   -0.047128892860
  154    0.001333495888
  155   -0.000483547414
  156   -0.000747434755
  157    0.000550846375
  158   -0.004746793217
  159   -0.007332672231
  160   -0.000908879193
  161    0.000599990004
  162   -0.000216901245
  163   -0.000536741293
  164   -0.009095855063
  165   -0.007265411314
  166   -0.000007310770
  167   -0.000090707227
  168   -0.000010713857
  169    0.430082979209
  170    0.889326005316
  171    0.347533225890
  172    0.000744721637
  173    0.017089359622
  174    0.016456763277
  175    0.001911467441
  176   -0.004095396787
  177   -0.016986419232
  178    0.001207385359
  179   -0.000704488902
  180    0.000001601767
  181    0.004221109116
  182   -0.000397807777
  183   -0.010129333670
  184   -0.000197367819
  185   -0.000839061282
  186   -0.001862304591
  187   -0.001899333879
  188    0.000886625569
  189   -0.001034613852
  190   -0.000060865430
  191   -0.000099428593
  192    0.000854355486
  193   -0.000785972078
  194   -0.005061902545
  195   -0.019512744317
  196   -0.001341206737
  197   -0.000955677198
  198    0.000418161521
 Sym=     1a
 Ene= -1.39163009509530E-01
Spin= Alpha
 Occup= 0
  1     -0.000320230947
  2     -0.001039497535
  3      0.000747831242
  4      0.031512549401
  5     -0.008297111954
  6      0.012735815636
  7     -0.001017680890
  8     -0.018436036338
  9      0.048463975864
  10    -0.017822372314
  11    -0.072930566502
  12     0.046771926180
  13    -0.031807774463
  14    -0.109610287388
  15     0.000949800650
  16    -0.000391647573
  17    -0.000558153077
  18    -0.000050701493
  19    -0.000849113390
  20    -0.001003629696
  21    -0.012032876580
  22     0.001022239695
  23     0.011010636885
  24     0.003036659976
  25     0.011907393992
  26     0.011755059210
  27     0.002064594955
  28     0.000924638920
  29    -0.000967265646
  30    -0.001401353317
  31     0.000162710858
  32     0.000677682589
  33    -0.001368591482
  34    -0.001403244146
  35     0.000620040453
  36     0.000250344622
  37     0.018174188097
  38     0.055918698242
  39    -0.086081669221
  40    -0.297364162700
  41    -0.041143818640
  42     0.138601975927
  43    -0.004414063731
  44     0.094030096227
  45     0.272850310697
  46    -0.012818542337
  47     0.143633177428
  48     0.194610407943
  49    -0.007114233028
  50     0.089302104333
  51    -0.000091199965
  52    -0.000475434114
  53     0.000566634079
  54    -0.000451941960
  55     0.001399080341
  56    -0.000156973837
  57     0.021535260002
  58    -0.020482090005
  59    -0.001053169997
  60    -0.001407203221
  61     0.007780982193
  62    -0.002958949527
  63     0.000364053715
  64     0.000696293446
  65    -0.001070423352
  66    -0.002505715100
  67    -0.000381705633
  68     0.003374906809
  69     0.002017285788
  70    -0.000552470053
  71    -0.001938783181
  72    -0.000325263539
  73     0.000574376834
  74    -0.004469548490
  75    -0.007208670487
  76    -0.000514918450
  77     0.000948501487
  78     0.000389287026
  79     0.001836686969
  80     0.002769623943
  81     0.002795710812
  82    -0.032681693235
  83    -0.009532391164
  84     0.007508515105
  85     0.002793163762
  86    -0.001679167821
  87     0.024086210951
  88     0.009312454650
  89     0.007719229093
  90     0.021451350386
  91     0.015010085615
  92    -0.007015911865
  93     0.000182963059
  94    -0.000031918998
  95    -0.000151044061
  96     0.000306270454
  97    -0.000052909132
  98     0.000070367657
  99    -0.004349337298
  100    0.002510582549
  101    0.001838754749
  102   -0.005074774361
  103   -0.001246819897
  104   -0.001409838753
  105    0.000196095855
  106    0.000081069015
  107   -0.000612444755
  108   -0.000149960774
  109    0.000108658539
  110    0.001212711506
  111   -0.000113129424
  112   -0.000217424036
  113   -0.000391030643
  114    0.001291479503
  115    0.000933477415
  116    0.001817680264
  117    0.009409628954
  118   -0.090654679883
  119   -0.024423406383
  120    0.000539651894
  121   -0.008052844853
  122   -0.005662377137
  123    0.003904914982
  124   -0.024287677575
  125   -0.049431150914
  126   -0.012094190481
  127   -0.017176105445
  128   -0.042683560645
  129   -0.000191186965
  130    0.000160242293
  131    0.000030944672
  132    0.000094442806
  133   -0.000221897480
  134    0.000239457822
  135    0.006666812065
  136    0.002550520671
  137   -0.009217332736
  138    0.000444807016
  139   -0.000277644348
  140   -0.006724592626
  141    0.000282990564
  142    0.000901659044
  143   -0.000830402145
  144   -0.000493013514
  145    0.000009587801
  146    0.001208396925
  147    0.000113341831
  148   -0.001219290349
  149   -0.000094295538
  150    0.000080437893
  151   -0.001891432199
  152    0.000804073832
  153   -0.001347811869
  154   -0.000642740690
  155   -0.000561073678
  156   -0.000039122480
  157   -0.001360749405
  158    0.005244031625
  159    0.004181634255
  160   -0.001485809584
  161    0.000401333296
  162    0.000162611267
  163   -0.000771504080
  164   -0.005141615215
  165   -0.019476362573
  166   -0.000548457038
  167   -0.000392768052
  168    0.001542197412
  169    0.001930472735
  170   -0.004157692848
  171   -0.016980895751
  172    0.000867318100
  173   -0.000969072524
  174   -0.000506999367
  175    0.430066276407
  176    0.889389310698
  177    0.347635578383
  178   -0.019344199419
  179    0.001354118332
  180   -0.013575465023
  181    0.004229185045
  182   -0.000376875786
  183   -0.010087826160
  184    0.001693236008
  185    0.000633431835
  186    0.000970445937
  187   -0.003895733613
  188   -0.007766379177
  189   -0.046836169789
  190    0.001411163361
  191   -0.000408627475
  192   -0.000629274752
  193   -0.000536276960
  194   -0.009257571896
  195   -0.007582712850
  196    0.000037654878
  197   -0.000056027292
  198    0.000056213897
 Sym=     1a
 Ene= -1.39150328197739E-01
Spin= Alpha
 Occup= 0
  1     -0.000326202158
  2     -0.001012601377
  3      0.000608836646
  4      0.032104975210
  5     -0.008604328505
  6     -0.014622974271
  7     -0.004357171163
  8     -0.016429337841
  9     -0.052400347676
  10    -0.030178956296
  11    -0.065699746414
  12    -0.052730578981
  13    -0.043691171740
  14    -0.102503619474
  15     0.001067934201
  16    -0.000306848223
  17    -0.000761085978
  18     0.000315638947
  19     0.000800482681
  20    -0.000820861191
  21    -0.012965673782
  22    -0.000815665825
  23     0.013781339607
  24    -0.005209609760
  25    -0.010460416088
  26     0.009531606434
  27    -0.001436646178
  28     0.001578160369
  29    -0.001382714964
  30     0.000796348620
  31    -0.001097017254
  32     0.001507754804
  33     0.001131114487
  34    -0.001020307064
  35     0.000347351988
  36    -0.000186621418
  37     0.001834333585
  38     0.002783764205
  39     0.002755338063
  40    -0.032937404980
  41    -0.009660931742
  42    -0.008141351924
  43     0.000834378877
  44    -0.000574481673
  45    -0.024309078963
  46     0.003473306217
  47     0.011176730107
  48    -0.025223306280
  49     0.008947547851
  50    -0.003809753327
  51     0.000289821378
  52    -0.000138106787
  53    -0.000151714591
  54    -0.000206828440
  55    -0.000032315828
  56     0.000103847560
  57    -0.005463335375
  58     0.004103493946
  59     0.001359841429
  60     0.002507523089
  61     0.002708127867
  62    -0.001361772940
  63     0.000308958423
  64     0.000123516945
  65    -0.000563746943
  66    -0.000017620391
  67    -0.000181216218
  68     0.001618648955
  69    -0.000396890830
  70     0.000015500846
  71    -0.000862303063
  72    -0.000696418237
  73     0.000550486457
  74    -0.004761762044
  75    -0.007343651972
  76     0.000319313441
  77     0.001012020574
  78     0.000321091326
  79     0.018178975460
  80     0.055964580596
  81    -0.086273705501
  82    -0.297197906075
  83    -0.041154228072
  84    -0.118527755611
  85    -0.037171121453
  86     0.112486775858
  87    -0.237978002839
  88    -0.077565995346
  89     0.180104949811
  90    -0.172113385005
  91    -0.053563839708
  92     0.115490814873
  93    -0.000603391794
  94    -0.000277779283
  95     0.000881171077
  96     0.000419806165
  97    -0.001130500935
  98    -0.000549683068
  99     0.016352071018
  100   -0.017494972591
  101    0.001142901573
  102    0.011916656698
  103   -0.009897038756
  104   -0.006346713257
  105    0.000999038706
  106    0.001826262369
  107   -0.000300646519
  108    0.001374536419
  109   -0.001019172801
  110    0.002150413235
  111   -0.002714887495
  112   -0.001431015280
  113   -0.001747053603
  114    0.001693802829
  115    0.000930347125
  116    0.001802110256
  117    0.009469968235
  118   -0.090669205007
  119   -0.024271566763
  120    0.000710722304
  121   -0.008091710924
  122   -0.005623842436
  123   -0.004782321058
  124   -0.025573763541
  125   -0.048752117895
  126    0.010360938429
  127   -0.014817067098
  128   -0.044017730813
  129   -0.000084964252
  130    0.000106246429
  131   -0.000021282177
  132   -0.000136157719
  133    0.000175168623
  134    0.000314869528
  135    0.006675729908
  136    0.002509580250
  137   -0.009185310158
  138   -0.000240206018
  139   -0.000670823279
  140   -0.006847635136
  141    0.000146776340
  142    0.001058939459
  143   -0.000769451157
  144    0.000107257922
  145   -0.000151471187
  146    0.001162324347
  147   -0.000304179047
  148   -0.001269245181
  149   -0.000129997292
  150    0.000099229266
  151    0.001905907240
  152   -0.004132332195
  153   -0.016985468849
  154   -0.000659421561
  155   -0.001159768145
  156   -0.000406261367
  157    0.004217636757
  158   -0.000257511657
  159   -0.010044731214
  160   -0.001653692904
  161    0.000204080821
  162    0.001218409139
  163    0.430123050305
  164    0.889210185787
  165    0.347393570640
  166    0.016336765204
  167    0.005912564865
  168   -0.016160211001
  169   -0.001899947260
  170    0.000874143221
  171   -0.001028810561
  172    0.000757028963
  173   -0.000384213999
  174   -0.000134113728
  175   -0.000789269373
  176   -0.005067176430
  177   -0.019489335975
  178    0.000861260422
  179   -0.000187325244
  180    0.001449748802
  181   -0.001365344200
  182    0.005481041449
  183    0.004019533608
  184    0.001368744953
  185    0.000802929837
  186   -0.000069032289
  187   -0.000535420892
  188   -0.009092405464
  189   -0.007231580195
  190   -0.000018936272
  191   -0.000061074892
  192    0.000067106142
  193   -0.003869359319
  194   -0.007625557353
  195   -0.046979258514
  196   -0.001337582700
  197   -0.000758523422
  198   -0.000427435106
 Sym=     1a
 Ene= -1.39139775354666E-01
Spin= Alpha
 Occup= 0
  1     -0.000320542069
  2     -0.001042968529
  3      0.000780318010
  4      0.031289675196
  5     -0.008304923859
  6      0.007685359402
  7      0.012862385690
  8      0.016708385242
  9      0.038394877072
  10     0.040236108288
  11     0.070044207067
  12     0.072577802363
  13     0.053065111645
  14     0.084511139938
  15    -0.001338036265
  16     0.000527397618
  17     0.000810638647
  18    -0.000140122524
  19    -0.000678969625
  20     0.000586141889
  21     0.018935101382
  22    -0.006227680226
  23    -0.012707421156
  24     0.005054603431
  25     0.006953165755
  26    -0.004521532957
  27     0.001242496544
  28    -0.001324434982
  29     0.000371811622
  30     0.000124595554
  31     0.001124974672
  32     0.000990620202
  33    -0.001791579594
  34     0.000651941318
  35    -0.001489457838
  36     0.000376802740
  37     0.001838020058
  38     0.002766265789
  39     0.002822357071
  40    -0.032746384162
  41    -0.009581549584
  42    -0.003783891063
  43     0.004208348399
  44     0.005908441872
  45    -0.021687630882
  46     0.005401828455
  47     0.015067472155
  48    -0.012911219986
  49     0.018754759301
  50     0.014725031394
  51     0.000099117068
  52    -0.000071716936
  53    -0.000027400132
  54    -0.000234750664
  55    -0.000155387852
  56     0.000223938258
  57    -0.003118588266
  58     0.002537413892
  59     0.000581174374
  60     0.002344951945
  61     0.004449521533
  62    -0.003444462999
  63    -0.000738492907
  64    -0.000032775416
  65    -0.000032582233
  66     0.000649683059
  67     0.000434113593
  68     0.001297536064
  69     0.000341109145
  70    -0.000390140759
  71    -0.001253822412
  72     0.000111038165
  73     0.004231475155
  74    -0.000338292171
  75    -0.010074440531
  76    -0.001819456181
  77     0.000084603567
  78     0.000947756844
  79     0.000934756059
  80     0.001819322755
  81     0.009405273794
  82    -0.090654951018
  83    -0.024467827772
  84     0.007972952042
  85    -0.002330790320
  86     0.005284445689
  87     0.045968838428
  88     0.014087282850
  89     0.027067108706
  90     0.044948628430
  91     0.012944811766
  92     0.008414592015
  93     0.000082376411
  94    -0.000050049004
  95    -0.000032327407
  96    -0.000175016268
  97     0.000323085110
  98     0.000124160378
  99    -0.006767692442
  100    0.003504641086
  101    0.003263051356
  102   -0.005429165906
  103   -0.007571143610
  104   -0.001766010669
  105    0.000501860743
  106   -0.000288997556
  107   -0.000446877402
  108   -0.000333815204
  109    0.000425226176
  110    0.001296637537
  111   -0.000339501637
  112   -0.000037495267
  113   -0.000697088588
  114    0.000924968378
  115    0.018173332477
  116    0.055918851292
  117   -0.086074410423
  118   -0.297368813658
  119   -0.041024437202
  120   -0.129846317651
  121   -0.044581756908
  122    0.096064890766
  123   -0.223989735912
  124   -0.064219958488
  125    0.202566268043
  126   -0.151446562819
  127   -0.035837035899
  128    0.147288731585
  129    0.000655461877
  130   -0.000200596007
  131   -0.000454865870
  132    0.001031718759
  133   -0.000568403521
  134   -0.000844580730
  135    0.000665660390
  136   -0.010620245913
  137    0.009954585523
  138    0.009863495628
  139   -0.020071750905
  140    0.004286184131
  141    0.000185746441
  142    0.001577040947
  143   -0.001498914317
  144    0.000658088621
  145   -0.002103923100
  146    0.003127709655
  147   -0.000907293622
  148   -0.000011899356
  149   -0.001116705072
  150    0.002260771647
  151   -0.000534149798
  152   -0.009261681862
  153   -0.007613048143
  154   -0.000026565972
  155   -0.000076395420
  156    0.000039219422
  157    0.000578456999
  158   -0.004421937308
  159   -0.007176745455
  160   -0.000532503042
  161    0.000396940169
  162   -0.000940481327
  163   -0.003886419969
  164   -0.007743515723
  165   -0.046762334710
  166   -0.000005888170
  167    0.000292479727
  168    0.001568871673
  169   -0.000770389978
  170   -0.005150467368
  171   -0.019478436435
  172   -0.000636211811
  173   -0.001360279694
  174   -0.000759697658
  175   -0.001890176689
  176    0.000814183103
  177   -0.001313229218
  178    0.000622851580
  179   -0.000488076127
  180   -0.000326043896
  181   -0.001356242537
  182    0.005304222946
  183    0.004142264346
  184    0.000375639367
  185    0.000006244443
  186   -0.001511838871
  187    0.001936434166
  188   -0.004137294380
  189   -0.017002623195
  190    0.000453513004
  191   -0.000285982731
  192    0.001286652625
  193    0.430066529290
  194    0.889565838060
  195    0.347520351118
  196    0.018042332814
  197    0.007067859108
  198   -0.013560563067
 Sym=     1a
 Ene= -1.39135085362305E-01
Spin= Alpha
 Occup= 0
  1     -0.000324248853
  2     -0.001015393166
  3      0.000665217008
  4      0.031674703829
  5     -0.008589935655
  6     -0.008074907733
  7      0.010944708931
  8      0.017837746593
  9     -0.036808869301
  10     0.031009287394
  11     0.075311042690
  12    -0.070636210311
  13     0.035731262066
  14     0.094618014407
  15    -0.001120904061
  16     0.000497448585
  17     0.000623455476
  18    -0.000268562377
  19     0.000827648056
  20     0.000778845847
  21     0.017558592967
  22    -0.006986736773
  23    -0.010571856194
  24     0.001398573302
  25    -0.010532470030
  26    -0.006389188702
  27    -0.001290293498
  28    -0.001209087432
  29    -0.000106802755
  30     0.000510231251
  31     0.000593218491
  32     0.001671767505
  33     0.001220879132
  34     0.001028942523
  35    -0.001528476573
  36     0.000439204886
  37     0.000931272592
  38     0.001802551770
  39     0.009463600298
  40    -0.090631896893
  41    -0.024315698546
  42    -0.006351498750
  43    -0.004195828578
  44     0.006291326267
  45    -0.043752699821
  46     0.002808463983
  47     0.033560319725
  48    -0.045276552728
  49     0.001169366758
  50     0.014599524059
  51    -0.000077293539
  52     0.000026372068
  53     0.000050921471
  54     0.000197348564
  55    -0.000339913782
  56     0.000017991915
  57    -0.006361355552
  58     0.005238326814
  59     0.001123028738
  60     0.002073019991
  61     0.009303173714
  62    -0.000282078692
  63    -0.000115512517
  64    -0.000100830150
  65    -0.000480617213
  66     0.000354762499
  67    -0.000007391270
  68     0.001650021677
  69    -0.000199786196
  70     0.000142669112
  71    -0.001005206021
  72    -0.000253106023
  73     0.004219535881
  74    -0.000355114479
  75    -0.010097669988
  76     0.001860786074
  77     0.000533953308
  78     0.000692493818
  79     0.001834007525
  80     0.002777047714
  81     0.002770495125
  82    -0.032875385728
  83    -0.009663930740
  84     0.003435027846
  85     0.005088839465
  86     0.005418000759
  87     0.021596138490
  88     0.010821653184
  89     0.011860645952
  90     0.009732310240
  91     0.021389453140
  92     0.013296955109
  93     0.000014085795
  94     0.000051283294
  95    -0.000065369089
  96     0.000286366040
  97     0.000081348015
  98     0.000214049554
  99    -0.002569525909
  100    0.001025060797
  101    0.001544465112
  102   -0.004192419427
  103   -0.002899385397
  104   -0.003834176407
  105    0.000722620457
  106   -0.000325199658
  107    0.000117963954
  108   -0.000419410781
  109    0.000992232666
  110    0.000960293157
  111   -0.000550086297
  112   -0.000555931541
  113   -0.001118558409
  114    0.000371848894
  115    0.018174946853
  116    0.055954909044
  117   -0.086246828042
  118   -0.297129747335
  119   -0.041029149257
  120    0.148708349471
  121   -0.011041121052
  122    0.076479382832
  123    0.258371417927
  124   -0.006042636806
  125    0.168456902722
  126    0.174388182449
  127    0.003408632634
  128    0.124306507535
  129    0.001174053298
  130   -0.000589839192
  131   -0.000584214106
  132   -0.000766158175
  133    0.000510514707
  134   -0.000583421215
  135    0.008525314849
  136   -0.013676698428
  137    0.005151383579
  138   -0.004120099433
  139    0.018839950413
  140    0.010034695108
  141    0.001938035685
  142    0.000791003347
  143   -0.001573878558
  144   -0.002172576221
  145   -0.001456851825
  146    0.003611521219
  147   -0.000427571499
  148    0.000395609472
  149   -0.001499941552
  150   -0.000551700165
  151   -0.000788961736
  152   -0.005077791248
  153   -0.019483048332
  154    0.000834753556
  155   -0.001167882716
  156   -0.000901681320
  157   -0.001362401399
  158    0.005517226536
  159    0.003992840546
  160   -0.000597967242
  161   -0.000072283577
  162   -0.001476376392
  163   -0.001897673017
  164    0.000892955123
  165   -0.000989104686
  166   -0.000527383238
  167   -0.000633056915
  168   -0.000253647408
  169   -0.000534752566
  170   -0.009108269756
  171   -0.007277900354
  172    0.000057696669
  173   -0.000064255337
  174    0.000033151413
  175   -0.003882720866
  176   -0.007666924611
  177   -0.046982692083
  178    0.000154302327
  179    0.000300569554
  180    0.001562096178
  181    0.000555367404
  182   -0.004714927554
  183   -0.007318816774
  184    0.000270271875
  185    0.000471365855
  186   -0.000973405485
  187    0.430106298298
  188    0.889299240482
  189    0.347426616408
  190   -0.020950458624
  191    0.002375669895
  192   -0.010849441033
  193    0.001914185557
  194   -0.004065505023
  195   -0.016994726904
  196   -0.000195131458
  197   -0.000365902550
  198    0.001332970201
 Sym=     1a
 Ene= 4.83273343103477E-01
Spin= Alpha
 Occup= 0
  1      0.000400909469
  2      0.000458596584
  3      0.011706109346
  4     -0.110209353711
  5     -0.011296427464
  6      0.009977603360
  7      0.786076047368
  8      0.027009991826
  9     -0.183592423361
  10    -0.534278313871
  11    -0.498962758892
  12    -0.364232059865
  13    -2.105688133603
  14    -0.989350500485
  15     0.004797328751
  16    -0.002730272325
  17    -0.002067056426
  18     0.001418584888
  19     0.000715540831
  20    -0.000150815987
  21    -0.021208515913
  22     0.025892602715
  23    -0.004684086802
  24    -0.008661238440
  25     0.001621805129
  26    -0.017184853195
  27    -0.000358623789
  28     0.008265912988
  29     0.002226152520
  30    -0.000630924621
  31    -0.004815796528
  32    -0.001756693901
  33     0.001112068923
  34    -0.006274089475
  35    -0.001230003117
  36    -0.001441866203
  37    -0.003965152115
  38     0.000662094912
  39    -0.063357162067
  40     0.336866050080
  41     0.138948251637
  42    -0.001955827640
  43    -0.022252890753
  44    -0.007161095849
  45     0.216386251930
  46     0.473151351110
  47     0.144384430301
  48     0.159201905422
  49     0.406464667425
  50     0.111500254917
  51    -0.002803561403
  52     0.000197130019
  53     0.002606431384
  54    -0.004683562142
  55    -0.001122153100
  56    -0.000054187488
  57     0.051978872968
  58    -0.008420331806
  59    -0.043558541162
  60     0.068633035710
  61     0.012703864093
  62     0.004125637057
  63     0.003737718300
  64     0.002022278766
  65     0.000296851952
  66     0.000219487542
  67    -0.004265687273
  68    -0.001667335824
  69    -0.005234162862
  70     0.001552515599
  71     0.001269067137
  72     0.000757583812
  73     0.044805224653
  74    -0.182114121616
  75    -0.080001415535
  76    -0.000393339387
  77     0.001563778768
  78    -0.005367995211
  79    -0.007834040887
  80     0.003748295997
  81    -0.158861560055
  82     0.874021773958
  83     0.368817164561
  84    -0.012286067819
  85    -0.026125967609
  86    -0.011139967865
  87    -0.398074779175
  88     0.353889940183
  89    -0.007319954507
  90    -0.315712697535
  91     0.316024493969
  92    -0.014947808731
  93    -0.003597633973
  94     0.002423564578
  95     0.001174069395
  96     0.002799078455
  97     0.000863680554
  98    -0.000255031686
  99     0.056473127234
  100   -0.036929896080
  101   -0.019543231154
  102   -0.036895568353
  103   -0.018286459576
  104    0.007769820154
  105   -0.000261877073
  106   -0.001382441624
  107   -0.003064212180
  108   -0.004168105172
  109   -0.002217002396
  110    0.001068632675
  111    0.004519450134
  112    0.004071742463
  113    0.003042439364
  114   -0.001458028587
  115    0.004605515705
  116   -0.006216822480
  117    0.149269768960
  118   -0.860558630657
  119   -0.373403055455
  120   -0.003095598889
  121   -0.030023416306
  122   -0.028806539775
  123    0.081126691938
  124    0.134153079345
  125   -0.410583716396
  126    0.061566411808
  127    0.117953210232
  128   -0.355491867207
  129   -0.002490277900
  130   -0.000274191092
  131    0.002764468992
  132   -0.001530263228
  133   -0.000467723567
  134   -0.000786402427
  135    0.021949708871
  136    0.000307279880
  137   -0.022256988751
  138    0.023402915862
  139    0.008718243819
  140    0.030383437718
  141    0.000193944297
  142    0.001446942965
  143    0.006237524185
  144   -0.002065753240
  145   -0.004694898089
  146   -0.001579876071
  147    0.001805549661
  148    0.002753620392
  149   -0.006788640782
  150    0.001476172766
  151   -0.025329275694
  152   -0.084520535845
  153    0.018021755736
  154    0.002600725371
  155    0.004968482008
  156    0.007591244507
  157   -0.000416744916
  158    0.096962066439
  159    0.055961193250
  160    0.001870492328
  161   -0.001959633052
  162    0.002136478891
  163   -0.003697252724
  164    0.035246266178
  165    0.068163371825
  166    0.003654440649
  167   -0.001201016091
  168   -0.002074253569
  169   -0.024172679746
  170   -0.146697070105
  171   -0.034489215065
  172   -0.002935865208
  173    0.003783524254
  174    0.006399230817
  175    0.007493910486
  176    0.028140344799
  177    0.039502857795
  178    0.000419090519
  179   -0.002024958423
  180   -0.000592351058
  181    0.013438755108
  182    0.011265379793
  183    0.013883935325
  184   -0.001832863549
  185   -0.000324021443
  186    0.002084784415
  187    0.010347972770
  188   -0.112249047712
  189   -0.078469967602
  190    0.002581733572
  191   -0.000181729219
  192    0.002334248283
  193    0.000585609013
  194   -0.165384869314
  195   -0.100455457425
  196   -0.001094136538
  197   -0.000594834607
  198    0.000264103728
 Sym=     1a
 Ene= 5.92809805149677E-01
Spin= Alpha
 Occup= 0
  1     -0.000136474431
  2      0.012986311261
  3     -0.160895990163
  4      0.654457339351
  5      0.362045353264
  6     -0.005831186811
  7     -0.050931896078
  8      0.042960958295
  9      0.098408581239
  10     0.101163402875
  11    -0.734056800881
  12     0.162007855666
  13     0.308644710484
  14    -1.394347705493
  15    -0.003649815778
  16     0.008247146225
  17    -0.004597330447
  18    -0.002253721987
  19    -0.001067563247
  20     0.003588714521
  21     0.014521079598
  22    -0.075724201195
  23     0.061203121597
  24     0.021820785787
  25     0.012662613386
  26    -0.006483513307
  27    -0.001051166261
  28     0.004613316766
  29    -0.005201012015
  30    -0.001777086716
  31     0.003669576212
  32    -0.007356404702
  33     0.003187374244
  34    -0.009858990147
  35     0.014334294553
  36    -0.002520515642
  37    -0.003519534456
  38     0.009452717853
  39    -0.103066423894
  40     0.391510670548
  41     0.156206735721
  42    -0.018846318168
  43    -0.004651747854
  44    -0.016609258732
  45     0.290506193622
  46    -0.029184352415
  47     0.073069425801
  48     0.280166810378
  49     0.031151347463
  50     0.130450764723
  51    -0.004852934556
  52     0.000721374074
  53     0.004131560482
  54     0.000821019889
  55     0.000207062966
  56     0.000171845037
  57     0.088464305198
  58    -0.022645991276
  59    -0.065818313922
  60    -0.018465968771
  61    -0.011406639051
  62    -0.004469021353
  63     0.007567045299
  64     0.000064701018
  65     0.004275443174
  66    -0.002769827754
  67     0.000721157057
  68    -0.006034685820
  69    -0.007382428852
  70    -0.000807962582
  71     0.000298576877
  72    -0.002165167194
  73     0.074041426436
  74    -1.183662016528
  75    -0.574859342380
  76    -0.001224580414
  77     0.010869333811
  78    -0.013329529677
  79    -0.002476586420
  80     0.011445212117
  81    -0.064328543415
  82     0.066283565586
  83     0.056762515207
  84     0.024358317847
  85     0.008361044748
  86    -0.011162883369
  87    -0.151469988796
  88    -0.089307478019
  89     0.180588435802
  90    -0.193280209024
  91    -0.078642650602
  92     0.176485842416
  93    -0.004022068708
  94     0.000131010759
  95     0.003891057949
  96    -0.002725390826
  97     0.001793202166
  98     0.000375674782
  99     0.061454517864
  100   -0.000333396250
  101   -0.061121121614
  102    0.040140430895
  103   -0.036228074722
  104   -0.011405563295
  105   -0.008514248056
  106    0.001612141803
  107    0.000772305180
  108    0.001046987082
  109   -0.002615666494
  110   -0.001069247476
  111    0.010376075376
  112    0.000452751297
  113    0.000033091347
  114    0.001643948772
  115    0.007170696839
  116   -0.031981914335
  117    0.247317612300
  118   -0.766683140692
  119   -0.427563384202
  120    0.008054437910
  121    0.876255919594
  122    0.007155968609
  123   -0.063982533309
  124   -1.182144218520
  125   -0.205285828118
  126   -0.107330904863
  127   -1.842674064089
  128   -0.077624404433
  129    0.006937470345
  130   -0.009730418943
  131    0.002792948598
  132    0.006425395943
  133   -0.002519167996
  134    0.014222335818
  135   -0.063904767372
  136    0.145272408829
  137   -0.081367641457
  138   -0.083969661480
  139    0.031719145706
  140   -0.249274537492
  141    0.002190203987
  142    0.010437180869
  143   -0.001751535527
  144   -0.001919606297
  145    0.001377835699
  146    0.009271690639
  147   -0.001018860702
  148   -0.015380783249
  149   -0.006921759137
  150    0.000180934481
  151   -0.001963695252
  152    0.009705536278
  153   -0.016245332447
  154    0.001860328330
  155    0.001234470893
  156   -0.001514389881
  157   -0.016918227303
  158    0.051628505357
  159    0.035250182517
  160   -0.000799700074
  161    0.000971938502
  162   -0.002024107343
  163   -0.005222793661
  164    0.147426431551
  165    0.103587599333
  166   -0.006336327184
  167   -0.003455592074
  168   -0.001937657097
  169   -0.002742196243
  170   -0.004434617598
  171   -0.031370121531
  172   -0.003026332273
  173   -0.000776575791
  174    0.000052383689
  175   -0.007695885440
  176    0.154280901421
  177    0.124384741552
  178    0.005666276770
  179   -0.003096075701
  180   -0.003082947034
  181   -0.028317725934
  182    0.105397535994
  183    0.065970861495
  184    0.001159602717
  185   -0.000065994819
  186   -0.003949589976
  187    0.008712369907
  188    0.090231400129
  189   -0.035683884754
  190    0.003501530451
  191    0.006531292937
  192    0.007507108462
  193    0.004497737743
  194    0.375622525964
  195    0.155115077856
  196   -0.000287552037
  197    0.009326912856
  198    0.011030417228
 Sym=     1a
 Ene= 6.25923159240742E-01
Spin= Alpha
 Occup= 0
  1      0.000786800927
  2     -0.000285747107
  3      0.034430968122
  4     -0.342346744168
  5      0.006560785812
  6     -0.008043594504
  7     -0.077329093784
  8     -0.019751562591
  9     -0.445491813697
  10     0.373090856116
  11     0.056944882406
  12    -0.663797052706
  13     0.865493786405
  14     0.134055379489
  15     0.001780532466
  16    -0.002097568967
  17     0.000317036501
  18    -0.006633766901
  19     0.010872574118
  20    -0.006711095146
  21    -0.019250273446
  22     0.004953862104
  23     0.014296411342
  24     0.037903822835
  25    -0.126010396299
  26     0.065975686442
  27    -0.001001205774
  28    -0.012820550343
  29    -0.004806360213
  30     0.001815823369
  31     0.007490537217
  32     0.002289041972
  33    -0.000472564867
  34     0.009710036029
  35     0.004159366925
  36     0.003561475015
  37     0.006330629877
  38    -0.012612268655
  39     0.156243248651
  40    -0.641157859689
  41    -0.305775844956
  42     0.006267762764
  43     0.012664842027
  44    -0.004554275738
  45    -0.221458120096
  46    -0.172227163562
  47     0.112193121254
  48    -0.204476229767
  49    -0.146249350344
  50     0.061476185995
  51     0.000654307436
  52    -0.001559249256
  53     0.000904941820
  54     0.003129091193
  55     0.000023374272
  56    -0.001962938785
  57    -0.038240482980
  58     0.045033436355
  59    -0.006792953375
  60    -0.040648883362
  61     0.035559495868
  62     0.020588998808
  63    -0.000852932549
  64     0.002436068998
  65    -0.003331403567
  66     0.000528756055
  67    -0.002866345157
  68     0.009925640179
  69     0.000615573041
  70    -0.000401984370
  71    -0.005456093277
  72     0.000245904277
  73    -0.024533889681
  74     0.097549663929
  75     0.050712972559
  76     0.005762175715
  77     0.006871333994
  78     0.005628714803
  79    -0.011381452189
  80     0.021262689199
  81    -0.186976255189
  82     0.462078148695
  83     0.348012037705
  84     0.009929481039
  85     0.886502530096
  86     0.022703728382
  87    -0.014639861925
  88    -1.182668708114
  89    -0.143937848751
  90    -0.081547956653
  91    -2.007971495409
  92    -0.269176571890
  93     0.001202849358
  94    -0.007795322442
  95     0.006592473084
  96    -0.009036480596
  97    -0.011668591154
  98     0.011221502337
  99    -0.022796108544
  100    0.119842289056
  101   -0.097046180512
  102    0.134415540707
  103    0.145383981091
  104   -0.133117018060
  105    0.001669610914
  106    0.001325589471
  107    0.002412261806
  108   -0.004723657577
  109   -0.006959491169
  110   -0.007508827766
  111    0.002483639477
  112    0.005181026269
  113    0.004272438940
  114   -0.009447370201
  115    0.003946752951
  116   -0.016994695081
  117    0.068225503649
  118    0.092761122221
  119   -0.081019879428
  120    0.016844761021
  121    0.018993735909
  122    0.028626239600
  123   -0.067134395318
  124   -0.077796845131
  125    0.088115465461
  126   -0.196067082304
  127   -0.071774680639
  128   -0.061556770765
  129    0.001558642602
  130    0.000239194113
  131   -0.001797836715
  132    0.000601019103
  133    0.000483345823
  134    0.002024507253
  135   -0.028439636154
  136   -0.002152163559
  137    0.030591799713
  138   -0.003204678940
  139   -0.002372854417
  140   -0.027189532105
  141    0.000225507010
  142    0.003610769785
  143   -0.002317400608
  144   -0.001687166614
  145   -0.002250430616
  146    0.005366206895
  147    0.001384617212
  148   -0.002593925398
  149   -0.002257087721
  150   -0.000813002482
  151   -0.017534654454
  152    0.783303033136
  153    0.630864684952
  154   -0.016141781229
  155    0.013358186020
  156    0.006051426849
  157    0.043880573497
  158   -1.087789557189
  159   -0.456718408854
  160    0.015237798228
  161    0.010034469488
  162    0.008213910063
  163   -0.008339881973
  164    0.135183386503
  165    0.197238916011
  166    0.004503106381
  167    0.006166012689
  168   -0.008926845111
  169    0.000852669247
  170    0.133263031724
  171   -0.050640424591
  172    0.005068756603
  173   -0.004324182396
  174   -0.005729613316
  175    0.015176391058
  176   -0.020825399126
  177   -0.102414201828
  178    0.005278445714
  179    0.001043156719
  180    0.004298410840
  181    0.000572363007
  182   -0.019488922557
  183   -0.017763473918
  184    0.004297408731
  185    0.005123986780
  186   -0.001606116722
  187    0.013397155581
  188   -0.053449900485
  189   -0.136773112632
  190    0.006938421900
  191   -0.004283707712
  192    0.001027266215
  193   -0.004831983275
  194    0.149620118432
  195   -0.002327730337
  196   -0.000042922458
  197   -0.001849495153
  198    0.007597594346
 Sym=     1a
 Ene= 6.27624263254687E-01
Spin= Alpha
 Occup= 0
  1     -0.001395252840
  2      0.015522395035
  3     -0.241360141939
  4      1.301623547464
  5      0.410889510578
  6      0.004477230985
  7      0.010291695710
  8     -0.044628633756
  9     -0.087592821360
  10    -0.620869331360
  11    -0.968001890367
  12    -0.148017275655
  13    -1.066887743253
  14    -1.462047414322
  15     0.008169309421
  16    -0.008524239755
  17     0.000354930334
  18     0.002300319447
  19     0.000671340213
  20    -0.007986098200
  21    -0.151072071502
  22     0.082526580943
  23     0.068545490559
  24    -0.031980283565
  25     0.001051966985
  26     0.100543804203
  27    -0.000101458490
  28     0.004877998582
  29     0.005255376254
  30    -0.000568642593
  31    -0.005589745301
  32    -0.005921246890
  33     0.000704763442
  34    -0.000954776553
  35    -0.001129580241
  36    -0.001346193780
  37    -0.011271368390
  38     0.036045727454
  39    -0.262560046459
  40     0.601525292241
  41     0.399023652560
  42    -0.045593003106
  43    -0.001968691969
  44     0.023433498612
  45     0.271481609265
  46     0.073951473799
  47    -0.104309889284
  48     0.326242508140
  49    -0.027279913587
  50    -0.182316620545
  51    -0.003771559152
  52     0.002192393872
  53     0.001579165280
  54    -0.002633775057
  55     0.001147807927
  56    -0.000253791464
  57     0.088397745833
  58    -0.052604885834
  59    -0.035792859999
  60     0.033816304754
  61    -0.032862550436
  62     0.005110636743
  63     0.009779172317
  64    -0.000708586280
  65     0.003456497516
  66    -0.005271215318
  67    -0.000941980272
  68    -0.015251016209
  69    -0.007848921120
  70     0.001892648527
  71     0.010613638163
  72    -0.003497826015
  73     0.016695691228
  74     0.338667630208
  75     0.052149816026
  76    -0.001758280446
  77     0.018547169482
  78     0.015337666938
  79    -0.011907586515
  80     0.034958750756
  81    -0.285921511772
  82     0.794154831475
  83     0.458483936180
  84     0.043128124270
  85     0.004647827936
  86     0.012120751083
  87    -0.357434039070
  88    -0.001708135078
  89    -0.103170566452
  90    -0.368853087309
  91    -0.084463197722
  92    -0.140940315432
  93    -0.004651027147
  94     0.002827599689
  95     0.001823427458
  96     0.000902280995
  97    -0.000427502335
  98    -0.000552733180
  99     0.105689287027
  100   -0.061965973600
  101   -0.043723313427
  102    0.013897988798
  103    0.023081086942
  104    0.012966797156
  105   -0.011800001274
  106    0.001980838194
  107    0.000826553414
  108    0.005282225359
  109   -0.007257339670
  110   -0.011486203093
  111    0.010549137631
  112    0.004599766357
  113    0.010377265321
  114   -0.002657846273
  115    0.026267788409
  116   -0.070678711618
  117    0.582058427386
  118   -1.619020369536
  119   -1.045011508369
  120   -0.003210952724
  121    0.012266385732
  122    0.915077344638
  123    0.021552894166
  124   -0.115944193131
  125   -1.495042949348
  126    0.036816841966
  127   -0.064643623037
  128   -2.300191140419
  129   -0.019476275877
  130    0.000754007727
  131    0.018722268150
  132   -0.003848124167
  133    0.001995660666
  134    0.011358863182
  135    0.289283970870
  136    0.035046707937
  137   -0.324330678807
  138    0.043889263902
  139   -0.028328611168
  140   -0.191127984507
  141    0.005581096851
  142    0.020080499438
  143   -0.021019386683
  144   -0.004708640479
  145   -0.004244838490
  146    0.030314120119
  147   -0.002779186690
  148   -0.022695978570
  149   -0.002113653638
  150    0.003660491615
  151   -0.025480652468
  152    0.057253051432
  153    0.156935975847
  154   -0.001235528401
  155    0.008273697102
  156    0.006166117797
  157   -0.010723903751
  158    0.044223729805
  159    0.042187256048
  160    0.004051702432
  161   -0.001216761098
  162    0.008461183656
  163   -0.004987261917
  164   -0.046280743124
  165    0.178555980768
  166    0.004130565215
  167    0.002613919226
  168   -0.003093417121
  169   -0.025077459057
  170    0.066081671554
  171    0.165122754960
  172    0.000455401102
  173    0.009266422382
  174    0.005145632088
  175   -0.003573763331
  176   -0.050260430459
  177    0.167601675160
  178   -0.004396205074
  179    0.002234295654
  180   -0.002344612387
  181   -0.004226237721
  182    0.015405051647
  183    0.024088336615
  184   -0.002840521186
  185   -0.001061388718
  186    0.009784143692
  187    0.027060028581
  188   -0.369776566498
  189   -0.527045789629
  190    0.021900898156
  191   -0.004164734745
  192    0.012838513547
  193    0.029240077095
  194   -0.536392566964
  195   -0.639996370039
  196   -0.020411581610
  197   -0.011205817566
  198    0.013913025000
 Sym=     1a
 Ene= 6.32858053272410E-01
Spin= Alpha
 Occup= 0
  1      0.000478811786
  2      0.003816331289
  3     -0.025910018617
  4     -0.034229343519
  5      0.115439927800
  6      0.011100231533
  7     -0.078988443438
  8     -0.030628964240
  9      0.196409218280
  10     0.553129604379
  11     0.271247286663
  12     0.226730967303
  13     1.148698098331
  14     0.517877363477
  15    -0.004078044254
  16     0.000487209683
  17     0.003590834571
  18     0.004452374518
  19    -0.007004894050
  20    -0.009071972282
  21     0.042112676626
  22    -0.011566167970
  23    -0.030546508656
  24    -0.020453469518
  25     0.076473215418
  26     0.086277335460
  27    -0.000912184245
  28    -0.014148344149
  29    -0.003158982759
  30     0.005871965613
  31     0.004863210916
  32     0.002954453461
  33    -0.004648142025
  34     0.014118784655
  35     0.001283766652
  36    -0.003278688652
  37    -0.005629958284
  38     0.004833444036
  39    -0.052697874478
  40     0.081705706495
  41     0.108003802110
  42     0.002430588540
  43     0.885451328405
  44     0.025779233141
  45    -0.101597623348
  46    -1.185977188559
  47    -0.144541603690
  48    -0.055171257326
  49    -1.998998870463
  50    -0.320550036580
  51     0.002151406490
  52    -0.003269947379
  53     0.001118540889
  54     0.013391404421
  55     0.004340309469
  56     0.013519496014
  57    -0.042768498894
  58     0.068806161665
  59    -0.026037662771
  60    -0.188751684138
  61    -0.040850425891
  62    -0.161790432688
  63    -0.003196350640
  64     0.003782346306
  65     0.000723229753
  66     0.003651438766
  67    -0.006503800287
  68    -0.003069058979
  69     0.000636915620
  70     0.001429250214
  71     0.002098744445
  72     0.006161545082
  73    -0.033135654069
  74     0.137197005187
  75     0.075700959176
  76    -0.006151747357
  77     0.004535284894
  78     0.006611454809
  79     0.004348193932
  80    -0.003819290529
  81     0.115503338664
  82    -0.650332661161
  83    -0.262130771392
  84     0.004076676677
  85     0.017174653152
  86     0.002931158953
  87     0.279182042957
  88    -0.133989657200
  89     0.047222926500
  90     0.189702600569
  91    -0.139515010477
  92     0.014137581053
  93     0.002164609797
  94    -0.002486987026
  95     0.000322377229
  96    -0.002968211895
  97    -0.000309603878
  98    -0.002324475806
  99    -0.068278564506
  100    0.054415911589
  101    0.013862652917
  102    0.022043403333
  103   -0.021730967273
  104    0.021104113052
  105    0.006472666873
  106    0.001383859029
  107   -0.001767242700
  108   -0.002925037776
  109   -0.001129436970
  110    0.005846780995
  111   -0.005758956099
  112   -0.000727204746
  113   -0.003475776109
  114    0.000944543821
  115    0.000926064490
  116   -0.010206482416
  117   -0.011820437262
  118    0.412365930692
  119    0.060654945413
  120   -0.022442060830
  121    0.010090810728
  122    0.028581097164
  123    0.124718206230
  124    0.020327926674
  125    0.192497180936
  126    0.243241012160
  127    0.044551399294
  128    0.002315212357
  129    0.001823261893
  130   -0.000012752658
  131   -0.001810509235
  132   -0.000581237329
  133   -0.002039033793
  134    0.000851280334
  135   -0.039554262606
  136   -0.009274568144
  137    0.048828830750
  138    0.000302144230
  139    0.030035992336
  140    0.001563310253
  141    0.000287142316
  142    0.001641332086
  143   -0.000162935710
  144   -0.000410737427
  145   -0.001936737287
  146    0.000867235495
  147    0.000025495584
  148   -0.000265340783
  149   -0.000648634301
  150    0.002942741556
  151    0.000877372363
  152    0.131635140061
  153   -0.020793222764
  154   -0.005013904915
  155   -0.004765357640
  156   -0.005463294028
  157    0.002627046665
  158   -0.033989732357
  159   -0.022363029654
  160   -0.002899527932
  161    0.003558614302
  162   -0.001120790900
  163    0.010585651465
  164   -0.000303428043
  165   -0.062953438761
  166   -0.004210719043
  167    0.001247755303
  168    0.003123480011
  169   -0.013921586780
  170    0.865383663484
  171    0.622042962311
  172    0.016264533654
  173    0.014646142779
  174   -0.000078153389
  175   -0.000008118581
  176   -0.087692608695
  177   -0.014283758425
  178   -0.003041702570
  179    0.004318737092
  180   -0.002371486883
  181    0.053173605030
  182   -1.114782457059
  183   -0.492388012895
  184   -0.012883646116
  185    0.009470247154
  186    0.008002275162
  187   -0.007818085256
  188    0.157403653439
  189    0.056239985609
  190    0.000139666932
  191   -0.001907961607
  192    0.007345158300
  193    0.007802246099
  194   -0.048695102343
  195   -0.116639517216
  196   -0.004355681312
  197   -0.005770004590
  198    0.000281904445
 Sym=     1a
 Ene= 6.50875861145944E-01
Spin= Alpha
 Occup= 0
  1      0.001127278563
  2     -0.017651791463
  3      0.255156307202
  4     -1.274740395599
  5     -0.475534034678
  6     -0.045558706860
  7      0.019473840832
  8      0.038344186317
  9     -0.678563803573
  10    -0.540843532346
  11    -0.975686196342
  12    -1.035768855506
  13    -0.939347048057
  14    -1.686869742084
  15     0.005603026151
  16    -0.001196597807
  17    -0.004406428344
  18    -0.001630828521
  19     0.003588834786
  20    -0.001050910717
  21    -0.101113171023
  22     0.015331073476
  23     0.085782097547
  24    -0.017096605781
  25    -0.085019115140
  26     0.016877629484
  27     0.001843107705
  28     0.011140105716
  29    -0.003557740472
  30    -0.001277346853
  31     0.001353997753
  32     0.002195087593
  33    -0.001195441617
  34    -0.016300017947
  35     0.002578122132
  36    -0.004891420431
  37     0.007960634130
  38    -0.035169147907
  39     0.166306222222
  40     0.016094316252
  41    -0.173325310899
  42     0.053648744814
  43    -0.013693173502
  44    -0.035324712323
  45     0.029258654010
  46     0.125012759790
  47     0.134577324124
  48    -0.214137861416
  49     0.162629761802
  50     0.128837663613
  51    -0.000992245558
  52    -0.002198842972
  53     0.003191088530
  54    -0.002082674369
  55    -0.003057734064
  56     0.002991482124
  57     0.036791436018
  58     0.025930334121
  59    -0.062721770139
  60     0.037808409605
  61     0.039714839420
  62    -0.050426133348
  63     0.008485450323
  64     0.000142226978
  65    -0.000428915860
  66     0.000271946206
  67     0.002712669300
  68     0.008380001120
  69    -0.011656372451
  70    -0.002903486814
  71    -0.007804550108
  72    -0.009432276407
  73     0.037980922954
  74    -0.163321441513
  75    -0.108070738612
  76    -0.000218077869
  77     0.003581511619
  78    -0.000857432580
  79    -0.022905459529
  80     0.067459352992
  81    -0.548469402212
  82     1.563055381112
  83     0.977236144150
  84     0.918872991467
  85     0.005592367787
  86    -0.012900490612
  87    -1.561979671989
  88    -0.090040261716
  89     0.047672263046
  90    -2.336671290965
  91    -0.092491896771
  92     0.228390589791
  93    -0.017620131044
  94     0.004397548390
  95     0.013222582654
  96    -0.001965782117
  97    -0.013314512091
  98    -0.010089397388
  99     0.296210130130
  100   -0.107489121976
  101   -0.188721008154
  102    0.083369570320
  103    0.220594412553
  104    0.149357509592
  105   -0.015472205145
  106    0.002390890552
  107    0.006365698188
  108    0.009766007389
  109   -0.012182205493
  110   -0.025235990632
  111    0.010992134091
  112    0.008974489212
  113    0.016695510308
  114   -0.014220630857
  115    0.012074440494
  116   -0.027416870679
  117    0.319626723889
  118   -1.266083738988
  119   -0.563015004655
  120   -0.027142313626
  121    0.011157006698
  122    0.014426429669
  123    0.142761362623
  124   -0.260781232109
  125   -0.488733233160
  126    0.206462483049
  127   -0.212747190650
  128   -0.398928068658
  129   -0.001463633003
  130   -0.000763719755
  131    0.002227352758
  132   -0.002668149522
  133   -0.003041231238
  134    0.003190055225
  135    0.062140195105
  136    0.038535319560
  137   -0.100675514665
  138    0.029601609613
  139    0.053636329819
  140   -0.088134710139
  141   -0.005116905901
  142    0.008978116203
  143   -0.009011708902
  144   -0.001247998809
  145   -0.000543263283
  146    0.014224031605
  147    0.008113048466
  148   -0.011502143601
  149   -0.002133555386
  150    0.004979822007
  151   -0.015799841246
  152   -0.345958984458
  153    0.022970115962
  154    0.013192202388
  155    0.012446089217
  156    0.014675028413
  157   -0.046865549816
  158    0.300830901742
  159    0.229421304355
  160    0.014547651462
  161   -0.011629521071
  162    0.007328985542
  163   -0.032492480899
  164    0.800892708797
  165    0.786939530806
  166    0.013356430928
  167    0.004604653983
  168   -0.022805055138
  169    0.001033028255
  170   -0.019384830904
  171   -0.136000548856
  172   -0.001566694549
  173   -0.002898331680
  174    0.002284858750
  175    0.018250837480
  176   -0.075760936466
  177   -0.140276094732
  178    0.004675216097
  179   -0.005290093705
  180    0.006326831871
  181   -0.005691577866
  182    0.045355703371
  183    0.011101268948
  184    0.009298862346
  185    0.003235071438
  186   -0.000278591666
  187    0.021541641409
  188   -0.017943545877
  189   -0.076496892396
  190    0.005276232309
  191    0.001669928735
  192    0.005634248651
  193    0.011240659990
  194   -0.049274871036
  195   -0.226313959864
  196   -0.005003833555
  197   -0.000316443976
  198    0.000303549943
 Sym=     1a
 Ene= 6.64875974233919E-01
Spin= Alpha
 Occup= 0
  1     -0.001222563705
  2      0.015572938225
  3     -0.233923023710
  4      1.218637099174
  5      0.414979559496
  6     -0.056744220296
  7     -0.014058252390
  8     -0.037552293974
  9     -0.553836815962
  10     0.284594187772
  11     1.111455466508
  12    -0.786519444239
  13     0.481162747860
  14     1.908336581114
  15    -0.002975857969
  16    -0.000382741583
  17     0.003358599552
  18    -0.004728627213
  19     0.006263899148
  20     0.005004813457
  21     0.072954781851
  22    -0.007935066426
  23    -0.065019715425
  24     0.022755049510
  25    -0.119564413491
  26    -0.064986163684
  27     0.004628197988
  28    -0.009587628407
  29     0.005353834882
  30    -0.002530506757
  31    -0.002035920187
  32    -0.002095610584
  33    -0.003678872432
  34     0.014899073504
  35    -0.005087312658
  36     0.000461499910
  37     0.023440748337
  38    -0.065467140144
  39     0.536234429637
  40    -1.507062800213
  41    -0.960323438949
  42     0.922786009322
  43     0.006384525442
  44     0.006972971033
  45    -1.560977445927
  46    -0.032589131877
  47    -0.004895720581
  48    -2.406435095333
  49    -0.045140990644
  50    -0.164238374059
  51     0.011811371045
  52     0.000163622049
  53    -0.011974993094
  54     0.002530706685
  55    -0.020924415197
  56     0.003236727267
  57    -0.217946107900
  58     0.057090705781
  59     0.160855402119
  60    -0.009172548898
  61     0.325463562784
  62    -0.051956734677
  63    -0.009540455506
  64     0.002229051228
  65    -0.008644865987
  66     0.008524586567
  67     0.002293413910
  68     0.032848925773
  69     0.004275277661
  70    -0.005283999953
  71    -0.021250620971
  72    -0.002888295134
  73    -0.033853405090
  74     0.150382048186
  75     0.100953174769
  76     0.001663849341
  77    -0.004810887032
  78     0.000131614538
  79    -0.008064894539
  80     0.035860765587
  81    -0.163652521673
  82    -0.056950394758
  83     0.170639636781
  84     0.058352240108
  85     0.024380622410
  86     0.024678157790
  87     0.036150315018
  88    -0.065611277284
  89    -0.105336050322
  90    -0.211031998148
  91    -0.177127418157
  92    -0.050258958844
  93     0.000724855289
  94     0.001683933577
  95    -0.002408788866
  96    -0.001875915708
  97    -0.002366056782
  98    -0.003019188918
  99    -0.034911575295
  100   -0.017877004582
  101    0.052788579877
  102    0.026785038508
  103    0.033844446197
  104    0.048973256626
  105    0.005951724245
  106   -0.000691558881
  107    0.003750457372
  108    0.000083495417
  109   -0.002355222103
  110   -0.008221037380
  111   -0.008068571414
  112    0.003283045704
  113    0.003189270801
  114   -0.012217590561
  115   -0.012510986576
  116    0.027725799814
  117   -0.328438921517
  118    1.314835362326
  119    0.589071650856
  120   -0.020603332833
  121   -0.019311044878
  122   -0.009401281470
  123    0.091762052631
  124    0.330569654481
  125    0.462467095155
  126    0.141491189753
  127    0.284585529689
  128    0.367189472758
  129    0.001611410760
  130   -0.000857744443
  131   -0.000753666317
  132   -0.002429208945
  133   -0.001804880145
  134   -0.003848341898
  135   -0.060345640651
  136   -0.019687574149
  137    0.080033214800
  138    0.029726738701
  139    0.040576732723
  140    0.105718049048
  141   -0.008082502963
  142   -0.009452349915
  143    0.006082600235
  144    0.001669736251
  145   -0.000702067833
  146   -0.012343320168
  147    0.009174079381
  148    0.013383726007
  149    0.004182655605
  150    0.001029279036
  151    0.000420791517
  152   -0.026280991275
  153    0.121449546632
  154   -0.001017244321
  155    0.003936312438
  156   -0.001377283661
  157    0.012568883139
  158   -0.068257374189
  159   -0.026493838500
  160    0.011471869697
  161   -0.001175702088
  162   -0.001311428716
  163   -0.019926863327
  164    0.083616309394
  165    0.163853319274
  166    0.002277772837
  167    0.006413610968
  168   -0.008141690433
  169    0.016138325576
  170    0.275951620222
  171   -0.069420006270
  172    0.011893144234
  173   -0.011112383423
  174   -0.015666444221
  175    0.033645059852
  176   -0.943886636167
  177   -0.885851504109
  178    0.016131749113
  179   -0.001754261513
  180    0.024618847049
  181    0.028466986712
  182    0.053370277828
  183   -0.068337892753
  184    0.014198292548
  185    0.011650775899
  186   -0.010026280083
  187   -0.010391994079
  188    0.005259489497
  189    0.215429840930
  190   -0.005579802958
  191   -0.001217540395
  192   -0.001911935891
  193   -0.023270729990
  194    0.021136766531
  195    0.096949778492
  196    0.005908528611
  197   -0.000085643323
  198   -0.006490814155
 Sym=     1a
 Ene= 7.05596266964348E-01
Spin= Alpha
 Occup= 0
  1     -0.000161387490
  2     -0.000214357375
  3     -0.004694233495
  4      0.045979866421
  5      0.004213014439
  6     -0.004082639991
  7      0.027022277641
  8      0.839611130435
  9      0.076271431526
  10    -0.498802095951
  11    -1.522721084408
  12     0.151002718114
  13    -0.989261905894
  14    -4.065909164881
  15     0.007706043274
  16    -0.001152574901
  17    -0.006553468373
  18     0.000712420336
  19    -0.001288809927
  20    -0.005191934737
  21    -0.006725130711
  22    -0.007337902516
  23     0.014063033227
  24     0.001663512128
  25     0.001180398918
  26     0.015157958229
  27     0.000049101858
  28     0.010656087905
  29    -0.003636821186
  30    -0.002209480483
  31     0.000472452796
  32    -0.003706636326
  33     0.002143603428
  34    -0.014769094953
  35     0.008585943963
  36    -0.002342219849
  37    -0.008413372447
  38     0.007782567336
  39    -0.223406068371
  40     1.267376942918
  41     0.544599635699
  42     0.024955273568
  43    -0.010688696312
  44    -0.049646453557
  45     0.775610810896
  46     0.226813244898
  47     0.392460036866
  48     0.634428400757
  49     0.178625175457
  50     0.307620307868
  51    -0.006768741712
  52    -0.001778856847
  53     0.008547598559
  54    -0.003473031732
  55    -0.000096006633
  56     0.000552419338
  57     0.095493360777
  58     0.037600537967
  59    -0.133093898744
  60     0.054491888883
  61     0.026346168779
  62    -0.005765968083
  63     0.003225046740
  64    -0.003741714110
  65    -0.006268122256
  66     0.003836124085
  67     0.001930699994
  68     0.002589643389
  69    -0.008162978329
  70     0.003089336267
  71     0.005819925084
  72    -0.004794216785
  73     0.052734736659
  74    -0.364509242423
  75    -0.180986912384
  76    -0.001286216208
  77     0.007013284481
  78    -0.005204514694
  79    -0.006282166233
  80     0.006043538920
  81    -0.169739540109
  82     0.963814507866
  83     0.414538841964
  84    -0.017680223851
  85    -0.014412805987
  86    -0.043952483929
  87    -0.689093979381
  88     0.069103427072
  89     0.610184312868
  90    -0.562314486917
  91     0.048527231775
  92     0.485633418634
  93    -0.007909524507
  94    -0.000866343498
  95     0.008775868005
  96     0.002099400813
  97     0.003348643041
  98     0.000485493226
  99     0.111932275463
  100    0.020122412641
  101   -0.132054688104
  102   -0.038759817776
  103   -0.070348773651
  104   -0.010709252989
  105   -0.004371400938
  106   -0.003578054830
  107   -0.007341538520
  108    0.000711269754
  109    0.001618108673
  110    0.002930856427
  111    0.005153580039
  112    0.003182355624
  113    0.006918851087
  114    0.004477268316
  115    0.017699619065
  116   -0.013144890960
  117    0.423838950990
  118   -2.376989194457
  119   -1.014819698277
  120   -0.000116266702
  121   -0.022002145291
  122   -0.078106053542
  123   -0.044739902611
  124   -0.569550781185
  125   -0.582395800307
  126   -0.031951036165
  127   -0.485810573396
  128   -0.465100542297
  129   -0.001368625183
  130    0.000643801535
  131    0.000724823648
  132    0.000621547533
  133    0.000299615235
  134    0.003642223981
  135   -0.002359383700
  136   -0.002023827022
  137    0.004383210722
  138   -0.012334466576
  139   -0.005037915942
  140   -0.029805937431
  141    0.004799019636
  142    0.003254021195
  143    0.001441587050
  144   -0.004186839674
  145   -0.012819056845
  146    0.003789819161
  147   -0.002251720804
  148    0.008453329289
  149   -0.005723911145
  150    0.003151288364
  151   -0.042404367328
  152   -0.086939786863
  153    0.005392936207
  154    0.004400908474
  155    0.008590623338
  156    0.008370718073
  157   -0.034167084527
  158    0.171689774923
  159    0.080752891589
  160   -0.002216452952
  161   -0.003970938159
  162    0.001313623942
  163    0.023952040556
  164    0.279969790983
  165    0.160072009709
  166   -0.004351285545
  167   -0.003507531001
  168   -0.000356360767
  169   -0.043217861625
  170   -0.049056287689
  171    0.036755479405
  172   -0.004920507481
  173    0.007708253093
  174    0.009800989925
  175    0.017645525655
  176    0.286258930901
  177    0.177870915728
  178    0.002896522179
  179   -0.002324441440
  180   -0.001548434712
  181   -0.042551396594
  182    0.223315369502
  183    0.104709397230
  184    0.003871242599
  185   -0.004211828945
  186    0.000946769969
  187    0.026529397747
  188   -0.137794955647
  189   -0.178454283096
  190    0.010001672872
  191    0.003003598133
  192    0.006679699390
  193    0.031829327665
  194   -0.106412005555
  195   -0.165266106067
  196   -0.009931264127
  197    0.000538367256
  198    0.009475243893
 Sym=     1a
 Ene= 7.05720264655267E-01
Spin= Alpha
 Occup= 0
  1      0.000542227129
  2     -0.012414836029
  3      0.170087648093
  4     -0.797248251787
  5     -0.339200663749
  6     -0.050717989356
  7     -0.013823550109
  8     -0.082457745624
  9      1.155090717721
  10     0.212435806781
  11     0.443532675525
  12     2.036826755452
  13     0.349063639306
  14     0.891223138034
  15    -0.001687622577
  16    -0.002967567985
  17     0.004655190562
  18    -0.003908767884
  19    -0.002117813516
  20     0.000774156210
  21     0.009627022152
  22     0.040892604405
  23    -0.050519626557
  24     0.052800898193
  25     0.066579889583
  26    -0.002362537166
  27     0.015434114073
  28    -0.010870536103
  29    -0.000000589849
  30    -0.015547899037
  31     0.005210544708
  32     0.004787947994
  33    -0.005159137907
  34     0.009373809900
  35    -0.004787156628
  36     0.008367757003
  37    -0.012753615900
  38     0.041323843166
  39    -0.331427397781
  40     0.965279077213
  41     0.586250623100
  42     0.008979808898
  43     0.023105892515
  44     0.919944938614
  45     0.030887813702
  46    -0.190646251583
  47    -1.512862416538
  48    -0.159059912826
  49    -0.327267781269
  50    -2.405389428464
  51    -0.006609682416
  52     0.020937428794
  53    -0.014327746378
  54     0.006658409119
  55     0.005387273997
  56     0.005556478001
  57     0.118058986887
  58    -0.297462560594
  59     0.179403573707
  60    -0.082508691529
  61    -0.133723245997
  62    -0.044853743699
  63    -0.005295230526
  64    -0.000626119715
  65     0.003057031227
  66    -0.004156554779
  67    -0.000430258389
  68    -0.019145068999
  69     0.011260852027
  70     0.001270286136
  71     0.015043631219
  72     0.004944339122
  73    -0.019645695410
  74     0.111833652877
  75     0.055377491986
  76    -0.004873012379
  77     0.001179996446
  78     0.006946452654
  79     0.008823191662
  80    -0.011487046968
  81     0.260061630591
  82    -1.380080824065
  83    -0.512636782123
  84     0.026952147796
  85     0.005139017525
  86    -0.024052643026
  87     0.453702134778
  88     0.143869896044
  89     0.356352156198
  90     0.198078666462
  91     0.070170269660
  92     0.403455417693
  93    -0.000231897713
  94    -0.001263336102
  95     0.001495233815
  96     0.001198117077
  97     0.004050543559
  98    -0.000231345190
  99    -0.053603884492
  100    0.041931342167
  101    0.011672542325
  102   -0.057272354082
  103   -0.110874353883
  104   -0.027933692064
  105   -0.000087226593
  106   -0.001662367752
  107   -0.005027122248
  108   -0.002827648337
  109    0.002899246953
  110    0.011682864770
  111    0.002944675092
  112   -0.000668946574
  113   -0.004938272524
  114    0.006896451857
  115    0.002252157139
  116   -0.023807777696
  117    0.015687696191
  118    0.662262341782
  119    0.109034315049
  120    0.000508097038
  121    0.010735819393
  122    0.061846078454
  123   -0.170458949842
  124    0.188335615591
  125    0.147245147053
  126   -0.048493007589
  127    0.158020119905
  128   -0.133283361129
  129    0.000658432940
  130   -0.003171560419
  131    0.002513127479
  132    0.001566632337
  133    0.003953022580
  134    0.000102501204
  135   -0.037722418996
  136    0.028192483337
  137    0.009529935659
  138   -0.036355515605
  139   -0.070999891212
  140    0.033242544229
  141    0.010735192564
  142    0.000855921531
  143   -0.001958230866
  144   -0.004123726904
  145   -0.000062460923
  146    0.000999762278
  147   -0.010279045290
  148   -0.001085878312
  149    0.001627480121
  150   -0.005018881150
  151    0.013044035209
  152   -0.091020683242
  153   -0.191240582206
  154    0.002892213847
  155    0.001559388611
  156   -0.004846860389
  157    0.049918372601
  158   -0.218825759062
  159   -0.134414027956
  160    0.005317252241
  161    0.002463299570
  162   -0.002084822513
  163    0.012352243408
  164    0.024227231616
  165    0.010209854916
  166   -0.006531179529
  167    0.001358680245
  168   -0.002203838258
  169   -0.026409172578
  170    0.930473114807
  171    0.767957028212
  172    0.012556266258
  173    0.014652117920
  174    0.010247856238
  175    0.000211318439
  176   -0.890314779069
  177   -0.448619048352
  178   -0.017266581271
  179    0.000413814906
  180    0.016357979598
  181   -0.046743562041
  182    0.546341897650
  183    0.302660425116
  184    0.002802361887
  185   -0.008426964854
  186    0.010849887937
  187   -0.003232124685
  188   -0.043656402522
  189   -0.048665065824
  190   -0.002305447764
  191   -0.004815083638
  192   -0.003110357335
  193    0.007169012289
  194   -0.067609151262
  195   -0.090530971255
  196   -0.000685480034
  197   -0.007640972977
  198    0.001548660369
 Sym=     1a
 Ene= 7.27059226105388E-01
Spin= Alpha
 Occup= 0
  1      0.000422893316
  2     -0.010016176231
  3      0.134913660802
  4     -0.620231185929
  5     -0.272305582864
  6      0.047246455214
  7     -0.003969370914
  8     -0.095182268055
  9     -1.007704352299
  10     0.001897075222
  11     0.746743201911
  12    -1.777727535692
  13    -0.025796201619
  14     1.421891451796
  15    -0.003582495465
  16    -0.001019928520
  17     0.004602423985
  18     0.004385522350
  19     0.002434584579
  20     0.001028546310
  21     0.030571343992
  22     0.014382503188
  23    -0.044953847180
  24    -0.057467871037
  25    -0.061510711749
  26    -0.014536755587
  27    -0.011978728023
  28    -0.003247489197
  29    -0.000324755991
  30     0.015750375036
  31    -0.009420667898
  32     0.010472685056
  33     0.000320775050
  34     0.013777631859
  35    -0.010036979173
  36    -0.001193650650
  37     0.007676650188
  38    -0.006428758541
  39     0.236686226143
  40    -1.386556373599
  41    -0.488819756319
  42    -0.038364747047
  43    -0.000209552355
  44    -0.015020187598
  45    -0.426695726336
  46     0.021882433150
  47     0.402184467742
  48    -0.120231241596
  49     0.009584854305
  50     0.413337470437
  51    -0.000549511534
  52    -0.001391138063
  53     0.001940649597
  54    -0.000725203109
  55    -0.003073627427
  56    -0.001383968886
  57    -0.048184213349
  58     0.055838218382
  59    -0.007654005033
  60     0.021264705170
  61     0.117765798605
  62     0.001365735581
  63     0.001784946365
  64    -0.000059138130
  65    -0.003368499925
  66     0.003014365730
  67     0.000438509762
  68     0.010722976137
  69    -0.005409122574
  70    -0.000359167634
  71    -0.006203659248
  72    -0.000675838505
  73    -0.024722995900
  74     0.133079592741
  75     0.071175312631
  76     0.005358732996
  77     0.001661954586
  78     0.006304310276
  79    -0.009512262659
  80     0.031836722802
  81    -0.254588353858
  82     0.748576519246
  83     0.449541988347
  84    -0.014325951070
  85     0.020259426989
  86     0.923328916420
  87     0.023700109982
  88    -0.187306832307
  89    -1.518039876328
  90     0.224886885873
  91    -0.275445083507
  92    -2.463702720033
  93    -0.001538583360
  94     0.016238731263
  95    -0.014700147903
  96    -0.012668428857
  97    -0.006213259189
  98     0.006880474838
  99     0.053777162774
  100   -0.226853053933
  101    0.173075891159
  102    0.175035586208
  103    0.120950192741
  104   -0.051495725005
  105    0.002500775071
  106    0.001561715631
  107    0.004865653454
  108    0.003615632320
  109   -0.002419148142
  110   -0.014460390048
  111   -0.006970774154
  112    0.000323886755
  113    0.007932430922
  114   -0.011587076349
  115    0.000457399227
  116   -0.019796225448
  117   -0.031146509870
  118    0.846893359294
  119    0.191254680294
  120    0.009250160405
  121    0.009527076468
  122    0.059587671403
  123    0.120536957300
  124    0.266296977439
  125    0.193081937567
  126   -0.036612794328
  127    0.197140176019
  128   -0.081974899611
  129    0.000337855755
  130   -0.003537091746
  131    0.003199235991
  132   -0.000093749939
  133   -0.003072743298
  134   -0.001175640862
  135   -0.041206059081
  136    0.035890927817
  137    0.005315131264
  138    0.017309855535
  139    0.060505852394
  140    0.059411018101
  141   -0.008224537228
  142    0.001523215339
  143   -0.003839673236
  144    0.003100580371
  145   -0.003808641809
  146    0.001470533525
  147    0.007933794225
  148    0.001765033984
  149    0.003680928696
  150    0.004585948238
  151   -0.023875345841
  152    0.979159127228
  153    0.766017894865
  154   -0.016034122667
  155    0.009398468181
  156    0.010120190182
  157   -0.041153263902
  158    0.520653383030
  159    0.277826015755
  160   -0.001337980237
  161   -0.007233040776
  162    0.009866849323
  163    0.004986107048
  164   -1.015759752694
  165   -0.566944339926
  166    0.017012597253
  167    0.004134567369
  168    0.017244960562
  169    0.013365200605
  170   -0.092319768796
  171   -0.175833676168
  172   -0.003799941006
  173    0.001217325772
  174   -0.004743280363
  175    0.009565091206
  176    0.035148343370
  177    0.031280749664
  178    0.004866225067
  179    0.003482439798
  180   -0.004062622405
  181    0.050907855105
  182   -0.226767048887
  183   -0.135849513098
  184   -0.007410722986
  185    0.000488099347
  186   -0.001256351845
  187    0.003907823529
  188   -0.066163556130
  189   -0.079217344324
  190    0.001712320062
  191   -0.007592778801
  192    0.000378672683
  193   -0.004615107915
  194   -0.039599798206
  195   -0.018852603005
  196    0.003607107324
  197   -0.004138665333
  198   -0.003719783922
 Sym=     1a
 Ene= 7.33937927525423E-01
Spin= Alpha
 Occup= 0
  1     -0.033587219897
  2      0.035426078712
  3     -0.163813521412
  4      1.417048714942
  5     -1.798030645800
  6     -0.000709772109
  7     -0.043241717209
  8     -0.088590318980
  9      0.023748412984
  10     0.698684241171
  11     1.611405900278
  12     0.087221935509
  13     1.099998576090
  14     3.249654853760
  15    -0.021364077295
  16     0.015066656529
  17     0.006297420766
  18    -0.004490746337
  19     0.001157109106
  20     0.009990576277
  21     0.392099634853
  22    -0.240826509282
  23    -0.151273125571
  24     0.077263126460
  25    -0.024023925122
  26    -0.190680096928
  27     0.004657208242
  28    -0.048958406259
  29    -0.014427753155
  30     0.006531289856
  31    -0.009070668201
  32     0.012970247339
  33    -0.012779590385
  34     0.074755262880
  35     0.006386614751
  36     0.008378074152
  37     0.002621563315
  38    -0.023253348847
  39     0.316430087624
  40    -1.398714741333
  41    -0.030098911520
  42     0.072571533691
  43     0.008768244684
  44     0.034346154982
  45    -0.788263913902
  46     0.099031929079
  47     0.175444853060
  48    -0.685501570003
  49    -0.379357659568
  50    -0.243730739972
  51     0.032315093686
  52    -0.001636379933
  53    -0.030678713753
  54     0.001906182532
  55     0.001255461266
  56    -0.009204221515
  57    -0.425291761697
  58     0.126523524419
  59     0.298768237278
  60    -0.007483730059
  61     0.166203863637
  62     0.176417557960
  63    -0.039104943969
  64     0.006058404111
  65    -0.017923080687
  66     0.026924680384
  67    -0.018334206020
  68     0.035834640114
  69     0.025540107398
  70     0.010206003964
  71    -0.011788304044
  72     0.009091399825
  73     0.557913604656
  74    -4.091945059171
  75     6.039552145624
  76     0.086677358408
  77    -0.643400046872
  78     0.127363841259
  79     0.002479319031
  80    -0.023038495085
  81     0.314096756123
  82    -1.387257456919
  83    -0.017877349202
  84    -0.066751475350
  85    -0.008349592099
  86     0.044182020635
  87     0.752303645807
  88     0.289011139221
  89     0.066174186398
  90     0.717967777991
  91    -0.215968894925
  92    -0.355982230669
  93     0.030247498142
  94    -0.000958730712
  95    -0.029288767430
  96     0.005983048051
  97    -0.009003114744
  98    -0.010704172631
  99    -0.430735499207
  100    0.101331708790
  101    0.329403790417
  102   -0.125155459355
  103   -0.082290572759
  104    0.153512000956
  105    0.050287839085
  106   -0.010511572578
  107   -0.007565379453
  108   -0.029923180045
  109    0.011267020017
  110    0.018110127744
  111   -0.037545035936
  112    0.002835734484
  113   -0.007960106104
  114    0.003512948569
  115    0.002555644069
  116   -0.040077734123
  117   -0.563564250549
  118    3.950226503363
  119   -1.705334964646
  120   -0.016531134500
  121    0.076734402229
  122   -0.104435602737
  123    0.350586758234
  124   -1.935148023349
  125    1.674448928477
  126   -0.367413814409
  127    3.163041334985
  128    0.232550296652
  129   -0.033332788831
  130    0.049315390002
  131   -0.015982601171
  132   -0.012732482598
  133    0.003342295483
  134   -0.015348602061
  135   -0.737024359660
  136    0.841558356642
  137   -0.104533996982
  138   -0.226234808127
  139    0.056582131408
  140   -0.022520951018
  141   -0.026398327095
  142   -0.170889260805
  143   -0.071092290457
  144    0.060992678870
  145    0.109168720512
  146    0.029792422191
  147   -0.025575606544
  148    0.120103281760
  149    0.065587894292
  150   -0.004741355422
  151   -0.012516894709
  152   -0.193501722494
  153    0.101961388172
  154   -0.011111578932
  155    0.027639395696
  156    0.009241617407
  157    0.038152414917
  158    0.132800874973
  159   -0.490150856529
  160   -0.021993921113
  161    0.023586135855
  162   -0.013069155219
  163   -0.013075916955
  164    0.024435841574
  165   -0.310381208406
  166    0.005561939589
  167    0.013758782202
  168    0.012239122204
  169   -0.012061723892
  170   -0.192161350783
  171    0.091118989960
  172    0.004763810581
  173    0.029506544083
  174    0.007242500691
  175   -0.013770717488
  176    0.027024062401
  177   -0.304640800090
  178   -0.006504421172
  179    0.011864216773
  180    0.012898284722
  181    0.038055016289
  182    0.136769723061
  183   -0.488692659266
  184    0.013437560404
  185    0.028142838726
  186   -0.016528420528
  187   -0.002547217779
  188    0.572648621148
  189   -0.263452485055
  190    0.042680926541
  191   -0.002219430560
  192    0.040563721178
  193   -0.002571968980
  194    0.574733725441
  195   -0.263094148756
  196   -0.035267749743
  197   -0.011299272657
  198    0.046031028753
 Sym=     1a
 Ene= 7.34321516113410E-01
Spin= Alpha
 Occup= 0
  1     -0.033559009339
  2      0.035377016034
  3     -0.163365646318
  4      1.415985470470
  5     -1.798216652871
  6     -0.082706910127
  7      0.003353862361
  8      0.053302025142
  9      1.486320576274
  10    -0.132764247153
  11    -0.921406356305
  12     2.936564529925
  13    -0.519993249440
  14    -1.685336606063
  15     0.002161083404
  16     0.001926061503
  17    -0.004087144907
  18     0.000873854903
  19    -0.019032817476
  20    -0.014907252462
  21    -0.064749965346
  22    -0.014959880839
  23     0.079709846185
  24     0.001440634115
  25     0.360110896065
  26     0.248593308809
  27     0.020750188393
  28    -0.007817843964
  29    -0.002907158001
  30    -0.055367188967
  31     0.038331200396
  32    -0.024229837059
  33     0.027527889891
  34    -0.027842462072
  35     0.028130198806
  36    -0.000857372682
  37     0.002543175409
  38    -0.040076147154
  39    -0.563085400496
  40     3.947537380088
  41    -1.707853893633
  42    -0.072613820518
  43     0.108283907609
  44    -0.008095647003
  45     1.025734641782
  46    -2.312103073980
  47     0.522728859412
  48     0.811206994170
  49     2.480374124145
  50    -1.836343582243
  51    -0.022745084329
  52     0.034257336711
  53    -0.011512252382
  54    -0.001748842250
  55    -0.008471022460
  56    -0.040681070623
  57    -0.245945134302
  58     0.446371138470
  59    -0.200426004168
  60     0.001881608002
  61    -0.401427378980
  62    -0.731142387153
  63     0.026405686347
  64    -0.061216277759
  65    -0.097901064772
  66    -0.043580432869
  67     0.131986408733
  68    -0.027770727697
  69     0.008153487070
  70    -0.049856153693
  71     0.159118789236
  72     0.017757906356
  73     0.038062328982
  74     0.133382016082
  75    -0.489148677448
  76     0.001997020639
  77     0.034485255437
  78     0.004247568263
  79     0.002625565817
  80    -0.023258231882
  81     0.315680273557
  82    -1.393495817301
  83    -0.030350483735
  84    -0.002945373249
  85    -0.045003846923
  86    -0.066960349187
  87     0.535216123642
  88     0.414557864212
  89     0.446414404650
  90     0.057665170247
  91     0.169421206819
  92     0.797158909634
  93    -0.019194765378
  94     0.006918720549
  95     0.012276044829
  96     0.014653413906
  97     0.026717254803
  98     0.010541057593
  99     0.055298274542
  100   -0.023443063938
  101   -0.031855210604
  102   -0.160284773863
  103   -0.449875611905
  104   -0.133537728635
  105   -0.014658496488
  106   -0.016148832703
  107   -0.008831938836
  108   -0.017338605263
  109    0.014155341037
  110    0.026122027687
  111    0.037005042020
  112    0.007510591572
  113   -0.014272738320
  114    0.029904744171
  115    0.002474541912
  116   -0.023041877705
  117    0.313865447567
  118   -1.385946413193
  119   -0.018503059264
  120    0.068799717623
  121    0.010833217924
  122    0.040386226303
  123   -0.257247718781
  124   -0.201596162816
  125   -0.739557297909
  126   -0.675227835072
  127   -0.393419327468
  128   -0.271645708770
  129   -0.012073101598
  130    0.001255101356
  131    0.010818000242
  132    0.013700548881
  133    0.032105576099
  134    0.004070490298
  135    0.261031511589
  136   -0.031944529832
  137   -0.229086981757
  138   -0.075485185389
  139   -0.348322403565
  140   -0.201747654441
  141    0.028536175133
  142    0.023341028844
  143   -0.004641947899
  144   -0.011262926033
  145    0.007507726220
  146    0.010974698244
  147   -0.027022370416
  148   -0.038823002516
  149   -0.004746871614
  150   -0.026702233727
  151   -0.013912598570
  152    0.028396371867
  153   -0.303227328789
  154    0.015845313067
  155    0.007062233709
  156   -0.006691476594
  157    0.037967795566
  158    0.136040618046
  159   -0.485893385915
  160   -0.016902110918
  161    0.020725303143
  162   -0.022746654953
  163   -0.012021402114
  164   -0.192547530705
  165    0.090250862004
  166    0.008247534034
  167    0.016869721604
  168   -0.024414530883
  169   -0.002444547223
  170    0.572635650078
  171   -0.264229092357
  172    0.014978499241
  173   -0.040360694696
  174   -0.040344995570
  175   -0.002538128503
  176    0.574329923906
  177   -0.262971658219
  178    0.055125200663
  179   -0.008705219318
  180    0.019379883291
  181    0.558387849560
  182   -4.092514148324
  183    6.038455506836
  184   -0.018632531802
  185   -0.580855795215
  186    0.316052129393
  187   -0.013172604735
  188    0.024743039857
  189   -0.309175213844
  190    0.009887254883
  191    0.002476523063
  192   -0.016226666056
  193   -0.012527989807
  194   -0.193463547368
  195    0.100502054687
  196    0.016987773676
  197    0.022839842803
  198   -0.012670474110
 Sym=     1a
 Ene= 7.34578125509997E-01
Spin= Alpha
 Occup= 0
  1     -0.033584985994
  2      0.035429665580
  3     -0.163885452027
  4      1.418026913861
  5     -1.798148576945
  6      0.085710808870
  7      0.024405529980
  8      0.041920550485
  9     -1.518036591080
  10    -0.508688745878
  11    -0.718020192348
  12    -2.916975577189
  13    -1.254772205542
  14    -1.292439586207
  15     0.007742863559
  16     0.001366356315
  17    -0.009109219874
  18    -0.001818346292
  19     0.020170470300
  20    -0.009791833907
  21    -0.159863692685
  22    -0.013752162266
  23     0.173615854951
  24     0.000964936428
  25    -0.369175091586
  26     0.159060251464
  27    -0.038251480233
  28     0.026583574614
  29     0.003835486801
  30     0.064207946012
  31    -0.005047948708
  32    -0.019707966129
  33    -0.012888199988
  34    -0.030617659245
  35     0.014562120601
  36    -0.019870331409
  37     0.002409059929
  38    -0.022865046054
  39     0.311908747755
  40    -1.377397453680
  41    -0.013040282363
  42     0.004068331755
  43    -0.043914910684
  44    -0.067268804634
  45    -0.548418165837
  46     0.278483158404
  47     0.519726372139
  48     0.031403593204
  49     0.165450261108
  50     0.810334739026
  51    -0.017970881016
  52    -0.000660542124
  53     0.018631423140
  54    -0.019513722376
  55    -0.023186826866
  56     0.006933129764
  57     0.098013881323
  58     0.046295649358
  59    -0.144309530681
  60     0.165776973137
  61     0.444004561845
  62    -0.045769337057
  63     0.017751781432
  64    -0.004947936438
  65     0.004606719319
  66     0.022107125994
  67     0.003231698337
  68     0.020832752124
  69    -0.045923639997
  70     0.003406654998
  71    -0.027013314654
  72    -0.017329387380
  73     0.038137611628
  74     0.137590447563
  75    -0.489290408388
  76    -0.009186286687
  77     0.033865625543
  78     0.005079763407
  79     0.002523550955
  80    -0.040006808443
  81    -0.563584176854
  82     3.948415261458
  83    -1.705859057150
  84     0.041817337143
  85     0.122923686415
  86    -0.015675490991
  87    -0.341248426711
  88    -2.487983376202
  89     0.605930973009
  90    -1.648511227071
  91     2.183865339405
  92    -1.643969277033
  93    -0.015330578188
  94     0.030811994559
  95    -0.015481416371
  96    -0.019274097888
  97     0.019119780428
  98    -0.035439545376
  99    -0.064020970646
  100    0.391103669495
  101   -0.327082698849
  102   -0.271223378475
  103    0.550969304509
  104   -0.585986307107
  105   -0.086232798653
  106   -0.012632507997
  107   -0.095526509540
  108    0.127888889740
  109    0.052914939816
  110    0.005625225402
  111   -0.012195449933
  112   -0.035966651851
  113    0.122537035989
  114   -0.086502370337
  115    0.002684344675
  116   -0.023406193327
  117    0.317964318613
  118   -1.405308608760
  119   -0.035741303730
  120   -0.063055017687
  121   -0.005447438881
  122    0.050242904656
  123    0.194131504310
  124   -0.147917311209
  125   -0.778807487846
  126    0.690514438797
  127   -0.224105156047
  128   -0.379067304598
  129   -0.013241451049
  130   -0.005122416150
  131    0.018363867199
  132   -0.016638377975
  133   -0.027845680345
  134   -0.001462526189
  135    0.298850921459
  136    0.012366495706
  137   -0.311217417165
  138    0.134396831989
  139    0.297843324381
  140   -0.136850439071
  141   -0.026509433757
  142    0.028160322513
  143   -0.014297114484
  144    0.004489466671
  145    0.000287591802
  146    0.014625696204
  147    0.031076670884
  148   -0.038068629046
  149    0.004555895717
  150    0.023260384847
  151   -0.002304502269
  152    0.573755736210
  153   -0.266628068975
  154   -0.010031195985
  155   -0.043408485045
  156   -0.038798248807
  157    0.558504656880
  158   -4.093235092831
  159    6.038453746474
  160    0.205443093723
  161   -0.554913740868
  162    0.296337348926
  163   -0.002611066043
  164    0.573236902374
  165   -0.260972399664
  166   -0.047983333148
  167   -0.021813652596
  168    0.026472089253
  169   -0.013064013801
  170    0.024753340083
  171   -0.309738240154
  172   -0.018550820716
  173    0.003304847129
  174   -0.004012026635
  175   -0.012603351424
  176   -0.194176912415
  177    0.103069059423
  178   -0.016060654739
  179    0.013284354302
  180   -0.023382637675
  181    0.037989970415
  182    0.131756202056
  183   -0.487044554756
  184    0.007429844402
  185    0.022974885118
  186   -0.024654955893
  187   -0.012002034686
  188   -0.191804054470
  189    0.088820002543
  190   -0.022599923469
  191    0.018267543574
  192   -0.009803512394
  193   -0.013861070698
  194    0.027184712119
  195   -0.303367859418
  196   -0.012291505783
  197   -0.000271028485
  198   -0.013935397811
 Sym=     1a
 Ene= 7.46135419306401E-01
Spin= Alpha
 Occup= 0
  1     -0.000070975040
  2     -0.000058144277
  3     -0.001956826551
  4      0.017343830520
  5      0.001929592195
  6      0.849418529127
  7      0.009948301509
  8     -0.004177564831
  9     -1.702082780489
  10    -0.183825228057
  11     0.075664828588
  12    -4.421939386382
  13    -0.364373134212
  14     0.150614618517
  15     0.000627498006
  16     0.000866428042
  17    -0.001493926048
  18     0.002736868620
  19     0.010069017282
  20     0.000713707770
  21     0.001000637210
  22    -0.004850256172
  23     0.003849618962
  24    -0.003916239048
  25    -0.016371239555
  26     0.001642026508
  27    -0.009611237698
  28     0.004012530392
  29    -0.000305244538
  30     0.014575751699
  31    -0.006083998504
  32     0.002744436734
  33    -0.001680923195
  34     0.000700624072
  35    -0.002334908212
  36    -0.008962266813
  37     0.015745728327
  38    -0.012194330366
  39     0.384269867834
  40    -2.160195529301
  41    -0.924026130434
  42    -0.074298875345
  43     0.003319405120
  44     0.022259940935
  45    -0.297528272809
  46     0.093755601840
  47     0.838910254173
  48    -0.245988544804
  49     0.058187626250
  50     0.685928446579
  51    -0.002639280726
  52    -0.002905680624
  53     0.005544961350
  54    -0.001853851651
  55    -0.003990439074
  56    -0.000630842528
  57     0.056574632447
  58     0.032523330511
  59    -0.089097962958
  60     0.033161894322
  61     0.032590350942
  62    -0.000365822690
  63     0.007562073739
  64     0.004462138716
  65     0.006704825879
  66    -0.012314662787
  67    -0.002774479485
  68    -0.001289752989
  69     0.002169076228
  70    -0.003212107812
  71    -0.007705714877
  72    -0.003506103874
  73    -0.001544560869
  74    -0.004796790816
  75    -0.003123717922
  76     0.001279044145
  77     0.000361869134
  78     0.000176551900
  79    -0.015302499310
  80     0.012630481106
  81    -0.384398727008
  82     2.167675613653
  83     0.928708295730
  84    -0.076153379345
  85    -0.018031615792
  86    -0.015703162810
  87    -0.396747427941
  88    -0.263548896524
  89    -0.732849853966
  90    -0.334100844362
  91    -0.205980207271
  92    -0.598213885859
  93     0.002147310273
  94     0.001467081283
  95    -0.003614391556
  96    -0.002335647671
  97    -0.005258953800
  98    -0.000089548809
  99    -0.058627810577
  100   -0.008712542921
  101    0.067340353498
  102    0.029733935494
  103    0.052278032197
  104    0.003368963279
  105    0.004409308332
  106   -0.010346649568
  107   -0.007477804974
  108   -0.004840535706
  109    0.009580330500
  110    0.002543679714
  111   -0.001075172192
  112    0.004301156564
  113    0.007488848433
  114   -0.004807904297
  115    0.000642251858
  116   -0.000123499710
  117    0.011188385931
  118   -0.061738295892
  119   -0.025280060819
  120   -0.038197013371
  121   -0.002612495140
  122    0.000676146906
  123    1.016628640839
  124    0.068979272333
  125   -0.064879465968
  126    0.815702327317
  127    0.052145523101
  128   -0.048800816327
  129    0.001145302655
  130   -0.001873542474
  131    0.000728239819
  132   -0.008969299291
  133   -0.008079610647
  134    0.000008695446
  135   -0.016994864101
  136    0.030558024758
  137   -0.013563160657
  138    0.140173904961
  139    0.130049232580
  140   -0.000053908907
  141   -0.006566266768
  142   -0.000281230903
  143   -0.002354774679
  144   -0.001264916092
  145   -0.001070006180
  146    0.002414521638
  147    0.010074487404
  148    0.001447317030
  149    0.000744740115
  150    0.001084950258
  151   -0.005129289110
  152    0.260895353832
  153    0.214010433315
  154   -0.000852563070
  155    0.002037612610
  156    0.006042851479
  157   -0.060196731950
  158    0.356577723355
  159    0.171736428353
  160   -0.001706355696
  161   -0.008539242370
  162    0.000990992276
  163   -0.043528144621
  164    0.051223759332
  165    0.125813922831
  166    0.013905003099
  167    0.003414000153
  168   -0.005912226202
  169    0.005340507858
  170   -0.241550280662
  171   -0.208570675588
  172   -0.001203538553
  173   -0.002230060386
  174   -0.006416867448
  175    0.045719088793
  176   -0.016681884382
  177   -0.113856709081
  178    0.016039436391
  179    0.000362815356
  180    0.003884154979
  181    0.052887914877
  182   -0.340740973055
  183   -0.167242187866
  184   -0.002989982726
  185    0.007703864860
  186   -0.001154026891
  187    0.040821414098
  188    0.225553640545
  189    0.090120490169
  190    0.005895648314
  191    0.000662048884
  192    0.009517868199
  193   -0.037960501394
  194   -0.211240480428
  195   -0.093848851715
  196    0.003610468509
  197    0.000812053760
  198   -0.009496362750
 Sym=     1a
 Ene= 7.83412476798888E-01
Spin= Alpha
 Occup= 0
  1     -0.000066509222
  2     -0.000472394589
  3      0.002336538363
  4      0.012525571014
  5     -0.013614768806
  6     -0.122693459603
  7     -0.008127492392
  8      0.000523901540
  9      1.309558129517
  10     0.107329887934
  11    -0.072051265758
  12     2.407820502545
  13     0.185881569464
  14    -0.104949014387
  15     0.001766478104
  16    -0.002945445206
  17     0.001178967102
  18    -0.005919524549
  19    -0.004324947699
  20    -0.001113496860
  21    -0.019531510119
  22     0.030646800481
  23    -0.011115290362
  24     0.069472287450
  25     0.064079661988
  26     0.010757442165
  27     0.008050058807
  28    -0.006576623566
  29    -0.000782372104
  30    -0.021997356831
  31     0.008034680413
  32    -0.001676315793
  33     0.011197069601
  34     0.000788786000
  35     0.002725978117
  36     0.013395769936
  37    -0.004747237815
  38    -0.006707655137
  39    -0.168290345007
  40     1.348157097360
  41     0.421371876903
  42     0.032663672994
  43    -0.027491623960
  44    -0.033997964355
  45     0.392313003905
  46     0.079715326134
  47    -0.357966577024
  48     0.203927084819
  49     0.235381855585
  50    -0.088117144834
  51     0.001579873308
  52    -0.001070668469
  53    -0.000509204839
  54    -0.002160226949
  55     0.002489505333
  56     0.001353567829
  57     0.027066865183
  58    -0.040057231741
  59     0.012990366558
  60     0.005494661130
  61    -0.110871627622
  62    -0.013750990865
  63    -0.002720201689
  64    -0.002694381513
  65     0.001310972317
  66    -0.003262452595
  67     0.000397890082
  68    -0.005984188061
  69     0.006911986129
  70     0.003217002049
  71     0.004225334131
  72     0.000682259209
  73    -0.007870009924
  74     0.167156130825
  75     0.073366049738
  76     0.008361234204
  77     0.001018848594
  78     0.002090868160
  79     0.003826088040
  80     0.009216600975
  81     0.149741261462
  82    -1.305765053505
  83    -0.386962299384
  84     0.030809425897
  85     0.035085749842
  86     0.035199618197
  87     0.451786192800
  88     0.048133351793
  89     0.251657068355
  90     0.272313215403
  91    -0.173356975791
  92    -0.008049475929
  93     0.000447891131
  94     0.000363217346
  95    -0.000811108477
  96    -0.001885936876
  97     0.002479635890
  98    -0.000531638413
  99    -0.053744254694
  100    0.031318472283
  101    0.022425782411
  102   -0.027116360282
  103   -0.096580278004
  104   -0.008115284841
  105   -0.000456770621
  106    0.000447630430
  107   -0.003511197165
  108   -0.003775447973
  109    0.001103783081
  110    0.006131778858
  111    0.004388270069
  112   -0.001704342323
  113   -0.001421013532
  114    0.002544003666
  115    0.000982068538
  116   -0.001113677562
  117    0.011034440100
  118   -0.020809482200
  119   -0.021706039950
  120    0.936912190098
  121    0.008461984060
  122   -0.002545750647
  123   -1.583366202892
  124   -0.057708180398
  125    0.032565632942
  126   -2.669067732490
  127   -0.106393951585
  128    0.038435284718
  129   -0.007684823893
  130    0.006352095537
  131    0.001332728356
  132    0.023007104527
  133   -0.002553018081
  134   -0.003019543326
  135    0.091133774638
  136   -0.076574953804
  137   -0.014558820834
  138   -0.275294072796
  139    0.008489675536
  140    0.039229729346
  141    0.008482701846
  142    0.000220797580
  143    0.000574064926
  144    0.000175142223
  145    0.000064805076
  146   -0.000107324495
  147   -0.011555881000
  148   -0.000361036115
  149   -0.000662864423
  150   -0.006192096170
  151    0.001838442485
  152    0.063746945052
  153    0.079540822525
  154   -0.005725049956
  155    0.005175563016
  156   -0.003948945373
  157    0.047154593249
  158   -0.222319009521
  159   -0.126167062679
  160    0.003754848039
  161    0.005499661113
  162    0.007954252081
  163    0.011369922349
  164   -0.053689185286
  165   -0.096557228026
  166   -0.004096159464
  167    0.004802321526
  168    0.001867597435
  169   -0.004936483392
  170   -0.056671048773
  171   -0.051771083988
  172   -0.002998887808
  173   -0.005109287915
  174    0.005810140739
  175   -0.009988149207
  176    0.009075312441
  177    0.090004598547
  178   -0.005162382423
  179   -0.004724557122
  180   -0.000874981377
  181   -0.042817192564
  182    0.206475382120
  183    0.119737232207
  184    0.003301474859
  185   -0.005039073366
  186   -0.006311892060
  187    0.018512768885
  188   -1.243309624662
  189   -0.838420101700
  190    0.017461345861
  191   -0.012915496816
  192   -0.014926754036
  193   -0.015999441403
  194    1.123746857364
  195    0.743989727282
  196    0.013609354727
  197    0.013732125802
  198    0.012378220531
 Sym=     1a
 Ene= 1.08030492177058E+00
Spin= Alpha
 Occup= 0
  1     -0.006688966806
  2      0.003825484561
  3     -0.142095858904
  4      1.049430841793
  5      0.007513294428
  6      0.012228065334
  7      0.030433678543
  8      0.028273020738
  9     -0.799743776503
  10    -0.789928159935
  11     0.230237829014
  12    -0.633853210692
  13    -0.827073570525
  14    -0.273486835056
  15    -0.029712624604
  16     0.018774729834
  17     0.010937894770
  18    -0.066745320046
  19     0.006359815568
  20     0.072656635975
  21     0.386262334843
  22    -0.268777919154
  23    -0.117484415689
  24     0.607080733882
  25    -0.239948057157
  26    -0.641002968498
  27    -0.012425094773
  28     0.126584227491
  29    -0.014813059795
  30     0.048004061260
  31    -0.121511940944
  32     0.049394189581
  33    -0.031334047337
  34    -0.048318621586
  35    -0.029520384387
  36     0.152566475763
  37     0.004130961890
  38    -0.005247500619
  39     0.171118799330
  40    -0.987325990381
  41    -0.262455481246
  42    -0.007347014631
  43    -0.162910688115
  44    -0.046267995887
  45    -0.340626013580
  46     1.084185201645
  47     0.819629987939
  48    -0.081494679258
  49     0.526326278741
  50     0.256484729199
  51    -0.009696670297
  52     0.009862210272
  53    -0.000165539975
  54     0.355010911155
  55     0.000120179148
  56    -0.001207499801
  57    -0.135045328534
  58     0.128035948548
  59     0.007009379986
  60     1.580458913655
  61     0.196944487164
  62    -0.118410336480
  63     0.018530967358
  64    -0.075364902766
  65    -0.030562999961
  66    -0.030070672823
  67     0.092683531416
  68     0.030125379400
  69     0.005208771202
  70     0.008429096006
  71     0.010879187906
  72    -0.086202386305
  73     0.027738581111
  74    -0.097414945190
  75    -0.026159526927
  76    -0.010728255179
  77    -0.012965523518
  78    -0.011275702141
  79    -0.007361045153
  80     0.020833573626
  81    -0.187024530556
  82     0.559190284138
  83     0.246033481316
  84     0.013258085605
  85    -0.027817708069
  86     0.006179588596
  87    -0.252989073566
  88     0.174210771172
  89     0.158679242979
  90    -0.139390609071
  91     0.102188265977
  92    -0.059119102923
  93    -0.008310718357
  94     0.000054328562
  95     0.008256389795
  96     0.004647008451
  97    -0.001263310364
  98    -0.003744676116
  99     0.051324245457
  100    0.045435553627
  101   -0.096759799084
  102   -0.095601723837
  103   -0.001042563162
  104    0.090673612276
  105   -0.008912718639
  106   -0.000713360716
  107   -0.002966669764
  108    0.008239349992
  109    0.000684532505
  110    0.002705624125
  111    0.003718316853
  112    0.000272541327
  113    0.001274581030
  114   -0.010069694866
  115    0.012011845758
  116   -0.017389656121
  117    0.155285373907
  118   -0.215631595791
  119   -0.128652744374
  120   -0.007115564897
  121   -0.015905549150
  122    0.023072554072
  123    0.056608506864
  124   -0.029297729457
  125   -0.060026290802
  126    0.047021241406
  127    0.051994311555
  128   -0.074257841693
  129   -0.002683885940
  130   -0.000275903236
  131    0.002959789176
  132    0.002905453846
  133   -0.010425205489
  134    0.001836540321
  135    0.008279670515
  136   -0.017768534076
  137    0.009488863561
  138   -0.048448173269
  139    0.163872836376
  140   -0.013297736554
  141   -0.008620544606
  142    0.008388041908
  143    0.008876202848
  144    0.005240718873
  145    0.001889087853
  146   -0.011300491791
  147    0.006324955372
  148   -0.013142826995
  149   -0.000608183980
  150   -0.002679223996
  151   -0.023207298417
  152   -0.197987128599
  153    0.038244887392
  154    0.014939376972
  155    0.014174376107
  156    0.037084872328
  157   -0.017751648775
  158    0.054713960006
  159    0.033040342678
  160   -0.006383033347
  161    0.001973882747
  162    0.011734400642
  163    0.009917988968
  164    0.105799712164
  165    0.048146641623
  166   -0.029962758947
  167    0.002166893835
  168    0.006486873235
  169   -0.032519764202
  170   -0.571192994914
  171   -0.047661928909
  172   -0.153973810479
  173    0.035464213943
  174    0.063429771605
  175    0.030197777974
  176    0.304505338207
  177   -0.062300868337
  178    0.054061764985
  179    0.129115381409
  180    0.030124970840
  181    0.010432071230
  182    0.165304666028
  183    0.024421613486
  184    0.162801515445
  185   -0.032322113495
  186   -0.014526980940
  187   -0.001204058305
  188   -0.142272765709
  189    0.038181419179
  190   -0.023035926663
  191   -0.005983546189
  192    0.006387898577
  193    0.014986109715
  194    0.041535817252
  195    0.006110178881
  196   -0.014681600809
  197    0.002376690825
  198    0.004369166794
 Sym=     1a
 Ene= 1.12436939076091E+00
Spin= Alpha
 Occup= 0
  1      0.004433988021
  2      0.001535802139
  3      0.082715996940
  4     -0.732429300657
  5     -0.009369589677
  6     -0.040017128652
  7     -0.031271813425
  8     -0.034065278780
  9      0.607609948273
  10     0.179977520371
  11     0.177265444886
  12     1.235856062288
  13     0.233624494243
  14     0.218282544768
  15    -0.004463459093
  16    -0.001616251785
  17     0.006079710878
  18     0.001167868315
  19    -0.014167269085
  20     0.000488183691
  21     0.034155857684
  22     0.042783339188
  23    -0.076939196872
  24     0.015678358638
  25     0.171774665864
  26    -0.043427041335
  27     0.013195807874
  28    -0.008399767525
  29     0.002119458972
  30    -0.016888119887
  31     0.009174672873
  32    -0.005995237738
  33    -0.000815914167
  34     0.002094797836
  35     0.003151685136
  36     0.008581584510
  37    -0.004895224023
  38     0.020751777238
  39    -0.200276050137
  40     0.750747514822
  41     0.275853095171
  42    -0.027246068218
  43    -0.004060975171
  44     0.021751415053
  45     0.349455334644
  46    -0.074300863508
  47    -0.313229077719
  48     0.249141437453
  49    -0.061894968216
  50    -0.378439719659
  51    -0.000417943970
  52     0.002796158965
  53    -0.002378214995
  54    -0.002577183137
  55     0.004381240056
  56     0.001786908335
  57     0.050845302720
  58    -0.073340161975
  59     0.022494859255
  60    -0.005842908870
  61    -0.157596205249
  62     0.033364737311
  63     0.001222330261
  64     0.000487708309
  65     0.003696957697
  66    -0.006134504612
  67    -0.004458593727
  68    -0.014190619865
  69     0.004494576479
  70     0.003804264368
  71     0.009230630633
  72     0.004669457199
  73     0.000521665997
  74    -0.095023308909
  75    -0.039457425435
  76    -0.008719119008
  77    -0.012243341393
  78    -0.008347864180
  79    -0.000162023065
  80     0.061194774827
  81    -0.177022686090
  82    -0.146536672761
  83     0.572885385038
  84    -0.006407713087
  85    -0.054735081542
  86    -0.068666290192
  87     0.321899253145
  88    -0.006091199493
  89     0.040295703940
  90     0.125461874986
  91     1.064528186671
  92     1.297108665147
  93     0.002519483069
  94    -0.006114297951
  95     0.003594814882
  96     0.008983614343
  97     0.008873370313
  98    -0.012151809573
  99     0.074434663499
  100   -0.001322466321
  101   -0.073112197178
  102   -0.056463134315
  103   -0.069961342410
  104   -0.181143649967
  105   -0.022213006260
  106    0.014100057833
  107    0.012270611469
  108    0.015603766907
  109    0.043597574606
  110    0.033339564456
  111    0.014198108282
  112   -0.062514787286
  113   -0.049802317278
  114    0.009977923633
  115   -0.009509070697
  116    0.021291562322
  117   -0.217131930382
  118    0.702569714105
  119    0.305058261016
  120    0.009150710400
  121   -0.001354026914
  122   -0.020944799448
  123   -0.098646581731
  124    0.105156315542
  125    0.312216304632
  126    0.130070077583
  127   -0.016884713982
  128    0.333149890743
  129    0.001861566995
  130    0.002058505273
  131   -0.003920072268
  132   -0.000216549763
  133   -0.000488030734
  134   -0.001679550785
  135   -0.036434334291
  136   -0.033521250776
  137    0.069955585067
  138   -0.011777769094
  139    0.000904259651
  140    0.048397337322
  141    0.000448082301
  142   -0.009282979172
  143    0.004983489641
  144    0.003174140795
  145    0.005101795620
  146   -0.010566309664
  147   -0.003775306286
  148    0.007352627857
  149    0.003880256703
  150    0.000791992372
  151    1.101875311195
  152   -0.486766181947
  153   -2.713028792935
  154    0.026553390672
  155   -0.072591608030
  156   -0.073105880444
  157   -0.026052694071
  158   -0.070046367537
  159    0.045845089932
  160   -0.000447043287
  161   -0.008674587167
  162   -0.008238925168
  163   -0.019657689726
  164   -0.067843656952
  165    0.183940645681
  166   -0.005839683573
  167   -0.014075572411
  168   -0.016576982818
  169   -0.010720239626
  170   -0.004737247787
  171    0.441760560188
  172    0.005716593458
  173    0.002858557848
  174    0.007286336263
  175   -0.010058359085
  176    0.060345502011
  177    0.043717605215
  178   -0.001177345774
  179    0.002712193900
  180    0.003325848672
  181   -0.014389324956
  182    0.051174186919
  183    0.066011065178
  184   -0.000876957659
  185   -0.001434688508
  186    0.001730582481
  187   -0.023732100358
  188   -0.007956476793
  189    0.221538543062
  190   -0.012362391854
  191    0.006196251261
  192   -0.004142163019
  193    0.003464102912
  194   -0.032213169195
  195    0.046872290925
  196   -0.002007229052
  197    0.000703645862
  198   -0.007870446037
 Sym=     1a
 Ene= 1.12527778970739E+00
Spin= Alpha
 Occup= 0
  1      0.004468779909
  2      0.001497126592
  3      0.082677149219
  4     -0.730710325657
  5     -0.007963023212
  6     -0.015077415822
  7      0.010992478558
  8      0.058119430667
  9     -0.107400232783
  10    -0.252894083494
  11    -0.597699467028
  12    -0.360749998394
  13    -0.557371497658
  14    -1.090421249381
  15     0.013613606594
  16    -0.007337362261
  17    -0.006276244333
  18    -0.000358324464
  19     0.003533732705
  20    -0.006556453748
  21    -0.182637487728
  22     0.095376776707
  23     0.087260711021
  24    -0.032549730993
  25    -0.023497902901
  26     0.049949413013
  27    -0.002198964413
  28     0.015611541656
  29    -0.001459828182
  30     0.004547561521
  31    -0.004663563802
  32    -0.006504161974
  33    -0.001597341176
  34    -0.016281517224
  35     0.008462727005
  36    -0.008450791998
  37    -0.009501114496
  38     0.021276246211
  39    -0.216839754761
  40     0.701057999183
  41     0.304660255279
  42    -0.022740103049
  43     0.002610477394
  44     0.000297773031
  45     0.332449075669
  46     0.005437076693
  47    -0.085157275072
  48     0.226386635002
  49    -0.214122431920
  50    -0.175832319302
  51    -0.002502383658
  52     0.001892533588
  53     0.000609850070
  54     0.001571012839
  55     0.002825626577
  56    -0.001114024088
  57     0.055040401368
  58    -0.034451169058
  59    -0.020589232310
  60    -0.008664210585
  61    -0.062287025885
  62     0.017171372669
  63     0.003656646854
  64    -0.000336286186
  65    -0.002022477537
  66    -0.003083992517
  67    -0.001038569331
  68    -0.010176623465
  69    -0.001821914044
  70     0.001489744594
  71     0.012890061819
  72    -0.001177106906
  73    -0.026013042884
  74    -0.071020268362
  75     0.044996626272
  76    -0.008071553665
  77    -0.003014556607
  78     0.008171508831
  79    -0.004906187097
  80     0.020757485562
  81    -0.200483371840
  82     0.751932761411
  83     0.276473018953
  84     0.031195205754
  85     0.002413133408
  86     0.015746257641
  87    -0.447102062921
  88    -0.112697013477
  89    -0.112353879422
  90    -0.454808739048
  91    -0.024742565737
  92    -0.030254464172
  93    -0.004314847096
  94     0.003510506688
  95     0.000804340408
  96     0.002176795342
  97    -0.003500479457
  98     0.000456385161
  99     0.146327110149
  100   -0.094497834183
  101   -0.051829275966
  102    0.061070565420
  103    0.076250195415
  104    0.000091097285
  105   -0.007376389532
  106    0.003602685067
  107    0.005403707950
  108    0.002246601700
  109   -0.006585177118
  110   -0.012307496267
  111    0.007649863353
  112    0.001751667891
  113    0.005057661283
  114   -0.007123288109
  115   -0.000160762179
  116    0.061204184680
  117   -0.177034080907
  118   -0.146443737794
  119    0.572749287874
  120   -0.064428860420
  121   -0.010247980496
  122    0.059286868719
  123   -0.116405623804
  124   -0.189059897880
  125   -0.236584456074
  126    1.218181061068
  127    0.214730453989
  128   -1.142211474750
  129   -0.006617251572
  130    0.001218929351
  131    0.005398322221
  132   -0.014951089629
  133    0.005373589862
  134    0.006483480060
  135   -0.020531534440
  136    0.116063619729
  137   -0.095532085289
  138   -0.015373858101
  139    0.181264447137
  140   -0.004331594846
  141   -0.002322115763
  142    0.021731154793
  143   -0.035279027660
  144    0.033134566784
  145   -0.026585202617
  146    0.058979625498
  147   -0.030019121565
  148   -0.002570200991
  149   -0.011647843082
  150    0.045867399015
  151   -0.010062323909
  152    0.060020361381
  153    0.043508309091
  154    0.003833056207
  155    0.001358394543
  156   -0.001824822684
  157   -0.014355719248
  158    0.050770793720
  159    0.065898253956
  160    0.001724522282
  161   -0.001350676178
  162    0.001063324144
  163   -0.010615682530
  164   -0.005477998218
  165    0.440156475268
  166    0.004114768471
  167   -0.003746834868
  168   -0.007948436184
  169   -0.023728754673
  170   -0.007992258934
  171    0.221568661097
  172    0.003073524571
  173    0.012772807595
  174    0.005980169679
  175    0.003476174257
  176   -0.032186886299
  177    0.046494775741
  178   -0.005804240480
  179    0.004727007590
  180    0.003200514957
  181    0.000545541915
  182   -0.095391920347
  183   -0.039295673299
  184   -0.004876622923
  185   -0.001357970752
  186    0.016466489440
  187   -0.019663824196
  188   -0.067704780821
  189    0.184289600934
  190   -0.013595338236
  191   -0.000838043186
  192    0.017973634220
  193    1.102497776837
  194   -0.488514797421
  195   -2.711088915836
  196   -0.086116352771
  197   -0.039143001620
  198    0.048626525271
 Sym=     1a
 Ene= 1.12580794570350E+00
Spin= Alpha
 Occup= 0
  1      0.004449356314
  2      0.001529510867
  3      0.082449102273
  4     -0.730757129076
  5     -0.007875360129
  6      0.059288073796
  7     -0.007139449344
  8     -0.012703673151
  9     -0.504822138421
  10     0.104896125600
  11     0.407005636857
  12    -0.857510313771
  13     0.205074261011
  14     0.921383800075
  15    -0.005732547357
  16     0.003495790988
  17     0.002236756369
  18     0.000786343712
  19     0.009908746283
  20     0.010426669101
  21     0.058397297694
  22     0.005797406985
  23    -0.064194704679
  24    -0.025471563172
  25    -0.130052597159
  26    -0.121660436213
  27    -0.004309216472
  28    -0.010029680488
  29     0.003232400286
  30     0.011611570357
  31    -0.003664443221
  32     0.003113922626
  33    -0.005830149781
  34     0.017120671639
  35    -0.007450642688
  36    -0.006442817602
  37    -0.000154756684
  38     0.061147532742
  39    -0.176890322091
  40    -0.145872990412
  41     0.573244092276
  42     0.080402455632
  43     0.002087241532
  44     0.035665372319
  45    -0.177130141683
  46     0.013229599019
  47     0.271040517326
  48    -1.536846584612
  49    -0.015085913459
  50    -0.682024254046
  51     0.001857338679
  52     0.008482044235
  53    -0.010339382914
  54     0.004936150772
  55    -0.013772203224
  56     0.002799410817
  57    -0.202329390231
  58     0.123209547077
  59     0.079119843154
  60     0.002514960650
  61    -0.081702146136
  62    -0.004819603002
  63     0.012744553400
  64     0.002275972146
  65    -0.041221972316
  66    -0.050586587755
  67    -0.003334533247
  68     0.072789229365
  69     0.033487975107
  70     0.000280996187
  71    -0.017484150006
  72    -0.007732640511
  73    -0.014390195447
  74     0.051376610580
  75     0.066222858966
  76    -0.000093787545
  77    -0.002292609649
  78    -0.000654209265
  79    -0.009492580729
  80     0.021253312061
  81    -0.216652653946
  82     0.700544165640
  83     0.304277670284
  84     0.011310369393
  85     0.013687078082
  86     0.014449513694
  87    -0.229968592994
  88    -0.134895726685
  89    -0.216240971846
  90    -0.288612498372
  91    -0.209358956517
  92     0.025746450746
  93    -0.002468899461
  94     0.001031849806
  95     0.001437049655
  96    -0.002811500681
  97    -0.001728446901
  98    -0.001208981835
  99     0.044794172604
  100   -0.033616165677
  101   -0.011178006927
  102    0.050366932765
  103    0.048894374095
  104    0.016049408022
  105   -0.003576541360
  106   -0.003009414345
  107    0.002166404475
  108    0.003654700229
  109    0.000636158491
  110   -0.008348970974
  111    0.001143733534
  112    0.003401394538
  113    0.005442434370
  114   -0.010170785494
  115   -0.004879998159
  116    0.020712244259
  117   -0.199958999210
  118    0.749916581179
  119    0.275227350881
  120   -0.000623031838
  121   -0.020818406139
  122   -0.028154456007
  123    0.097229576174
  124    0.193651275952
  125    0.421803205734
  126    0.184617606453
  127    0.231562637227
  128    0.347406120728
  129    0.002050151947
  130   -0.002042926687
  131   -0.000007225260
  132   -0.000859605520
  133   -0.000373537899
  134   -0.005628137371
  135   -0.069579449420
  136   -0.036021178149
  137    0.105600627569
  138    0.005019560289
  139    0.056369936169
  140    0.129672255504
  141   -0.005424435305
  142   -0.007094824732
  143    0.009864365449
  144    0.004168569889
  145   -0.001540953215
  146   -0.012507632187
  147    0.003109073760
  148    0.011059659448
  149   -0.000726802832
  150    0.001673586208
  151    0.003374249930
  152   -0.031941392450
  153    0.046985733425
  154    0.006143429324
  155    0.005273478441
  156    0.000207232983
  157    0.000558910745
  158   -0.094510353787
  159   -0.039567503043
  160    0.016357979571
  161   -0.004950896564
  162   -0.000371280497
  163   -0.023725082253
  164   -0.007970034700
  165    0.221289970139
  166    0.005506219990
  167    0.005665074632
  168   -0.012075162639
  169   -0.019614157056
  170   -0.067759038916
  171    0.183775044786
  172    0.021915178448
  173   -0.000774273863
  174    0.005173923744
  175    1.102814699537
  176   -0.489173254107
  177   -2.709089378520
  178    0.077431984392
  179   -0.004069716079
  180    0.072712917792
  181   -0.025989945157
  182   -0.070974268740
  183    0.044979164909
  184    0.010495791016
  185   -0.001327312083
  186    0.005399886366
  187   -0.010625300655
  188   -0.005049964014
  189    0.440281224838
  190   -0.009344739043
  191   -0.001755396935
  192    0.001765818490
  193   -0.009992428600
  194    0.060016714257
  195    0.043128549587
  196   -0.003227625666
  197   -0.000280093449
  198   -0.003049930729
 Sym=     1a
 Ene= 1.12898882544111E+00
Spin= Alpha
 Occup= 0
  1      0.004483584548
  2      0.001499185382
  3      0.082010718165
  4     -0.728293130032
  5     -0.004428374651
  6      0.020249332482
  7      0.015368389819
  8      0.055832130957
  9      0.077757945022
  10    -0.230327353226
  11    -0.609896237250
  12     0.321223081550
  13    -0.475680241178
  14    -1.137387943830
  15     0.011328454287
  16    -0.006133790731
  17    -0.005194663556
  18     0.004933467253
  19    -0.004738611758
  20    -0.007906590903
  21    -0.170450010015
  22     0.093230480664
  23     0.077219529351
  24    -0.038781697250
  25     0.052524192218
  26     0.059395311498
  27     0.000933704550
  28     0.011851365058
  29    -0.002849826185
  30    -0.008656089409
  31     0.000552713810
  32    -0.007692466513
  33     0.007403393302
  34    -0.016452988547
  35     0.011515909557
  36     0.001059817360
  37    -0.004806951977
  38     0.020512536320
  39    -0.198056781108
  40     0.742959549833
  41     0.271116403876
  42    -0.028312906748
  43    -0.005305473008
  44     0.019717051158
  45     0.439292142130
  46    -0.000923538352
  47    -0.173134832395
  48     0.437650117857
  49     0.092948160192
  50    -0.090369020928
  51    -0.002133990732
  52     0.002204188674
  53    -0.000070197942
  54    -0.003861424234
  55     0.003799896855
  56     0.001767412916
  57     0.135524152948
  58    -0.105784722952
  59    -0.029739429996
  60     0.008816126837
  61    -0.103869058260
  62    -0.017959809969
  63     0.004854030795
  64     0.001753992695
  65     0.007069614884
  66    -0.004192891405
  67    -0.001647600176
  68    -0.016834717712
  69    -0.002319474289
  70    -0.000705627963
  71     0.007349834038
  72     0.001593229080
  73    -0.025718437485
  74    -0.071741117532
  75     0.044660083089
  76     0.009622586878
  77    -0.000900117068
  78     0.006862487113
  79    -0.009513100362
  80     0.021255632973
  81    -0.217236284197
  82     0.704786495892
  83     0.306454334295
  84     0.021098701192
  85     0.008096551469
  86    -0.003035075974
  87    -0.332667257460
  88    -0.077623055088
  89    -0.036843404421
  90    -0.188086439635
  91    -0.262650623492
  92    -0.147692439094
  93    -0.002137293879
  94     0.000850809281
  95     0.001286484598
  96    -0.002794333854
  97    -0.001945550179
  98    -0.001366567207
  99     0.058111728973
  100   -0.023702146454
  101   -0.034409582519
  102    0.036086970340
  103    0.042821757598
  104    0.026527991196
  105   -0.005241303164
  106    0.001357985984
  107   -0.002914721528
  108    0.003548410696
  109   -0.004593472463
  110   -0.007802141978
  111    0.003483535404
  112    0.002771543079
  113    0.011712651261
  114   -0.004291900706
  115   -0.000131192886
  116    0.060991763467
  117   -0.176239427582
  118   -0.145999363568
  119    0.570973549414
  120    0.072177283744
  121    0.006234514020
  122    0.049342481724
  123    0.123189064460
  124   -0.159817744450
  125   -0.254443821077
  126   -1.372843188624
  127   -0.097955564509
  128   -0.954776410831
  129   -0.013378093868
  130    0.006895236495
  131    0.006482857373
  132    0.011608255196
  133   -0.003960099339
  134    0.003395983854
  135   -0.061783122089
  136    0.112592120380
  137   -0.050808998291
  138   -0.031920963476
  139   -0.179182267513
  140   -0.046901282225
  141    0.034117586293
  142   -0.000720741942
  143   -0.040501048365
  144   -0.048326321021
  145   -0.008385318669
  146    0.073614415523
  147    0.002552775714
  148    0.009352295455
  149   -0.019276557141
  150   -0.018426137499
  151   -0.023539211588
  152   -0.009078502015
  153    0.220973881788
  154   -0.005161153455
  155    0.011631405059
  156    0.006930702732
  157    0.000283117645
  158   -0.097068842425
  159   -0.037405045716
  160    0.007504940770
  161   -0.000220402222
  162    0.015776725983
  163    0.003692428716
  164   -0.031752959827
  165    0.042573316433
  166    0.004931312900
  167    0.006076562193
  168    0.002521967801
  169   -0.009870604550
  170    0.058936714277
  171    0.039698727952
  172   -0.004328296079
  173    0.000207994291
  174   -0.001251004166
  175   -0.010485585157
  176   -0.003633053796
  177    0.439495789534
  178   -0.003943299305
  179   -0.004678509069
  180   -0.007308414629
  181   -0.014610930623
  182    0.054447276754
  183    0.067637406122
  184   -0.001085537495
  185   -0.001535272154
  186    0.000962200000
  187    1.104750318591
  188   -0.494857268577
  189   -2.699669559393
  190    0.098399129715
  191   -0.016735270617
  192    0.035471000187
  193   -0.019397697852
  194   -0.068887931312
  195    0.183880738906
  196    0.015772541307
  197    0.002719581999
  198    0.015854646535
 Sym=     1a
 Ene= 1.12956072105981E+00
Spin= Alpha
 Occup= 0
  1      0.004459817152
  2      0.001519314997
  3      0.081995501641
  4     -0.728973665382
  5     -0.005241164812
  6      0.041243737347
  7     -0.021379127569
  8     -0.040054915415
  9     -0.599196103780
  10     0.030670956659
  11     0.265083092410
  12    -1.206732988381
  13    -0.069338182369
  14     0.398630650503
  15    -0.000369945664
  16    -0.002167628778
  17     0.002537574442
  18    -0.000990872457
  19     0.014551781584
  20     0.004210593995
  21     0.001994786942
  22     0.033224743228
  23    -0.035219530170
  24    -0.030326344877
  25    -0.166634029117
  26    -0.081996304062
  27    -0.014617489080
  28     0.001913146288
  29     0.001726767485
  30     0.018530348704
  31    -0.007275090299
  32     0.001179271425
  33     0.001081070842
  34     0.004708335208
  35    -0.003495973112
  36    -0.008854600003
  37    -0.000129598790
  38     0.060958838886
  39    -0.176211216778
  40    -0.145248006378
  41     0.571836310133
  42     0.009851896848
  43    -0.052714286001
  44    -0.069210185195
  45    -0.301506061255
  46    -0.082630528080
  47     0.086713057434
  48    -0.199124364721
  49     1.025307916814
  50     1.308487576260
  51     0.004314199104
  52    -0.009796074773
  53     0.005481875669
  54    -0.007432290814
  55    -0.005457594954
  56    -0.012641396306
  57     0.070867372714
  58     0.020030694156
  59    -0.090898066870
  60     0.049303137438
  61     0.087674016925
  62    -0.169220020702
  63     0.005329282250
  64     0.008205827248
  65     0.016111423329
  66    -0.002339729196
  67     0.051399903027
  68     0.030652593541
  69    -0.004810253233
  70    -0.062409175550
  71    -0.052268336208
  72    -0.004478845594
  73     0.000312594480
  74    -0.096467019785
  75    -0.037688222253
  76     0.010171862790
  77    -0.010285266011
  78    -0.009650286780
  79    -0.004785010104
  80     0.020460100465
  81    -0.197601351340
  82     0.741484710923
  83     0.269930381976
  84     0.029804094241
  85     0.002882922666
  86     0.017990134088
  87    -0.357693856770
  88    -0.160627525452
  89    -0.263197744664
  90    -0.271777285715
  91    -0.122322567006
  92    -0.346034205160
  93    -0.002398216810
  94     0.003753382142
  95    -0.001355165332
  96     0.001359214603
  97    -0.004736913981
  98     0.000348639807
  99     0.074581042028
  100   -0.062276853527
  101   -0.012304188501
  102    0.050997626179
  103    0.134769383543
  104    0.065915405908
  105   -0.001485315929
  106    0.003205013204
  107    0.004637155582
  108    0.003117125127
  109   -0.009112112207
  110   -0.011577555639
  111   -0.001124364695
  112    0.004812135770
  113    0.005356158577
  114   -0.008644672699
  115   -0.009512308119
  116    0.021262529279
  117   -0.217266224337
  118    0.704796759598
  119    0.306338326140
  120   -0.011461019474
  121   -0.003728414262
  122   -0.019361938297
  123    0.113762138595
  124    0.130411187058
  125    0.296993985476
  126   -0.076009602223
  127   -0.040355479653
  128    0.345010516942
  129    0.001912012500
  130    0.002022509274
  131   -0.003934521774
  132   -0.000132661073
  133   -0.000079749005
  134   -0.001572438871
  135   -0.042472096209
  136   -0.026355933331
  137    0.068828029540
  138    0.016616828425
  139    0.005151858370
  140    0.046341878683
  141   -0.005909287756
  142   -0.009464708266
  143    0.003433564809
  144    0.002688406413
  145    0.003556404086
  146   -0.007610881433
  147    0.005239735060
  148    0.009141834555
  149    0.003004270842
  150   -0.003781931633
  151   -0.010572082538
  152   -0.003042168608
  153    0.440573995460
  154   -0.005179088669
  155    0.001456339353
  156    0.007850554963
  157   -0.014651317329
  158    0.054995810372
  159    0.067831976148
  160    0.001113434480
  161   -0.000936026082
  162    0.001477505096
  163   -0.009875742933
  164    0.059036399293
  165    0.039688977903
  166    0.000957015379
  167    0.002898893623
  168    0.003316831205
  169    1.105047753558
  170   -0.495515744854
  171   -2.699311457888
  172   -0.017760515143
  173   -0.078147056979
  174   -0.069218559702
  175   -0.019379122319
  176   -0.068824862518
  177    0.183426379975
  178    0.006735867999
  179   -0.012571554276
  180   -0.017423620816
  181   -0.025725979358
  182   -0.071548922212
  183    0.044856849678
  184    0.001313953305
  185   -0.008469500106
  186   -0.008234168163
  187    0.003642778736
  188   -0.031640837398
  189    0.043175596470
  190    0.000712000433
  191    0.000984223784
  192   -0.008120660017
  193   -0.023524631419
  194   -0.009247791175
  195    0.220992278681
  196    0.010061198749
  197    0.008685940159
  198   -0.005815929744
 Sym=     1a
 Ene= 1.12993866713858E+00
Spin= Alpha
 Occup= 0
  1      0.004487222622
  2      0.001491536139
  3      0.082143214529
  4     -0.729802219093
  5     -0.004097409633
  6     -0.057321500953
  7     -0.021611276374
  8     -0.004213813688
  9      0.517489733934
  10     0.229520289698
  11     0.331144765311
  12     0.907190780655
  13     0.417659581793
  14     0.789268583390
  15    -0.007512281618
  16     0.002820526779
  17     0.004691754839
  18    -0.002311933429
  19    -0.010433644005
  20     0.008059929432
  21     0.078625395217
  22     0.016853654223
  23    -0.095479049440
  24     0.026721765206
  25     0.131216336347
  26    -0.091959906782
  27     0.004361001842
  28    -0.015665686844
  29     0.002098556379
  30    -0.007711490336
  31     0.005179319483
  32    -0.000605996611
  33     0.001860592395
  34     0.015838404936
  35    -0.002209512219
  36     0.010888709407
  37    -0.009513070682
  38     0.021252192590
  39    -0.217303426082
  40     0.705359696512
  41     0.306568990898
  42    -0.012002104198
  43     0.010941458670
  44     0.016007493864
  45     0.223629952299
  46    -0.080369876165
  47    -0.248955163565
  48     0.330535081202
  49    -0.129245111258
  50    -0.017725876497
  51    -0.002774125140
  52     0.001911643262
  53     0.000862481878
  54     0.001510227682
  55     0.002609988475
  56    -0.000899624396
  57     0.046433137381
  58    -0.049084052891
  59     0.002650915510
  60    -0.023664655729
  61    -0.060389549519
  62     0.006445510445
  63    -0.001333924822
  64    -0.004062531145
  65     0.002030496769
  66     0.000046455827
  67     0.004083224900
  68    -0.012010206647
  69     0.001743192121
  70     0.001367232580
  71     0.009286009365
  72     0.004882852446
  73    -0.014617731639
  74     0.054944166787
  75     0.067873423489
  76     0.000637792935
  77    -0.001869228470
  78    -0.000593896037
  79    -0.000126876862
  80     0.060935260532
  81    -0.176102108276
  82    -0.145257709518
  83     0.571531276014
  84    -0.072127864935
  85    -0.017080528158
  86     0.046397275689
  87     0.206137688117
  88     0.059772893855
  89     0.242963946934
  90     1.373871782342
  91     0.352155035443
  92    -0.886328889185
  93     0.007028815870
  94     0.006140644006
  95    -0.013169459876
  96    -0.005138249664
  97     0.009786962178
  98     0.006644733889
  99    -0.155664340264
  100    0.102693837603
  101    0.052970502661
  102   -0.087197274614
  103    0.120049128108
  104    0.027511769964
  105    0.015239232241
  106    0.027280286552
  107   -0.026494982475
  108    0.035801703376
  109   -0.020342068825
  110    0.050276425136
  111   -0.056247278905
  112   -0.016258276281
  113   -0.014729676010
  114    0.032592724018
  115   -0.004784041335
  116    0.020450875280
  117   -0.197549100605
  118    0.741393276710
  119    0.269879293236
  120    0.002125483299
  121   -0.020585356424
  122   -0.028048867467
  123   -0.083391296103
  124    0.171183668221
  125    0.431602258289
  126   -0.190968632302
  127    0.188729257364
  128    0.368669821054
  129    0.001783815817
  130   -0.001569386702
  131   -0.000214429115
  132    0.001197586812
  133    0.001475672707
  134   -0.005597431913
  135   -0.081748011889
  136   -0.037178714488
  137    0.118926726377
  138    0.000568037511
  139   -0.056216450145
  140    0.116198097499
  141    0.001675375332
  142   -0.008608271901
  143    0.010354578246
  144   -0.001869045455
  145    0.000446212838
  146   -0.012536342972
  147   -0.000378706423
  148    0.011102995845
  149   -0.001355781530
  150   -0.003150213472
  151   -0.019280303406
  152   -0.068396073252
  153    0.183436501776
  154   -0.020081225710
  155   -0.006079183805
  156    0.008166036651
  157   -0.025693049133
  158   -0.072483498429
  159    0.044020049205
  160   -0.008823127453
  161   -0.003780969112
  162    0.006822958536
  163    1.105349692391
  164   -0.496525672277
  165   -2.696525961728
  166   -0.062697095047
  167   -0.021944154321
  168    0.082350495574
  169    0.003606749519
  170   -0.031293059619
  171    0.043144779966
  172   -0.007244333955
  173    0.003596169483
  174    0.001150960799
  175   -0.023512359752
  176   -0.009081470994
  177    0.220696426623
  178   -0.008587255074
  179    0.003618109009
  180   -0.011084515008
  181    0.000242219543
  182   -0.096379798653
  183   -0.037497412096
  184   -0.014598196914
  185   -0.009183997232
  186    0.002108151591
  187   -0.009802185166
  188    0.058661905111
  189    0.039053389551
  190    0.002836953510
  191    0.000342475543
  192   -0.003491775927
  193   -0.010425388223
  194   -0.003391291582
  195    0.438781451716
  196    0.009445098816
  197    0.000640439908
  198    0.000532063040
 Sym=     1a
 Ene= 1.14155545169719E+00
Spin= Alpha
 Occup= 0
  1      0.002909655410
  2     -0.008308684013
  3      0.083240669845
  4     -0.285414055814
  5     -0.081784681461
  6      0.074157321561
  7      0.023631774564
  8      0.000063201278
  9     -0.834077572493
  10    -0.173506220070
  11    -0.009316692807
  12    -1.365396909615
  13    -0.228627386969
  14     0.103660198083
  15     0.002114686912
  16    -0.013037208856
  17     0.010922521944
  18     0.008892665011
  19    -0.100991773223
  20    -0.012273175393
  21    -0.040549233166
  22     0.133003383485
  23    -0.092454150319
  24    -0.041901793834
  25     0.881051380015
  26     0.079168810566
  27     0.053375959424
  28    -0.004305430633
  29     0.018706970687
  30     0.037551105560
  31    -0.005678039747
  32    -0.009837595856
  33    -0.109162469742
  34     0.011454381088
  35    -0.015260439009
  36    -0.042755007957
  37     0.017651093466
  38    -0.035477138555
  39     0.284319171420
  40    -0.483010974135
  41    -0.297011539544
  42     0.006702980961
  43    -0.002337747661
  44    -0.027947223853
  45     0.147437248093
  46    -0.044843028291
  47     0.271443644679
  48    -0.045499409930
  49     0.011266756447
  50     0.143807792937
  51    -0.004739485286
  52    -0.005400429283
  53     0.010139914569
  54    -0.000785120010
  55    -0.010282255625
  56     0.001330950167
  57     0.124823709842
  58     0.032615246518
  59    -0.157438956360
  60    -0.023707096303
  61     0.017158869278
  62     0.002831628583
  63    -0.001575908068
  64     0.002757723794
  65     0.011237755283
  66     0.014369233480
  67    -0.009620747261
  68    -0.004519398175
  69    -0.012254930941
  70     0.005920872541
  71    -0.010557632661
  72     0.002577152474
  73     0.108461596188
  74     0.816756759911
  75    -0.020968121418
  76     0.101785731849
  77     0.168342069924
  78    -0.021389661976
  79    -0.012548381325
  80     0.022944534577
  81    -0.247245967280
  82     0.745464198828
  83     0.293572312341
  84     0.004529215632
  85    -0.002633085674
  86     0.007954164300
  87    -0.086797133293
  88     0.014012378230
  89    -0.381401554346
  90    -0.065207099604
  91    -0.003818162045
  92    -0.121781655836
  93     0.002350839876
  94     0.002853361229
  95    -0.005204201105
  96    -0.000778289461
  97    -0.008545047559
  98    -0.002278090377
  99    -0.054440883083
  100   -0.065203767097
  101    0.119644650180
  102   -0.021339918402
  103    0.106034371771
  104    0.013780256448
  105   -0.002182176425
  106    0.009795981739
  107   -0.007078593968
  108    0.022966344609
  109   -0.002148043272
  110    0.001603918982
  111   -0.020038647714
  112   -0.010994645372
  113    0.007893011396
  114   -0.003440681924
  115   -0.001595560510
  116   -0.000923623433
  117   -0.024680344569
  118    0.141301237526
  119    0.018063045674
  120   -0.190702936050
  121   -0.063746437980
  122    0.027773419998
  123    2.013036655543
  124    0.890106570949
  125   -0.536302681831
  126    0.727895605890
  127    0.270520414483
  128   -0.136356632422
  129    0.003452210975
  130   -0.012526721719
  131    0.009074510744
  132    0.363808757599
  133   -0.020682107474
  134   -0.004891830533
  135    0.203319985789
  136   -0.284819027360
  137    0.081499041571
  138    1.628978205293
  139   -0.224223587357
  140    0.005572940464
  141   -0.019322316444
  142    0.015934565699
  143    0.039265287823
  144   -0.088652180924
  145   -0.004333771464
  146   -0.040112915937
  147    0.114575788754
  148   -0.017044691792
  149   -0.012566995700
  150   -0.021487966789
  151   -0.005452650250
  152    0.052990146947
  153    0.035199539053
  154   -0.009253473114
  155   -0.004654062305
  156   -0.009806859488
  157   -0.033859450187
  158    0.123340677370
  159    0.046448848874
  160   -0.011113097058
  161   -0.000887180234
  162   -0.008553132421
  163   -0.008560618406
  164   -0.049032519259
  165   -0.031020713141
  166    0.028224153762
  167    0.010199933724
  168    0.011868715654
  169    0.005544041681
  170   -0.023136338161
  171   -0.040452046339
  172   -0.007890313425
  173   -0.002009933247
  174    0.007783357925
  175    0.017697358232
  176    0.060743115621
  177    0.015818751531
  178    0.026490479281
  179   -0.003234205430
  180   -0.013686025884
  181    0.028872903429
  182   -0.115798421620
  183   -0.025025279690
  184   -0.014050904292
  185   -0.003342129846
  186    0.012276361370
  187    0.072802306177
  188    0.958156627495
  189   -0.030872400836
  190    0.118873625493
  191    0.152494842134
  192    0.100011612504
  193   -0.192427750871
  194   -1.954550152249
  195    0.095428233846
  196    0.245087620503
  197   -0.039923186071
  198   -0.271918173094
 Sym=     1a
 Ene= 1.16162045427948E+00
Spin= Alpha
 Occup= 0
  1     -0.004176400174
  2     -0.001809241525
  3     -0.080828684528
  4      0.797849518304
  5     -0.027297747612
  6     -0.035921076790
  7     -0.009636233365
  8     -0.054521704837
  9      0.031339845729
  10     0.159593592043
  11     1.371197323145
  12     0.660835241629
  13     0.408450229341
  14     1.581218571463
  15     0.096333899676
  16    -0.016282398932
  17    -0.080051500744
  18     0.003973519008
  19     0.074338033325
  20    -0.003318194424
  21    -0.774876854445
  22     0.052203306607
  23     0.722673547838
  24    -0.067849616033
  25    -0.821418145626
  26     0.037794661965
  27     0.165980984094
  28     0.004314055817
  29     0.009926162275
  30    -0.035288975942
  31    -0.021250694661
  32     0.027674506804
  33    -0.187397882102
  34     0.015462781422
  35    -0.040991850965
  36     0.011447745234
  37     0.001749652901
  38    -0.006813119754
  39     0.128619139965
  40    -0.719920031361
  41    -0.209086090096
  42     0.121558462763
  43    -0.028159614632
  44     0.148501392505
  45    -1.256880504673
  46     0.656380204747
  47    -0.554465522556
  48    -0.477451682218
  49     0.152197531423
  50    -0.395875647177
  51    -0.179631197472
  52    -0.176627041314
  53     0.356258238786
  54    -0.004523951368
  55     0.006377730580
  56     0.008370881887
  57    -1.182834792134
  58    -0.565470149133
  59     1.748304941267
  60     0.036243291439
  61     0.010199491400
  62     0.456358852271
  63    -0.115460056527
  64     0.006042147726
  65    -0.039866635932
  66     0.026243237338
  67    -0.056189588901
  68     0.025014508768
  69     0.128662683711
  70     0.048083197073
  71     0.028472196019
  72     0.007435459362
  73    -0.054569505100
  74     0.154008201849
  75     0.092116751789
  76    -0.008407812072
  77     0.000771821756
  78     0.006559027957
  79     0.023668422418
  80    -0.043724278434
  81     0.363483164114
  82    -0.607933043838
  83    -0.353264155215
  84    -0.044273731410
  85    -0.005205913483
  86     0.017005396927
  87     0.260099432149
  88    -0.103502412717
  89    -0.201960935814
  90     0.209945774412
  91    -0.011078663039
  92    -0.040745058455
  93     0.019123118376
  94    -0.009306815927
  95    -0.009816302449
  96     0.000807509785
  97    -0.005050178759
  98    -0.005368779995
  99    -0.140044226450
  100    0.069460765261
  101    0.070583461189
  102    0.033833648041
  103    0.124319078636
  104    0.053014959254
  105    0.011471708269
  106   -0.014438285987
  107    0.008295157207
  108   -0.016597893584
  109    0.005587978381
  110   -0.007589970732
  111    0.001206981880
  112    0.013783014987
  113   -0.003539150507
  114    0.010352100048
  115   -0.016010224349
  116    0.035972722817
  117   -0.340130347624
  118    0.955803997741
  119    0.409492091287
  120    0.018275147458
  121   -0.021231663634
  122   -0.008707190669
  123   -0.446333341610
  124    0.153150312888
  125    0.237736327664
  126   -0.089077295178
  127    0.193828399088
  128    0.146723740891
  129    0.002789007719
  130    0.002764653061
  131   -0.005553660780
  132    0.009588483606
  133    0.010829460720
  134   -0.005773846766
  135    0.018855863295
  136   -0.037602243605
  137    0.018746380310
  138   -0.153697842504
  139   -0.085870768686
  140    0.036858465341
  141   -0.000276047448
  142   -0.022170883405
  143    0.000343693525
  144    0.005026609410
  145    0.009481659973
  146    0.010653131929
  147   -0.004656252895
  148    0.020263701476
  149   -0.011114245180
  150    0.000162886979
  151    0.025760624371
  152   -0.025293869518
  153   -0.003501173683
  154   -0.022207737524
  155   -0.010643733008
  156   -0.001616536911
  157    0.048759484079
  158   -0.164008024375
  159   -0.057914776675
  160    0.013276804441
  161    0.000226438357
  162    0.012276934248
  163    0.009217199908
  164   -0.026955200629
  165   -0.018681860623
  166    0.009313175302
  167    0.003652711611
  168    0.006718233707
  169   -0.104828046589
  170   -0.663193331066
  171    0.049016539816
  172    0.044729200225
  173    0.218988795539
  174    0.000684476642
  175   -0.013200117044
  176   -0.420039670198
  177   -0.056099374571
  178   -0.139669134504
  179    0.016522561302
  180    0.142615598716
  181    0.096138268542
  182    0.756916319821
  183   -0.012775220086
  184    0.041330897529
  185    0.048691760042
  186   -0.158451268159
  187   -0.031304522174
  188   -0.112522646223
  189    0.057083155474
  190   -0.018502525760
  191   -0.018667573988
  192   -0.034608916202
  193    0.002862105270
  194    0.133350787063
  195    0.053173761667
  196   -0.016798433056
  197    0.009410563776
  198    0.029498849857
 Sym=     1a
 Ene= 1.18652404397783E+00
Spin= Alpha
 Occup= 0
  1      0.037362879725
  2     -0.042323691739
  3      0.908751176025
  4     -5.616372225863
  5     -0.435301511604
  6     -0.047171417461
  7     -0.029481977175
  8     -0.061075408049
  9     -2.599667291903
  10    -0.123173782685
  11    -1.094696782115
  12    -1.452281665806
  13     0.149727529887
  14    -0.252201718037
  15     0.056854515708
  16    -0.065365768674
  17     0.008511252966
  18    -0.028822889046
  19     0.025178861236
  20    -0.038982192409
  21    -1.134857233158
  22     1.018380660543
  23     0.116476572615
  24    -0.097045909627
  25    -0.796105293707
  26     0.090334872601
  27    -0.118541165328
  28    -0.003475270092
  29     0.090468703835
  30     0.188848590141
  31    -0.000793267566
  32    -0.224980097146
  33    -0.029808927858
  34     0.005455831666
  35     0.103603594179
  36     0.014260457557
  37     0.002719878748
  38    -0.025541401191
  39     0.108738801144
  40    -0.043207501226
  41    -0.177375916503
  42    -0.000840667253
  43     0.022455591895
  44    -0.017458197401
  45     0.148146667324
  46    -0.203933449824
  47    -0.220523456406
  48    -0.053179887853
  49    -0.022436255843
  50     0.207456417137
  51     0.003419058368
  52     0.001563390698
  53    -0.004982449066
  54     0.004716848897
  55    -0.010572757801
  56     0.000828137798
  57     0.100137621105
  58    -0.172826952336
  59     0.072689331231
  60    -0.096136589201
  61    -0.017167921180
  62    -0.008862296112
  63     0.011201478508
  64     0.013477328097
  65    -0.001275867712
  66    -0.009847851147
  67    -0.009580993183
  68     0.001562767213
  69    -0.005180509288
  70    -0.008500739884
  71     0.000148988948
  72    -0.002478387957
  73     0.008413353635
  74     0.050338265002
  75    -0.032507026031
  76    -0.010137714764
  77     0.012061859735
  78     0.002337142125
  79    -0.014712762164
  80     0.031021052891
  81    -0.723378580185
  82     4.000685827315
  83     1.043100384434
  84     0.076150014871
  85     0.123723758294
  86     0.116496760185
  87    -2.347019948360
  88    -0.969081373288
  89    -2.535002816664
  90    -0.575771768645
  91    -0.410298481862
  92    -0.674441860621
  93     0.031882430290
  94    -0.027277661231
  95    -0.004604769059
  96     0.383710772932
  97     0.001111349107
  98     0.011317361021
  99     0.913771028043
  100   -0.716686910238
  101   -0.197084117805
  102    2.217104850132
  103    0.323979726541
  104    0.331053234388
  105    0.012046327466
  106    0.087334273112
  107    0.162380602283
  108   -0.113530166826
  109   -0.132172013780
  110   -0.117730829763
  111    0.097368322569
  112    0.015000790914
  113   -0.100125609197
  114   -0.076225568611
  115   -0.008162755771
  116   -0.005208969359
  117   -0.081867623978
  118    0.415499652318
  119    0.041628624244
  120   -0.011079607343
  121    0.018337277447
  122   -0.007334722698
  123    0.003054015296
  124    0.187064621933
  125    0.275217063702
  126    0.190000216171
  127   -0.076372291490
  128   -0.070066201824
  129   -0.006335990078
  130    0.001730134566
  131    0.004605855512
  132    0.003250147779
  133   -0.005877775736
  134    0.000375986916
  135    0.042554927314
  136   -0.066330227556
  137    0.023775300242
  138   -0.048359145733
  139    0.106256266344
  140    0.150723374556
  141   -0.012317673445
  142   -0.006361545632
  143   -0.011121909021
  144    0.010659761604
  145   -0.011767089786
  146    0.015773778415
  147    0.005866131485
  148    0.020301998870
  149   -0.000852171649
  150    0.011626050014
  151    0.073319312201
  152    0.823037556787
  153    0.076589216259
  154   -0.099357534003
  155   -0.080158901218
  156   -0.103551948055
  157    0.164030997232
  158    1.235783279098
  159    0.001389735833
  160    0.053612526561
  161    0.281098960034
  162   -0.135399429108
  163   -0.130065291087
  164   -1.215241276462
  165    0.188459130302
  166    0.182625696464
  167   -0.043509280131
  168   -0.168842901826
  169    0.026453024789
  170    0.129866423783
  171   -0.140204061111
  172    0.008078356699
  173   -0.000100279884
  174   -0.040023198683
  175   -0.008313428257
  176   -0.090344441465
  177   -0.094923438980
  178   -0.027576829118
  179   -0.003288821486
  180    0.005142154268
  181    0.025236513912
  182   -0.033185303167
  183   -0.044015932701
  184   -0.013212956896
  185    0.002891028560
  186   -0.005247803765
  187   -0.014298268070
  188   -0.079043391006
  189   -0.059760946621
  190   -0.011846537145
  191   -0.007078499732
  192   -0.018585962232
  193    0.022288969812
  194    0.073151705535
  195   -0.187245517639
  196   -0.028925308759
  197    0.010588609036
  198   -0.003311015100
 Sym=     1a
 Ene= 1.18756839087041E+00
Spin= Alpha
 Occup= 0
  1     -0.018178721422
  2      0.010130886390
  3     -0.419365658048
  4      3.071939545547
  5      0.120568041440
  6      0.050491569638
  7      0.010296504911
  8     -0.047892607376
  9      1.272379034152
  10     0.485008874912
  11     1.755764075104
  12     0.079842478005
  13     0.392228731256
  14     1.735423544475
  15     0.051130368604
  16    -0.011333971463
  17    -0.039796397141
  18     0.018707252543
  19    -0.102337587875
  20    -0.025176863781
  21    -0.093702766703
  22    -0.143767229974
  23     0.237469996677
  24     0.100072740440
  25     1.273639170468
  26     0.354957007876
  27    -0.074591609738
  28    -0.007987953527
  29    -0.081204933842
  30    -0.020658524189
  31    -0.029080997128
  32     0.157717176689
  33     0.120733670144
  34     0.039797961380
  35    -0.048769325381
  36     0.057614967279
  37     0.024475469236
  38    -0.038260949427
  39     0.343541427518
  40    -0.566681775850
  41    -0.305067053158
  42     0.049455247941
  43     0.010438550332
  44     0.015282730245
  45    -0.252549003951
  46    -0.177656126803
  47    -0.114247548349
  48    -0.183526538940
  49    -0.093837159171
  50    -0.111857830347
  51     0.017073074152
  52    -0.007447071290
  53    -0.009626002862
  54     0.007771533096
  55     0.003793386326
  56    -0.003639159316
  57    -0.149009462528
  58     0.079643520499
  59     0.069365942029
  60    -0.093580350472
  61    -0.085870961677
  62     0.003864780169
  63    -0.015393058900
  64    -0.004875695450
  65     0.007446380228
  66     0.018681067325
  67    -0.009705585366
  68    -0.000353442424
  69     0.001970888324
  70     0.016247017244
  71    -0.009636925001
  72    -0.004783809671
  73    -0.061775399157
  74     0.141766272570
  75     0.110845555426
  76     0.007650941246
  77    -0.000150345359
  78     0.009190582057
  79     0.005868281132
  80    -0.023107320440
  81     0.415254276344
  82    -2.265023809401
  83    -0.633373284395
  84    -0.141222572241
  85    -0.084419622359
  86     0.136803078958
  87     2.404076164566
  88     1.593972204939
  89    -0.350564225953
  90     0.695514254145
  91     0.399513199144
  92    -0.335719886575
  93    -0.189727084611
  94    -0.171510454250
  95     0.361237538861
  96     0.003164892967
  97    -0.022407210242
  98     0.003499906195
  99    -1.341476995681
  100   -0.567979968666
  101    1.909456964347
  102   -0.249154613638
  103   -0.516437306302
  104    0.361507887822
  105    0.136859143503
  106   -0.058127959088
  107   -0.007875028908
  108   -0.098461617661
  109    0.037944393471
  110   -0.015623190699
  111   -0.085154191268
  112    0.040042447278
  113    0.026188650677
  114   -0.001128590613
  115   -0.010428875729
  116    0.031426944782
  117   -0.274513287844
  118    0.814857171733
  119    0.367330084082
  120    0.002129367932
  121   -0.017340350829
  122   -0.001571406199
  123    0.358092747026
  124    0.213259706674
  125    0.105830972607
  126   -0.041040611028
  127    0.187863338693
  128    0.166258615011
  129    0.006626141321
  130   -0.002353858277
  131   -0.004272283044
  132   -0.006613709122
  133   -0.007101690057
  134   -0.006573535591
  135   -0.050586682101
  136    0.079048104318
  137   -0.028461422217
  138    0.129145824895
  139    0.068214269882
  140    0.014118469568
  141    0.001599378606
  142   -0.015759251767
  143   -0.004236568566
  144    0.005420327661
  145    0.006131621335
  146    0.007273114966
  147   -0.007566119231
  148    0.015011633600
  149   -0.001589161783
  150    0.007744815900
  151   -0.123657456327
  152   -0.765046786296
  153    0.018498074084
  154   -0.073136424089
  155    0.228334836341
  156    0.020556122514
  157    0.130246936857
  158    0.968880174661
  159   -0.053830282344
  160   -0.091061074336
  161    0.066880375727
  162   -0.172779370835
  163   -0.111127470620
  164   -1.178312683868
  165   -0.032352619154
  166    0.249989885422
  167    0.096473691004
  168    0.016484206010
  169    0.019566992306
  170    0.017486130676
  171    0.070682214261
  172    0.022132830852
  173   -0.009570941130
  174    0.000228582201
  175    0.008432974091
  176    0.013313273595
  177    0.009952903780
  178    0.000600694429
  179   -0.003452062015
  180    0.004540864603
  181    0.025676671216
  182   -0.135177904516
  183   -0.011917540288
  184   -0.009113331977
  185   -0.007252034752
  186    0.014002340967
  187    0.001391704550
  188    0.144297990323
  189    0.078174899255
  190    0.015635716091
  191    0.011150044141
  192    0.031729313015
  193   -0.026708910834
  194   -0.067160900054
  195    0.105935842245
  196    0.016805750919
  197   -0.020445582657
  198   -0.033523393295
 Sym=     1a
 Ene= 1.27089070777730E+00
Spin= Alpha
 Occup= 0
  1     -0.001265402370
  2      0.002168954149
  3     -0.044993877337
  4      0.223765565154
  5      0.072462076097
  6      0.129719480181
  7      0.010935204255
  8      0.000036080218
  9     -1.212210062554
  10    -0.220395999510
  11    -0.003794042693
  12    -3.327678662954
  13    -0.279041962737
  14     0.091311377998
  15     0.006886172793
  16     0.006508170483
  17    -0.013394343276
  18     0.049157354890
  19     0.143473005926
  20     0.008675826015
  21    -0.052375307693
  22    -0.092114623042
  23     0.144489930735
  24    -0.524992699403
  25    -1.348322529687
  26    -0.058452903749
  27    -0.045595359998
  28     0.013416142712
  29     0.004018394734
  30     0.046947521492
  31    -0.012149430345
  32     0.009793644881
  33     0.014225073157
  34    -0.005850213914
  35    -0.015184887152
  36    -0.007236433369
  37    -0.008375702738
  38     0.009332228927
  39     0.181403574184
  40    -2.076731960881
  41    -0.636187686467
  42    -0.006428938133
  43     0.023235688511
  44     0.028940178790
  45    -0.983003725114
  46    -0.071773345006
  47     0.447879383463
  48    -0.475466428713
  49    -0.731398637483
  50    -0.138002576392
  51    -0.005770547484
  52     0.007675898500
  53    -0.001905351016
  54     0.014421432819
  55     0.002255932026
  56    -0.005340382010
  57    -0.280663803362
  58     0.113816678288
  59     0.166847125074
  60    -0.085863383786
  61     0.259377349361
  62     0.052722717499
  63    -0.011614327340
  64     0.010033656808
  65    -0.027462269206
  66    -0.000932128256
  67     0.007085758073
  68     0.033863648845
  69     0.016514383524
  70    -0.020547321284
  71     0.002980851612
  72     0.010431448978
  73     0.066668387256
  74     0.111273517465
  75    -0.246273810800
  76     0.024844535965
  77     0.051486885576
  78    -0.006118009297
  79     0.011069587591
  80    -0.015463337958
  81    -0.135442116632
  82     1.969165299649
  83     0.523790978110
  84    -0.008084431828
  85    -0.022077537096
  86    -0.041994554039
  87    -0.988911474777
  88    -0.214853469461
  89    -0.260167609697
  90    -0.627821631420
  91     0.643516144111
  92     0.389483519392
  93    -0.002842770045
  94    -0.001716315284
  95     0.004559085329
  96     0.013603649877
  97     0.004034980401
  98     0.006670801395
  99     0.366711392380
  100   -0.117881159168
  101   -0.248830233212
  102    0.077182811876
  103    0.138521291756
  104   -0.052561675628
  105   -0.020487102659
  106   -0.009196210124
  107    0.020308841197
  108   -0.002188487128
  109   -0.010993582073
  110   -0.024245797639
  111    0.029674819652
  112    0.023331592657
  113   -0.003001372037
  114    0.011575979836
  115    0.000447916271
  116   -0.001538890503
  117    0.035004955200
  118   -0.177959437272
  119   -0.006077676613
  120    0.946584783702
  121   -0.008655345333
  122    0.008659415843
  123   -3.822034025300
  124   -0.104924528755
  125   -0.099624277712
  126    5.640432403070
  127    0.290740050074
  128   -0.112153593391
  129    0.023072782994
  130   -0.018602704833
  131   -0.004470078161
  132   -0.065294688942
  133    0.022908818409
  134    0.007867674136
  135    0.159142144092
  136   -0.078794863592
  137   -0.080347280500
  138   -0.016253485672
  139    0.551686969624
  140    0.057121324052
  141   -0.018441744410
  142    0.053554813897
  143    0.026151898748
  144    0.135244739782
  145   -0.038941803786
  146   -0.040661969552
  147   -0.110502543308
  148   -0.032909518852
  149    0.005575515548
  150    0.051135990138
  151    0.032916784207
  152   -0.087018925964
  153   -0.459873510331
  154    0.038255725705
  155   -0.012048143702
  156    0.017687959335
  157   -0.078909920909
  158    0.313845770897
  159    0.324006397768
  160   -0.004823099193
  161   -0.014582943057
  162   -0.031518810700
  163   -0.001987288915
  164    0.119425050075
  165    0.367501939273
  166   -0.003394717750
  167   -0.023083872812
  168   -0.022757574726
  169   -0.019655171705
  170    0.140264559449
  171    0.360435222180
  172    0.030353130804
  173    0.012618439433
  174   -0.033555640253
  175   -0.011328045980
  176   -0.078111596595
  177   -0.339740941918
  178   -0.002401638499
  179    0.014115860775
  180    0.018345632843
  181    0.070342311330
  182   -0.285165738483
  183   -0.292548811266
  184   -0.006379881297
  185    0.011052556732
  186    0.024476180848
  187   -0.351192334506
  188   -1.187561123104
  189    3.234158141483
  190   -0.345721010377
  191    0.041284195747
  192   -0.185215960217
  193    0.311061859837
  194    0.952789644407
  195   -2.876579866088
  196   -0.251308243721
  197   -0.107212426158
  198    0.198139734633
 Sym=     1a
 Ene= 1.28077461366998E+00
Spin= Alpha
 Occup= 0
  1      0.058103812780
  2     -0.063855064135
  3      1.442878864036
  4     -9.013364494751
  5     -0.760851882367
  6     -0.004574731069
  7      0.066813833731
  8      0.105268395455
  9      0.059159659041
  10     1.280869649354
  11     4.133337975401
  12     0.022516934436
  13     0.340043781264
  14     2.117614534636
  15    -0.006780294957
  16    -0.071735199731
  17     0.078515494688
  18    -0.002737421053
  19     0.004656771269
  20    -0.001637296878
  21     0.671705954017
  22     1.156662446405
  23    -1.828368400422
  24    -0.041421223688
  25    -0.045273733610
  26    -0.992895122699
  27    -0.014348010543
  28    -0.136988699942
  29     0.294100899843
  30    -0.000752273596
  31    -0.033751398042
  32    -0.217384924987
  33     0.020002149746
  34     0.217541025175
  35    -0.177192837588
  36     0.001549806672
  37    -0.004504845589
  38    -0.017213303463
  39    -0.038364649105
  40     0.549891915696
  41    -0.001664338846
  42     0.022152965221
  43    -0.010868720036
  44     0.025787536396
  45     0.290148906733
  46     0.034761286119
  47    -0.372342972324
  48    -0.347566955379
  49    -0.037369699863
  50    -0.196281808133
  51     0.005164083944
  52     0.002824451233
  53    -0.007988535177
  54     0.000131614678
  55    -0.011596155259
  56    -0.000349622287
  57     0.178793167822
  58    -0.230517737477
  59     0.051724569655
  60    -0.001865952760
  61    -0.033926208888
  62     0.052215976830
  63    -0.005446346615
  64     0.006459247815
  65    -0.004081349114
  66    -0.008301199772
  67    -0.002363881372
  68    -0.003513742083
  69     0.015608240528
  70    -0.006302108947
  71     0.008989446519
  72     0.021650549522
  73     0.121233267096
  74     1.161415883958
  75     0.129085449778
  76    -0.031454682243
  77     0.197737912106
  78     0.066402202510
  79    -0.007046578161
  80    -0.011503154930
  81    -0.083947646382
  82     0.634740754348
  83     0.042185350150
  84    -0.013290671826
  85    -0.011910875069
  86     0.037279669729
  87    -0.338568520685
  88    -0.113250490741
  89    -0.376230289847
  90     0.282235358570
  91     0.047683275113
  92    -0.277216800746
  93     0.009524443115
  94     0.002679719273
  95    -0.012204162388
  96    -0.000478080118
  97     0.006904915159
  98     0.000215997217
  99     0.138279981699
  100   -0.190120217677
  101    0.051840235978
  102    0.156393208277
  103    0.000301221938
  104    0.062780905435
  105    0.004163342963
  106    0.012444232529
  107    0.000375702864
  108    0.000949021994
  109   -0.011388582020
  110    0.004269893447
  111   -0.006534732721
  112   -0.005307107898
  113   -0.004773951733
  114   -0.029485029071
  115   -0.017389830949
  116    0.058202739065
  117   -1.086569967455
  118    5.864826391643
  119    1.563394848032
  120    0.024456802918
  121   -0.217160003698
  122   -0.171227318909
  123   -0.426884327265
  124    3.106477376973
  125    4.702732018592
  126   -0.129849379678
  127    1.002018382234
  128    1.018953090636
  129   -0.025173321841
  130   -0.017041930481
  131    0.042215252322
  132   -0.000282137535
  133    0.007775054402
  134    0.393008575504
  135   -0.900651073444
  136   -0.416176723304
  137    1.316827796748
  138   -0.025337150162
  139    0.237297583865
  140    2.754614945624
  141    0.026156474768
  142   -0.027408023297
  143    0.033972199154
  144   -0.010506184077
  145   -0.198501491282
  146   -0.048734130635
  147   -0.024586409304
  148    0.235273213215
  149    0.003155642643
  150    0.062769360174
  151    0.011462193467
  152   -0.007916527126
  153   -0.093812841484
  154    0.019608305017
  155    0.010849624828
  156   -0.017742052669
  157    0.053067210162
  158   -0.032810587415
  159   -0.092712365248
  160    0.022104041246
  161    0.012831939129
  162   -0.008082156063
  163    0.003082882713
  164   -0.268602233730
  165   -0.225272833011
  166    0.010154886011
  167    0.018347630508
  168   -0.019606189376
  169    0.010464251483
  170   -0.030596554368
  171   -0.092237963969
  172   -0.027219128223
  173    0.007898757703
  174   -0.010630563532
  175    0.011659831829
  176   -0.278443936881
  177   -0.255873575976
  178   -0.016272882976
  179    0.014941696029
  180   -0.015716692030
  181    0.064476720360
  182   -0.058873140673
  183   -0.114693995262
  184   -0.023617183730
  185    0.007303266418
  186   -0.005858771425
  187    0.039088699944
  188    0.020590230716
  189    0.090032317915
  190    0.054467799164
  191    0.027219997335
  192   -0.034150867593
  193    0.139363534140
  194    0.907186789645
  195    0.025070455525
  196   -0.206415689965
  197   -0.023670483813
  198    0.054969832891
 Sym=     1a
 Ene= 1.29951320233690E+00
Spin= Alpha
 Occup= 0
  1      0.028787937667
  2     -0.012678949721
  3     -0.352351067012
  4      1.395794711979
  5      2.901220141173
  6     -0.005061427790
  7     -0.015624479356
  8      0.011777335944
  9     -1.641580076443
  10     0.179237542222
  11     1.000650828125
  12    -5.082956080571
  13     0.668243517347
  14     3.045138730223
  15    -0.013181815531
  16     0.019204530696
  17    -0.006022715165
  18    -0.009246974254
  19     0.015628012326
  20    -0.004839053341
  21    -0.044152376528
  22     0.016252520516
  23     0.027899856012
  24     0.065950674684
  25     0.004851547297
  26    -0.049204914698
  27    -0.005773106639
  28    -0.000808696006
  29     0.017496150929
  30     0.007949308968
  31    -0.016528275418
  32    -0.029819462525
  33    -0.000203873637
  34     0.017613254964
  35     0.006345912832
  36    -0.003500849251
  37     0.064326963485
  38    -0.490575818150
  39     2.595928897234
  40    -3.826119049285
  41    -11.641287932364
  42     0.120295781794
  43    -0.007753708046
  44    -0.076589546663
  45    -1.124681229682
  46     0.217598929533
  47     0.639409570784
  48    -1.989517809616
  49     0.313175210109
  50     1.168029091487
  51     0.022479834144
  52    -0.021167485954
  53    -0.001312348190
  54    -0.003754629837
  55    -0.024553320916
  56     0.008194748004
  57    -0.223731903428
  58     0.189594517425
  59     0.034137386003
  60     0.044895836506
  61     0.302501178069
  62    -0.024888863985
  63    -0.007527268808
  64    -0.013722913344
  65    -0.002102142480
  66     0.013787005456
  67     0.002981626233
  68    -0.027918710798
  69    -0.003688114612
  70     0.015429594019
  71     0.030739030889
  72    -0.003112453597
  73    -0.018329182954
  74     0.042704367715
  75    -0.130670339612
  76     0.015726355460
  77    -0.002278120211
  78    -0.014747657916
  79    -0.029604647627
  80     0.074122712311
  81    -0.503429898418
  82     1.224179355402
  83     1.726608446193
  84     0.040974842649
  85     0.039953810555
  86     0.078504471092
  87    -0.207114264387
  88    -0.299395453476
  89    -0.697524173024
  90    -0.417175214984
  91    -0.544835676417
  92    -0.655936374077
  93     0.015496887574
  94     0.003237312451
  95    -0.018734200025
  96    -0.009537672659
  97    -0.008113533381
  98    -0.008728906034
  99    -0.094696697919
  100   -0.081852638098
  101    0.176549336017
  102    0.154390543614
  103    0.144943576593
  104    0.122783178731
  105    0.017133369114
  106    0.000804835585
  107    0.011567181162
  108   -0.004642532943
  109   -0.003046061477
  110   -0.022957953577
  111   -0.018344293870
  112    0.001966261230
  113    0.007438951545
  114   -0.030508467941
  115   -0.029628987694
  116    0.074171965070
  117   -0.503351784606
  118    1.221599565601
  119    1.725925150917
  120   -0.058111872867
  121   -0.036312488557
  122   -0.068999255854
  123    0.568506995573
  124    0.295712537751
  125    0.454148723431
  126    0.529841801230
  127    0.193143436666
  128    0.758322620577
  129   -0.003607134938
  130    0.004710215074
  131   -0.001103080136
  132   -0.017166329805
  133   -0.017762647833
  134   -0.001813310853
  135   -0.005987041019
  136   -0.089189254030
  137    0.095176295049
  138    0.187823388003
  139    0.189577897077
  140    0.087780739925
  141   -0.027501228724
  142   -0.014749073810
  143    0.011071145045
  144    0.002378659660
  145    0.002275450536
  146   -0.017448394952
  147    0.034518110474
  148    0.017512508450
  149    0.002594895206
  150    0.009229051650
  151   -0.002414073836
  152    0.051419534467
  153    0.127185794467
  154   -0.003602894584
  155    0.005582864690
  156   -0.009183861004
  157   -0.018546775598
  158    0.048271022129
  159   -0.134006057256
  160    0.019476426917
  161    0.001760846853
  162   -0.008896845811
  163   -0.059455902735
  164   -0.038353696358
  165    0.162041307171
  166    0.017278462028
  167    0.014888138114
  168   -0.019756166950
  169   -0.067771506181
  170    0.929605578032
  171    1.154949923634
  172    0.000958983206
  173    0.044189794204
  174    0.054806739722
  175   -0.067634362584
  176    0.929519114687
  177    1.155255255905
  178   -0.060048808630
  179   -0.003596883476
  180   -0.036389347893
  181   -0.071239784191
  182    1.132395561359
  183    1.256718185441
  184   -0.001472541921
  185   -0.046973437121
  186    0.025511872259
  187   -0.001824977549
  188    0.051314296843
  189    0.122337883492
  190    0.003479350849
  191    0.010840147442
  192    0.000834790811
  193   -0.059160507990
  194   -0.041625921951
  195    0.159224756105
  196    0.018155425695
  197    0.014835830835
  198   -0.019497157156
 Sym=     1a
 Ene= 1.30010486427623E+00
Spin= Alpha
 Occup= 0
  1      0.028681189828
  2     -0.012563900329
  3     -0.353176565970
  4      1.400663305867
  5      2.897437312921
  6      0.010430744822
  7     -0.013892883933
  8      0.010247724132
  9      1.669863125608
  10     0.592041913752
  11     0.772346248832
  12     5.134157282859
  13     1.934560418949
  14     2.325373324158
  15    -0.018160360801
  16     0.020807490632
  17    -0.002647129831
  18    -0.002145414713
  19    -0.011921022923
  20    -0.008752222621
  21    -0.008768338730
  22    -0.016359519376
  23     0.025127858106
  24    -0.080361638772
  25     0.013857026791
  26    -0.037769061013
  27     0.003308925858
  28    -0.006793131877
  29     0.016259521773
  30    -0.011985977952
  31    -0.009477554754
  32    -0.029779541187
  33     0.007546588062
  34     0.018591497549
  35     0.007965103608
  36    -0.002226989027
  37    -0.029559901033
  38     0.074009225910
  39    -0.502167942389
  40     1.218185079542
  41     1.723197810818
  42    -0.037661404938
  43     0.030667293229
  44     0.084088822576
  45     0.168004994815
  46    -0.256087939376
  47    -0.721966143305
  48     0.437019567398
  49    -0.433854916531
  50    -0.714220258829
  51     0.012622178553
  52     0.007669199460
  53    -0.020291378013
  54     0.010943813617
  55     0.004701049775
  56    -0.008653961815
  57    -0.068852423360
  58    -0.141243311998
  59     0.210095735358
  60    -0.128549488473
  61    -0.126811721526
  62     0.107985173633
  63    -0.022694541185
  64     0.003187637136
  65     0.004208996089
  66     0.004059848580
  67    -0.005228111364
  68    -0.023707606042
  69     0.026388073505
  70     0.000951447370
  71     0.018060645219
  72     0.020691230993
  73    -0.018636168233
  74     0.047297081662
  75    -0.133066901144
  76    -0.016687585140
  77    -0.005589720697
  78    -0.012451430335
  79     0.064425461526
  80    -0.490839217324
  81     2.598115573938
  82    -3.834049233605
  83    -11.625613165759
  84    -0.124411373273
  85    -0.037983812706
  86    -0.059015687681
  87     1.116954655167
  88     0.495766452165
  89     0.482064758185
  90     1.993558558794
  91     0.806443617324
  92     0.887414813996
  93     0.023175803616
  94    -0.016677314078
  95    -0.006498489538
  96     0.017351000239
  97     0.017487944031
  98     0.011868332374
  99    -0.245922554189
  100    0.144337332121
  101    0.101585222068
  102   -0.169081914451
  103   -0.238676211032
  104   -0.076625965753
  105   -0.004217536624
  106   -0.018294896143
  107   -0.003698329004
  108   -0.000928881937
  109    0.006278338309
  110   -0.024493052496
  111    0.006587301091
  112    0.018266840541
  113    0.029454881530
  114   -0.011765800536
  115   -0.029582626013
  116    0.074121675708
  117   -0.503937421276
  118    1.227364014395
  119    1.723817903896
  120    0.054604570569
  121   -0.022718734616
  122   -0.076963864413
  123   -0.552028174446
  124    0.161889250806
  125    0.537756644189
  126   -0.450396211045
  127    0.071241464945
  128    0.831999618159
  129   -0.005717780444
  130    0.011137495871
  131   -0.005419715427
  132    0.013334386237
  133    0.018147795672
  134    0.000369859870
  135    0.016484970186
  136   -0.160080550606
  137    0.143595580420
  138   -0.138752201068
  139   -0.190501852909
  140    0.065763294255
  141    0.017864285747
  142   -0.014031401987
  143    0.021423697615
  144    0.004765027966
  145    0.006352636340
  146   -0.026213460130
  147   -0.028732482345
  148    0.012472464857
  149   -0.002529446387
  150   -0.013918996202
  151   -0.067433622087
  152    0.927726577718
  153    1.152334588752
  154   -0.004064186182
  155    0.043226191244
  156    0.055308062634
  157   -0.071037058456
  158    1.132407388397
  159    1.253962328286
  160    0.016502049794
  161   -0.044708030991
  162    0.023741916212
  163   -0.067669273160
  164    0.931714744618
  165    1.153873298424
  166    0.053129287315
  167    0.010737472938
  168   -0.044371643763
  169   -0.001747957066
  170    0.051577656920
  171    0.120821306954
  172    0.000596799812
  173    0.005926846364
  174   -0.009696676529
  175   -0.059140836820
  176   -0.040572376987
  177    0.158851042133
  178   -0.023302782656
  179    0.009483363732
  180   -0.016910917156
  181   -0.018468142182
  182    0.043119506453
  183   -0.129742834817
  184   -0.020475145360
  185   -0.003987596026
  186   -0.005585935550
  187   -0.059404728975
  188   -0.039078340350
  189    0.161869586481
  190   -0.023397124138
  191    0.009993503285
  192   -0.016372625451
  193   -0.002402563807
  194    0.051991534330
  195    0.127989357583
  196   -0.005551592942
  197    0.009766984665
  198    0.001547343145
 Sym=     1a
 Ene= 1.30061967562262E+00
Spin= Alpha
 Occup= 0
  1      0.028308188154
  2     -0.012105153115
  3     -0.355455751561
  4      1.412444218074
  5      2.881182807000
  6      0.002188288213
  7     -0.019957868349
  8     -0.001135504251
  9     -0.032644644594
  10    -0.737382082476
  11    -1.789148885291
  12    -0.122652310608
  13    -2.150501092289
  14    -5.537266893831
  15     0.001235480688
  16     0.008097589369
  17    -0.009333070057
  18    -0.002780555605
  19     0.002233942556
  20    -0.024857067857
  21     0.007412659421
  22     0.070914996264
  23    -0.078327655685
  24    -0.006521514639
  25    -0.009790266057
  26     0.030669802437
  27    -0.003742770265
  28     0.004710779215
  29     0.020374870138
  30    -0.002024716279
  31    -0.007196581102
  32    -0.035609619012
  33     0.007046169521
  34     0.000876407571
  35     0.008273862215
  36    -0.005724980907
  37    -0.029505988410
  38     0.073933713940
  39    -0.502643865900
  40     1.222852737765
  41     1.718738024157
  42    -0.095675872479
  43    -0.014633441164
  44    -0.002515250755
  45     0.748065085430
  46     0.193559951064
  47     0.137322355438
  48     0.943603435978
  49    -0.044461121993
  50     0.038952287857
  51    -0.019424515294
  52     0.001191536994
  53     0.018232978300
  54    -0.008346022899
  55    -0.008109434122
  56    -0.004155641879
  57     0.273222786431
  58    -0.071556328772
  59    -0.201666457659
  60     0.076778166052
  61     0.007416835808
  62     0.063075023688
  63     0.030065776818
  64    -0.002206997718
  65     0.007229624686
  66    -0.012205523840
  67    -0.003885835498
  68    -0.025633347768
  69    -0.028131948618
  70     0.006846833652
  71     0.015933788418
  72    -0.008423673414
  73    -0.070503408785
  74     1.133740163391
  75     1.248486766665
  76     0.006920784445
  77    -0.051198079103
  78     0.010321788417
  79    -0.029482679236
  80     0.073877675814
  81    -0.501807340426
  82     1.218488738308
  83     1.715724221742
  84     0.094987906379
  85     0.009129803061
  86    -0.016642321026
  87    -0.742164399346
  88     0.007742952674
  89     0.248964268332
  90    -0.885163903957
  91    -0.267432972730
  92     0.168364863777
  93    -0.018774333661
  94     0.003294503025
  95     0.015479830636
  96     0.001563735295
  97     0.014931153647
  98    -0.002070861538
  99     0.267751579338
  100   -0.079467889288
  101   -0.188283690050
  102    0.031936651594
  103   -0.100772403920
  104    0.051990556804
  105   -0.030196878163
  106    0.003685940632
  107   -0.002567155849
  108    0.008849800425
  109   -0.018339893473
  110   -0.012850874299
  111    0.031663562943
  112    0.013394685184
  113    0.016295075292
  114    0.001583323849
  115    0.064447417624
  116   -0.491190230562
  117    2.603242111369
  118   -3.854870285681
  119   -11.578753994372
  120    0.001930812459
  121    0.059964476348
  122    0.129501630809
  123   -0.039329007822
  124   -0.403891149897
  125   -1.251570247661
  126   -0.058067564782
  127   -0.785378826061
  128   -2.178200814848
  129   -0.011972624982
  130   -0.015804548529
  131    0.027777173511
  132    0.002168472391
  133    0.000440651130
  134    0.022946341716
  135    0.198222349864
  136    0.100236999546
  137   -0.298459349410
  138   -0.003590561202
  139   -0.010601374785
  140   -0.246059659743
  141   -0.009492730266
  142   -0.015384454405
  143    0.005235905785
  144    0.008296093165
  145    0.015094317315
  146   -0.031157048816
  147    0.004439740934
  148    0.005546094193
  149    0.024132344061
  150   -0.008885819678
  151   -0.059179629472
  152   -0.039918891772
  153    0.159188924958
  154   -0.002523593723
  155    0.025985686886
  156    0.015254107507
  157   -0.018564173787
  158    0.041857604802
  159   -0.127995520059
  160    0.004341157908
  161    0.009624171901
  162    0.018853430053
  163   -0.001720736247
  164    0.051504037583
  165    0.121081135638
  166   -0.007806519072
  167    0.008020961143
  168   -0.001529442476
  169   -0.059358233826
  170   -0.038150088140
  171    0.161538838024
  172   -0.001802947391
  173    0.026168872693
  174    0.014749457271
  175   -0.002320807904
  176    0.051882368962
  177    0.126783560996
  178    0.005269895028
  179    0.009577423572
  180   -0.002737335244
  181   -0.018704373070
  182    0.046753462158
  183   -0.131881460032
  184   -0.003760433475
  185    0.009366013163
  186    0.018950982908
  187   -0.067232601836
  188    0.931722150564
  189    1.146760166986
  190   -0.061744374318
  191   -0.001893442715
  192   -0.031914810497
  193   -0.067054940642
  194    0.931257228004
  195    1.147135541290
  196    0.055414789723
  197    0.012206793846
  198   -0.040103033567
 Sym=     1a
 Ene= 1.31250406777088E+00
Spin= Alpha
 Occup= 0
  1     -0.006097783433
  2      0.000775282091
  3     -0.111147891159
  4      0.966789575974
  5     -0.054824391873
  6      0.046935698608
  7      0.030590663285
  8      0.020353946685
  9     -0.896586421921
  10    -0.477320707799
  11    -0.631508304245
  12    -1.432241325310
  13    -0.860761788443
  14    -1.616445588796
  15     0.019951593526
  16    -0.006595751702
  17    -0.013355841824
  18     0.006016318528
  19     0.021216217712
  20    -0.018315464103
  21    -0.225829191210
  22    -0.029730340487
  23     0.255559531697
  24    -0.084389322959
  25    -0.270562146027
  26     0.210549331678
  27    -0.019350390726
  28     0.035434243650
  29    -0.015887883303
  30     0.017628050410
  31    -0.017186763755
  32     0.015131393271
  33     0.008333223022
  34    -0.030353262764
  35     0.006184438979
  36    -0.015970597500
  37     0.011894686411
  38    -0.038874678752
  39     0.332968133354
  40    -1.005401740127
  41    -0.465600090164
  42     0.025522432370
  43    -0.018988684764
  44    -0.047679257922
  45    -0.292032740405
  46     0.104357509855
  47     0.374461818704
  48    -0.598713941592
  49     0.243144805645
  50    -0.030759620850
  51     0.006373303531
  52    -0.003805825602
  53    -0.002567477929
  54    -0.003936166048
  55    -0.003709996075
  56     0.002160601845
  57    -0.112500217163
  58     0.103021741046
  59     0.009478476117
  60     0.054702271672
  61     0.104488257015
  62    -0.021355770024
  63     0.004677754881
  64     0.006471142491
  65    -0.008009349357
  66    -0.000228164473
  67    -0.007046940826
  68     0.031053746366
  69    -0.006047702265
  70    -0.001635007876
  71    -0.020308076596
  72    -0.012989871613
  73     0.033335778769
  74    -0.035032668949
  75    -0.145292079173
  76     0.002205739816
  77     0.012062964616
  78     0.003828391492
  79     0.006085005130
  80    -0.064911582231
  81    -0.081853819678
  82     2.152374666363
  83    -0.586121117462
  84     0.092875249546
  85     0.028069542729
  86    -0.005382508919
  87     0.444046466194
  88     0.133989268772
  89    -1.285586909408
  90    -2.498080939693
  91    -0.671803165444
  92     1.415904465566
  93    -0.014902700518
  94    -0.010647660177
  95     0.025550360695
  96     0.010691770249
  97    -0.023512190493
  98    -0.013891113506
  99     0.358474620217
  100   -0.300288466803
  101   -0.058186153414
  102    0.227026296258
  103   -0.250644870586
  104   -0.096235069525
  105   -0.010364648985
  106   -0.018194123419
  107    0.031681581041
  108   -0.033600108210
  109    0.016825657188
  110   -0.045090728683
  111    0.047505744027
  112    0.007584320865
  113    0.002585427377
  114   -0.026379816183
  115    0.009346513226
  116   -0.036089126275
  117    0.380330589256
  118   -1.524404473442
  119   -0.547641937694
  120   -0.014154262392
  121    0.016562222562
  122    0.068631285112
  123    0.015284255151
  124   -0.290189670936
  125   -0.800309930137
  126    0.332529747983
  127   -0.331900093627
  128   -0.828654997472
  129   -0.003133700593
  130    0.003056581835
  131    0.000077118758
  132   -0.002856378149
  133   -0.000257662928
  134    0.010292272382
  135    0.170071848295
  136    0.072339985574
  137   -0.242411833869
  138   -0.003025320516
  139    0.066908146295
  140   -0.216619205913
  141   -0.000788073112
  142    0.021294869792
  143   -0.020817976874
  144    0.003456865081
  145   -0.002022476847
  146    0.027399227246
  147   -0.002399554052
  148   -0.026547589009
  149    0.000531019621
  150    0.005050744915
  151    0.046051206560
  152    0.072500246801
  153   -0.397857966118
  154    0.019907456366
  155   -0.003106032446
  156   -0.014510232144
  157    0.058620907927
  158   -0.043709297962
  159   -0.174566153262
  160   -0.004226860370
  161    0.006870374913
  162    0.002694158072
  163    1.069126958715
  164   -3.735114537078
  165    5.200449368608
  166    0.237128543600
  167    0.084847119588
  168   -0.261071153906
  169   -0.015164876919
  170    0.110902859860
  171   -0.058244807095
  172    0.016645025104
  173   -0.008342832157
  174   -0.002776150374
  175    0.036874852224
  176    0.075179677671
  177   -0.459050647914
  178    0.019387200103
  179   -0.006498681206
  180    0.028240398002
  181   -0.012489171205
  182    0.185148382539
  183    0.088290998291
  184    0.032050663873
  185    0.019610342088
  186   -0.003404993399
  187    0.015267684722
  188   -0.101379299201
  189   -0.111935871213
  190   -0.003878625416
  191   -0.001027410105
  192    0.005190489977
  193    0.000878226569
  194    0.127636646248
  195   -0.994264771338
  196   -0.025036213052
  197   -0.008049807664
  198   -0.004759294081
 Sym=     1a
 Ene= 1.31323221781173E+00
Spin= Alpha
 Occup= 0
  1     -0.006037956293
  2      0.000697405406
  3     -0.110604032665
  4      0.963502835898
  5     -0.052498814049
  6     -0.052518715545
  7      0.016327105046
  8      0.022799814962
  9      1.120078695009
  10    -0.076032068545
  11    -0.411237126384
  12     2.272598254647
  13     0.196209954929
  14    -0.443371602246
  15    -0.001067893970
  16     0.004284221628
  17    -0.003216327658
  18    -0.000136647168
  19    -0.034048648652
  20    -0.007691328226
  21     0.013901507295
  22    -0.065327479828
  23     0.051425972533
  24     0.104219709228
  25     0.405064184795
  26     0.153886610151
  27     0.018310372329
  28     0.000317375949
  29    -0.008029650889
  30    -0.031079856624
  31     0.016610799726
  32     0.004608101672
  33     0.006513914292
  34    -0.017036604245
  35     0.006164805462
  36     0.031565920460
  37     0.006102792415
  38    -0.064925737080
  39    -0.081544709308
  40     2.151468497663
  41    -0.586408127261
  42    -0.054482549466
  43     0.037460950507
  44     0.071329350130
  45     0.636924538007
  46     0.987837362583
  47     0.697097420935
  48     0.517314881927
  49    -1.761231000230
  50    -2.310268181183
  51    -0.011269865906
  52     0.021352421145
  53    -0.010082555239
  54     0.012898050053
  55     0.013065248536
  56     0.026992250029
  57    -0.142646381842
  58    -0.028057943142
  59     0.170704324984
  60    -0.049950477412
  61    -0.235893188916
  62     0.424291373746
  63     0.000328412156
  64    -0.004378657598
  65    -0.010120613560
  66    -0.006055097569
  67    -0.050263826309
  68    -0.022857315522
  69     0.005614486425
  70     0.056138411932
  71     0.036435543458
  72     0.001637926436
  73    -0.012584967444
  74     0.185100426730
  75     0.088583648739
  76    -0.022898510481
  77     0.021359681421
  78     0.021038877285
  79     0.009339930011
  80    -0.036029037376
  81     0.380013643019
  82    -1.523914481468
  83    -0.547237029625
  84    -0.050781664564
  85    -0.033716629654
  86    -0.038362079928
  87     0.713572278810
  88     0.298775312791
  89     0.355446640770
  90     0.607012008747
  91     0.330846039677
  92     0.656404921313
  93     0.005466200422
  94    -0.007415606428
  95     0.001949406006
  96    -0.001961308745
  97     0.007586514936
  98    -0.002632713115
  99    -0.167177884546
  100    0.114730462424
  101    0.052447422122
  102   -0.115565614269
  103   -0.244593441227
  104   -0.104162630882
  105    0.007720264965
  106   -0.006105424847
  107   -0.008698553589
  108   -0.009934236875
  109    0.019410725918
  110    0.025587290183
  111   -0.000423585485
  112   -0.011219438925
  113   -0.013916955905
  114    0.018198631542
  115    0.011886702050
  116   -0.038855506560
  117    0.332637843719
  118   -1.003685522379
  119   -0.464826875973
  120    0.031827092306
  121    0.019901761008
  122    0.043281032165
  123   -0.183255519417
  124   -0.202275914671
  125   -0.401063701165
  126    0.177669888259
  127    0.120265225963
  128   -0.610488798026
  129   -0.003341747629
  130   -0.005065102977
  131    0.008406850606
  132    0.000375416906
  133   -0.000763732543
  134    0.001638521760
  135    0.077618708205
  136    0.072091811938
  137   -0.149710520143
  138   -0.030916247541
  139    0.005967654417
  140   -0.080174310646
  141    0.014178362611
  142    0.021779208235
  143   -0.011041959296
  144   -0.003357940361
  145   -0.006554287970
  146    0.019655164736
  147   -0.015664329204
  148   -0.022665586095
  149   -0.004840821782
  150    0.007830782638
  151    0.000860985913
  152    0.127787364913
  153   -0.997262903137
  154    0.019426776946
  155   -0.006495187764
  156   -0.017333591361
  157    0.033364841322
  158   -0.034896919089
  159   -0.145036795496
  160   -0.010093113467
  161    0.006924716383
  162   -0.003987150820
  163    0.015365342373
  164   -0.101629163051
  165   -0.112997774798
  166   -0.001316117088
  167   -0.004638623494
  168   -0.004422346538
  169    1.069509101756
  170   -3.735520993713
  171    5.202765265604
  172    0.030216390356
  173    0.264300575047
  174    0.246654896636
  175    0.046130173395
  176    0.072726670233
  177   -0.397684175988
  178    0.002707275577
  179    0.009676393542
  180    0.022711037210
  181    0.058854507756
  182   -0.044547162563
  183   -0.176093646896
  184   -0.003588361777
  185    0.003053422068
  186   -0.006983403135
  187   -0.015205735487
  188    0.111383547549
  189   -0.058296359965
  190   -0.001506228546
  191   -0.002227530578
  192    0.018702163862
  193    0.036895832609
  194    0.075446920818
  195   -0.459382803457
  196   -0.025859481140
  197   -0.020401985491
  198    0.011552168126
 Sym=     1a
 Ene= 1.31369016643188E+00
Spin= Alpha
 Occup= 0
  1     -0.006059788004
  2      0.000698896155
  3     -0.110227365853
  4      0.960999109202
  5     -0.054334921032
  6     -0.000064069942
  7     -0.009630143413
  8     -0.058819366020
  9     -0.195083106278
  10     0.361939105597
  11     1.123035925628
  12    -0.856169695527
  13     0.746808232031
  14     2.027448911749
  15    -0.025400558303
  16     0.012712809586
  17     0.012687748717
  18    -0.008974916095
  19     0.014034627444
  20     0.017695024826
  21     0.388770051282
  22    -0.187770918851
  23    -0.200999132431
  24     0.063779146048
  25    -0.168475464685
  26    -0.138044058518
  27    -0.013478093659
  28    -0.026919372140
  29     0.002694993726
  30     0.016117919043
  31     0.004918225393
  32     0.025902327741
  33     0.001964841134
  34     0.031197902217
  35    -0.029518041244
  36     0.002794359313
  37     0.009371337653
  38    -0.036131380298
  39     0.380485554899
  40    -1.524120306078
  41    -0.548975002979
  42     0.068739127603
  43    -0.007709092259
  44    -0.019968103956
  45    -0.743941340522
  46     0.094644265475
  47     0.401402689779
  48    -0.923854518209
  49    -0.089026225836
  50     0.211718087166
  51     0.002043537895
  52    -0.002618866637
  53     0.000575328742
  54     0.006902494036
  55    -0.008177292169
  56    -0.002129897361
  57    -0.236887037070
  58     0.187498159883
  59     0.049388877187
  60     0.008224179453
  61     0.223635353024
  62     0.020699990529
  63    -0.007416962851
  64    -0.003241675504
  65    -0.013771141697
  66     0.008830025545
  67     0.002074665799
  68     0.037597401280
  69     0.001120874328
  70     0.002274498274
  71    -0.019121475903
  72    -0.004479571170
  73     0.058708340383
  74    -0.044678562320
  75    -0.175562359489
  76     0.005157291105
  77     0.006246338878
  78    -0.002352600913
  79     0.011886252267
  80    -0.038839613089
  81     0.332515195021
  82    -1.003305488879
  83    -0.464924526756
  84    -0.056077886562
  85    -0.008545838323
  86     0.007576844976
  87     0.476438585154
  88     0.081359659628
  89     0.034188818325
  90     0.286762326806
  91     0.506914232786
  92     0.279112085252
  93     0.002916279724
  94    -0.000620235747
  95    -0.002296043977
  96     0.006359309408
  97     0.003305900169
  98     0.003813312981
  99    -0.100072116388
  100    0.040598248093
  101    0.059473868295
  102   -0.086822917191
  103   -0.083301920209
  104   -0.070974031411
  105    0.013690900074
  106   -0.004858478714
  107    0.004915592096
  108   -0.008605413200
  109    0.015409841991
  110    0.019283469695
  111   -0.009762856743
  112   -0.008891508788
  113   -0.025878428541
  114    0.009121303664
  115    0.006088688859
  116   -0.064898347792
  117   -0.081695816575
  118    2.151798196610
  119   -0.583645246677
  120   -0.044769259314
  121   -0.025199595853
  122   -0.082755668705
  123   -1.309470897088
  124    0.382767675144
  125   -0.037389464595
  126    2.317957728564
  127    0.232470695912
  128    1.808747923275
  129    0.028573973426
  130   -0.014582141890
  131   -0.013991831536
  132   -0.022393416030
  133    0.010007189806
  134   -0.009965683735
  135    0.161453702805
  136   -0.276556036806
  137    0.115102334001
  138    0.002399772232
  139    0.412315679925
  140    0.156424638163
  141   -0.025997097928
  142    0.008455747467
  143    0.037768177552
  144    0.042265580649
  145   -0.002929145748
  146   -0.061511309132
  147   -0.007386813738
  148   -0.008415429934
  149    0.010839981696
  150    0.018744672667
  151    0.036859533271
  152    0.074945995953
  153   -0.458822549660
  154    0.014652237242
  155   -0.026241422422
  156   -0.017591966850
  157   -0.012486059769
  158    0.186321266702
  159    0.087840404333
  160   -0.015453125241
  161   -0.000400033123
  162   -0.034569793901
  163   -0.015266190172
  164    0.111348567346
  165   -0.057064834825
  166   -0.011431866949
  167   -0.013927087960
  168   -0.005693784632
  169    0.015366243419
  170   -0.101582386480
  171   -0.113070746785
  172    0.006183076486
  173   -0.000881438449
  174    0.001943667077
  175    0.000877694359
  176    0.127877487373
  177   -0.993977395905
  178    0.006599983727
  179    0.008947188147
  180    0.024360070759
  181    0.033320230891
  182   -0.034010736726
  183   -0.144596673898
  184    0.003981777541
  185    0.006478396256
  186   -0.010503581949
  187    1.069862985737
  188   -3.734265233642
  189    5.199119849949
  190   -0.327206673033
  191    0.044364279204
  192   -0.149287350770
  193    0.046079285393
  194    0.072451965310
  195   -0.398202781674
  196   -0.022387780317
  197   -0.007017885557
  198   -0.007972050362
 Sym=     1a
 Ene= 1.31503413558370E+00
Spin= Alpha
 Occup= 0
  1      0.065068308884
  2     -0.067832455600
  3      1.581655654649
  4     -10.047778996542
  5     -0.741508716505
  6      0.000153687189
  7      0.049115651417
  8      0.117846529386
  9      0.131561248968
  10     2.623199588452
  11     4.406625229019
  12     0.176332453583
  13     1.328407168584
  14     2.065802413721
  15    -0.035687311906
  16     0.028817606902
  17     0.006869705004
  18     0.008346167226
  19     0.002756335771
  20     0.086064065216
  21     1.048382680532
  22     0.278065539806
  23    -1.326448220338
  24    -0.129174669060
  25    -0.052142454918
  26    -1.964724468101
  27    -0.011733072182
  28    -0.151125649536
  29     0.063669460367
  30    -0.000280133535
  31    -0.141901511631
  32    -0.224284042877
  33     0.016021701725
  34     0.344657846935
  35     0.138862497994
  36     0.004284483089
  37    -0.010537704151
  38    -0.012934766351
  39    -0.069326746309
  40     0.417614628637
  41    -0.026376905403
  42     0.008416302078
  43     0.030817968957
  44     0.020001277687
  45     0.388360199967
  46    -0.047059585521
  47    -0.238666074333
  48    -0.319136056762
  49    -0.169641518563
  50    -0.146768356412
  51     0.009876813115
  52    -0.004784438098
  53    -0.005092375017
  54    -0.001803531018
  55    -0.005699326851
  56    -0.009929680465
  57     0.080047336444
  58    -0.095706065027
  59     0.015658728583
  60     0.041440305186
  61    -0.131481289701
  62     0.199729489454
  63     0.000158729537
  64     0.001943219165
  65     0.000756138801
  66    -0.017273410352
  67     0.006799015059
  68    -0.000128338249
  69     0.017060452330
  70    -0.009406117147
  71    -0.000886128407
  72     0.025294124577
  73     0.133946721779
  74     1.102416013578
  75     0.073040704138
  76    -0.035926865542
  77     0.215879943944
  78    -0.187551266798
  79    -0.005642020633
  80    -0.023213911042
  81     0.018623221037
  82     0.228488203874
  83    -0.121291743537
  84    -0.015459927404
  85     0.024069618870
  86     0.009791945134
  87    -0.395998104510
  88    -0.076176101536
  89    -0.081768987897
  90     0.367887276228
  91    -0.087353266164
  92    -0.135912150393
  93     0.007474071955
  94    -0.003646782665
  95    -0.003827289290
  96     0.006160590756
  97     0.008710238844
  98    -0.006634448070
  99     0.132563553749
  100   -0.101124758119
  101   -0.031438795630
  102    0.013353060885
  103    0.053454912191
  104    0.208354033922
  105    0.006030449224
  106    0.007632358296
  107    0.007230612573
  108    0.012926024047
  109   -0.005009799835
  110    0.002667143391
  111   -0.021016720687
  112   -0.005230083353
  113   -0.012368028130
  114   -0.016365058007
  115   -0.023096445767
  116    0.061411530551
  117   -1.278350364660
  118    7.004993399978
  119    1.858714169517
  120   -0.009405233295
  121   -0.047716952237
  122   -0.276490887979
  123    0.315341466603
  124    2.608988707208
  125    5.758646967591
  126    0.059154678206
  127    0.584315088004
  128    1.498019303283
  129   -0.197757943774
  130   -0.208147800938
  131    0.405905744712
  132    0.005865604877
  133   -0.004735759917
  134    0.041886277300
  135   -1.693121207934
  136   -1.469606251650
  137    3.162727459584
  138    0.103016216622
  139   -0.144243173048
  140    1.319033724072
  141    0.044498750420
  142   -0.009845089955
  143    0.225470336272
  144   -0.077620474133
  145   -0.149059672986
  146   -0.134153678404
  147    0.017919135621
  148    0.162268247216
  149   -0.168346520884
  150   -0.001192858205
  151   -0.009892113188
  152   -0.141900674754
  153   -0.131232589364
  154    0.027730072036
  155    0.021685963231
  156    0.020599514015
  157    0.053262888499
  158   -0.028006686774
  159   -0.111084401879
  160   -0.001086083942
  161    0.019215892791
  162    0.001682420064
  163    0.033271503082
  164    0.018179984102
  165   -0.297461461073
  166   -0.033129169734
  167    0.025959659167
  168    0.006310032662
  169   -0.009115863239
  170   -0.112692599867
  171   -0.126315391904
  172   -0.024800208670
  173    0.012289356725
  174    0.018858141664
  175    0.022297612749
  176    0.012738341316
  177   -0.271196996215
  178    0.020307349443
  179    0.033468070422
  180    0.001464557384
  181    0.037687172258
  182    0.009615865449
  183   -0.083749908119
  184   -0.004549038914
  185    0.017839878158
  186    0.001733510150
  187    0.102733666202
  188    0.796193997278
  189    0.123085409530
  190    0.085476771610
  191   -0.033856954666
  192    0.141177615920
  193    0.021377989476
  194    0.114862468634
  195    0.179082797637
  196    0.061408023980
  197   -0.002129381689
  198    0.098087552528
 Sym=     1a
 Ene= 1.31744015515435E+00
Spin= Alpha
 Occup= 0
  1     -0.005895435434
  2      0.000512823504
  3     -0.109477393001
  4      0.957479635904
  5     -0.046924170174
  6     -0.048942043881
  7      0.018804039924
  8      0.027260587313
  9      0.882555979401
  10    -0.257074537387
  11    -0.757485081811
  12     1.343770455553
  13    -0.523593596800
  14    -1.812151293538
  15     0.016426486483
  16    -0.008239700013
  17    -0.008186786470
  18    -0.001499048560
  19    -0.020881789952
  20    -0.023016977008
  21    -0.189675569753
  22     0.002178052887
  23     0.187497516866
  24     0.061771391624
  25     0.281302574579
  26     0.268988443746
  27     0.025147462890
  28     0.021754175143
  29    -0.013353520434
  30    -0.028320928491
  31     0.006288579445
  32     0.002388725028
  33    -0.005417933400
  34    -0.035474868094
  35     0.015526902630
  36     0.010717933187
  37     0.006125473820
  38    -0.064993774321
  39    -0.079509425000
  40     2.141779332218
  41    -0.584255295501
  42    -0.097140619512
  43     0.004452568219
  44     0.007695997355
  45    -0.637322248128
  46    -0.009162479688
  47    -1.202284727907
  48     2.755849932411
  49    -0.007416765944
  50     1.038220914694
  51    -0.003270118545
  52    -0.015492492802
  53     0.018762611347
  54    -0.010676814847
  55     0.031098087869
  56    -0.005113721770
  57     0.466164752846
  58    -0.353699006120
  59    -0.112465746726
  60    -0.016593393020
  61     0.179568503399
  62    -0.021798351100
  63    -0.013058159558
  64     0.003650505340
  65     0.043251287551
  66     0.041779497580
  67     0.000701937759
  68    -0.062301787685
  69    -0.024260138121
  70    -0.005599604615
  71     0.004274096238
  72     0.006933759566
  73     0.032958579845
  74    -0.028529665394
  75    -0.141290774334
  76    -0.004758274158
  77     0.011958372236
  78     0.004536586681
  79     0.011799186584
  80    -0.038706286281
  81     0.330328514715
  82    -0.992141543016
  83    -0.458789020602
  84    -0.026735200853
  85    -0.025028196280
  86    -0.043782365423
  87     0.306157050041
  88     0.173741227830
  89     0.329065487883
  90     0.508388120606
  91     0.385544168134
  92    -0.107396630294
  93     0.004931899111
  94    -0.001639059049
  95    -0.003292840062
  96     0.006544230149
  97     0.001737475784
  98     0.002232869517
  99    -0.099240182380
  100    0.067335706663
  101    0.031904475717
  102   -0.113333454274
  103   -0.075149421544
  104   -0.034149739938
  105    0.006491100470
  106    0.004666410679
  107   -0.008610167818
  108   -0.006155129719
  109    0.000205705349
  110    0.022307121899
  111   -0.002553595420
  112   -0.006466352243
  113   -0.010755369576
  114    0.025413410703
  115    0.009408640879
  116   -0.036218234144
  117    0.380930214170
  118   -1.525586584034
  119   -0.552860163303
  120    0.018757574254
  121    0.020390123151
  122    0.066277071437
  123   -0.055016905801
  124   -0.296724250111
  125   -0.794248605757
  126   -0.343150105110
  127   -0.405123348927
  128   -0.785565112450
  129   -0.004467425235
  130    0.004164811016
  131    0.000302614219
  132    0.002008471591
  133   -0.001619019972
  134    0.009559494197
  135    0.153307071503
  136    0.070829439025
  137   -0.224136510528
  138   -0.002286581639
  139   -0.075647984035
  140   -0.231693747874
  141    0.009708185230
  142    0.017734838136
  143   -0.020646980820
  144   -0.010071781204
  145    0.002086880863
  146    0.027653009263
  147   -0.002953116064
  148   -0.025880663048
  149    0.000047822323
  150   -0.001405530460
  151   -0.014572928618
  152    0.111718860748
  153   -0.065744199754
  154   -0.014048774450
  155   -0.012147975488
  156   -0.000639186316
  157   -0.012851161793
  158    0.179074258972
  159    0.091989451765
  160   -0.035269394579
  161    0.010216309130
  162    0.002021953080
  163    0.037099189146
  164    0.072691089284
  165   -0.457203007925
  166   -0.012329884204
  167   -0.011060223828
  168    0.030256172131
  169    0.046403038298
  170    0.070309667116
  171   -0.396204812247
  172   -0.020167690550
  173   -0.008180739273
  174   -0.011506571546
  175    1.072260985899
  176   -3.732261345315
  177    5.192319896409
  178   -0.283619133614
  179    0.018104218059
  180   -0.222837545395
  181    0.058885275732
  182   -0.046174579915
  183   -0.175294710399
  184    0.002451037287
  185    0.007722168505
  186    0.002202130229
  187    0.000901593156
  188    0.128353396929
  189   -0.989525987044
  190    0.025477635660
  191   -0.001598672784
  192   -0.008250776689
  193    0.015551555277
  194   -0.102985472010
  195   -0.119863932124
  196    0.004537637679
  197   -0.000168147998
  198    0.004483346161
 Sym=     1a
 Ene= 1.31806123656757E+00
Spin= Alpha
 Occup= 0
  1     -0.005901546564
  2      0.000520466418
  3     -0.109333448912
  4      0.955182433990
  5     -0.046920462441
  6     -0.006211934001
  7     -0.010139175057
  8     -0.057931162891
  9      0.257911858864
  10     0.415874973524
  11     1.086691590962
  12     0.931182721022
  13     0.957282989670
  14     1.892323540192
  15    -0.030290216160
  16     0.014490347012
  17     0.015799869148
  18    -0.000863458397
  19    -0.011003743787
  20     0.014036179693
  21     0.415690042597
  22    -0.182410269865
  23    -0.233279772732
  24     0.089996268681
  25     0.096264550301
  26    -0.107463935189
  27     0.014613845644
  28    -0.032746882867
  29     0.005410720382
  30    -0.004704816915
  31     0.016690138280
  32     0.017799494051
  33    -0.014901714449
  34     0.027244415405
  35    -0.025058737200
  36     0.014504868086
  37     0.011810184728
  38    -0.038722617644
  39     0.330501065266
  40    -0.992742426650
  41    -0.459367795849
  42     0.056761249954
  43     0.005543236140
  44    -0.000876992812
  45    -0.468690802255
  46    -0.037627944742
  47     0.103729713512
  48    -0.363071496773
  49     0.429172385626
  50     0.320379639477
  51     0.004177067027
  52    -0.003128353356
  53    -0.001048713671
  54    -0.004256440391
  55    -0.005128333861
  56     0.003562651007
  57    -0.100764208377
  58     0.068615523427
  59     0.032148684950
  60     0.033422217692
  61     0.122747757373
  62    -0.054845107542
  63    -0.011726574700
  64     0.000124751887
  65     0.002308650097
  66     0.010144358096
  67     0.005455665389
  68     0.025458886541
  69     0.005588492807
  70    -0.005623037609
  71    -0.028556265673
  72     0.002574961048
  73     0.058819641201
  74    -0.046425558989
  75    -0.175173698506
  76    -0.006787588765
  77     0.004702396938
  78    -0.001597992256
  79     0.009441926341
  80    -0.036283885678
  81     0.381344583042
  82    -1.526218031175
  83    -0.554335776757
  84    -0.066581842572
  85    -0.024768662290
  86    -0.010586592129
  87     0.745137017462
  88     0.280402099753
  89     0.295360343068
  90     0.930274118522
  91     0.154979781303
  92     0.085600164944
  93     0.006363984061
  94    -0.005016915810
  95    -0.001347068251
  96    -0.004474602552
  97     0.007589979512
  98     0.000585375692
  99    -0.253458820384
  100    0.155481798292
  101    0.097977022092
  102   -0.130452182522
  103   -0.170383427490
  104   -0.016844516844
  105    0.014298980990
  106   -0.007399384316
  107   -0.011225400544
  108   -0.006068989134
  109    0.012549249689
  110    0.028207898615
  111   -0.013115106968
  112   -0.002621933896
  113   -0.013147443400
  114    0.017978877515
  115    0.006134712004
  116   -0.064998287407
  117   -0.079402575505
  118    2.141754624838
  119   -0.582075109791
  120    0.038067158201
  121   -0.014974222208
  122   -0.088750292376
  123    1.159220306279
  124    0.677589799460
  125   -0.211360174294
  126   -2.032546136770
  127   -0.291888606144
  128    2.111752842315
  129    0.014771415770
  130   -0.003477322660
  131   -0.011294093110
  132    0.029119765909
  133   -0.012337450253
  134   -0.016389528746
  135    0.032874221806
  136   -0.250784560628
  137    0.217910338822
  138    0.113316334663
  139   -0.424678902139
  140    0.046201687407
  141    0.004764288958
  142   -0.013185060627
  143    0.031457078133
  144   -0.036645785363
  145    0.014476270169
  146   -0.046700570348
  147    0.030253820979
  148    0.003213344941
  149    0.004496471301
  150   -0.037943419166
  151    0.015650318909
  152   -0.102947423683
  153   -0.120554827231
  154   -0.005211903399
  155   -0.002481445958
  156    0.002732932332
  157    0.032894434561
  158   -0.027551525251
  159   -0.140497303815
  160   -0.007275232032
  161    0.005507471864
  162   -0.010283721841
  163    0.000917816982
  164    0.128580411452
  165   -0.987933452850
  166   -0.005380613787
  167    0.007618906962
  168    0.025145364948
  169    0.037086298736
  170    0.072621997899
  171   -0.457217808891
  172   -0.010003219870
  173   -0.029412830869
  174   -0.014934240986
  175   -0.014714804760
  176    0.111807873437
  177   -0.064742295242
  178    0.013410447580
  179   -0.010739905779
  180   -0.007229825006
  181   -0.012770048629
  182    0.180759106052
  183    0.091212122115
  184    0.009868584345
  185    0.001816468146
  186   -0.035628235728
  187    0.046413098848
  188    0.069757573951
  189   -0.396836257835
  190    0.021888883728
  191   -0.001624166766
  192   -0.011072913853
  193    1.072676094336
  194   -3.731170365375
  195    5.191085956870
  196    0.282328071623
  197    0.117596887124
  198   -0.191364465679
 Sym=     1a
 Ene= 1.31915455386797E+00
Spin= Alpha
 Occup= 0
  1     -0.005872431686
  2      0.000537722295
  3     -0.110046497519
  4      0.958624925025
  5     -0.043592841724
  6      0.049394636227
  7      0.028751806099
  8      0.014980772697
  9     -1.110689509065
  10    -0.351045966241
  11    -0.249095892854
  12    -2.282397689913
  13    -0.369744919629
  14    -0.106826310407
  15     0.007464357988
  16     0.003978373182
  17    -0.011442731170
  18    -0.000638090218
  19     0.033205914982
  20     0.000769943055
  21    -0.050093702420
  22    -0.101140656608
  23     0.151234359028
  24    -0.068898868794
  25    -0.412745076226
  26     0.063822602831
  27    -0.015020695435
  28     0.017610882104
  29    -0.005924565549
  30     0.028211351946
  31    -0.012843339083
  32     0.019770765397
  33    -0.008058974308
  34    -0.010784138634
  35    -0.011822126614
  36    -0.029451354057
  37     0.009415416943
  38    -0.036185017237
  39     0.380773812440
  40    -1.525332758294
  41    -0.553197479136
  42     0.051748463097
  43    -0.021060600219
  44    -0.045153009196
  45    -0.707500721086
  46     0.123865210729
  47     0.454210796247
  48    -0.580402090340
  49     0.189985077824
  50     0.725748004367
  51     0.002257377774
  52    -0.005756528985
  53     0.003499151211
  54     0.004412278285
  55    -0.006759331890
  56    -0.004901539816
  57    -0.129462031618
  58     0.141112764156
  59    -0.011650732538
  60     0.024287034523
  61     0.290972130098
  62    -0.045700581821
  63    -0.005777458317
  64     0.001074138817
  65    -0.007445275993
  66     0.014680353704
  67     0.006945778480
  68     0.032040189697
  69    -0.006929079983
  70    -0.008386886927
  71    -0.022051303758
  72    -0.008330983452
  73    -0.012783306395
  74     0.179981060684
  75     0.091616463271
  76     0.019771664372
  77     0.025536511226
  78     0.017920301465
  79     0.006153531922
  80    -0.064985550508
  81    -0.078983657273
  82     2.139491970635
  83    -0.582926973746
  84     0.052933243582
  85     0.050966140007
  86     0.064099482295
  87    -0.750376817526
  88     0.806030619872
  89     0.799413612350
  90    -0.390251787905
  91    -1.858389749148
  92    -2.248925971968
  93    -0.008706363943
  94     0.014445336157
  95    -0.005738972214
  96    -0.017179527889
  97    -0.019345565944
  98     0.025082417753
  99    -0.118725660816
  100   -0.004351518581
  101    0.123077179397
  102    0.080649695070
  103    0.169827886661
  104    0.462388278877
  105    0.019150153005
  106   -0.006487166759
  107   -0.006106005827
  108   -0.011749149734
  109   -0.045284348758
  110   -0.026957638966
  111   -0.013943476605
  112    0.053987796271
  113    0.035149705426
  114   -0.001518747196
  115    0.011806866302
  116   -0.038713310477
  117    0.330601533136
  118   -0.993837629627
  119   -0.459329301985
  120   -0.028997664401
  121    0.012599848440
  122    0.047525893668
  123    0.166148190104
  124   -0.160422283599
  125   -0.423244714833
  126   -0.280610476986
  127    0.067071643387
  128   -0.579154780621
  129   -0.002947096485
  130   -0.005089881005
  131    0.008036977490
  132    0.000604302649
  133    0.002186550140
  134    0.002125075166
  135    0.062808698337
  136    0.083752237334
  137   -0.146560935671
  138    0.015054034374
  139   -0.020671352968
  140   -0.087500798682
  141   -0.001973452780
  142    0.020059389942
  143   -0.015464827539
  144   -0.008475874642
  145   -0.009069091646
  146    0.027032342481
  147    0.011123539382
  148   -0.017843404054
  149   -0.006284099098
  150   -0.001445093438
  151    1.073307691891
  152   -3.732465120881
  153    5.191522381074
  154   -0.058702223402
  155    0.250505948680
  156    0.253098300823
  157    0.059134940932
  158   -0.046804147545
  159   -0.176668858582
  160    0.001832830797
  161    0.003878513094
  162   -0.007160060939
  163    0.046457595695
  164    0.070300345325
  165   -0.396037087100
  166   -0.001801732158
  167    0.008946481154
  168    0.022892884620
  169    0.000847917461
  170    0.128247621042
  171   -0.991070673429
  172   -0.019443239877
  173   -0.011215353653
  174   -0.014780565330
  175    0.015613944133
  176   -0.103143945461
  177   -0.120728027236
  178    0.001743925566
  179   -0.004289947119
  180   -0.004367892300
  181    0.032967186574
  182   -0.028027967124
  183   -0.140744259516
  184    0.007902776076
  185    0.009725576282
  186   -0.005598198456
  187    0.037062447459
  188    0.072605423879
  189   -0.456991433737
  190    0.030666736073
  191   -0.013921029874
  192    0.007320684392
  193   -0.014697020323
  194    0.111987186605
  195   -0.065427754605
  196    0.004433562379
  197   -0.001594401382
  198    0.018054682870
 Sym=     1a
 Ene= 1.32634784462997E+00
Spin= Alpha
 Occup= 0
  1      0.050501879017
  2     -0.061971345765
  3      0.838958260503
  4     -4.858161333894
  5      0.535931493774
  6     -0.063804284744
  7      0.005028499770
  8      0.092587429832
  9     -0.715625827148
  10    -0.668360513896
  11    -1.429159025743
  12     2.141557362183
  13    -0.088020326457
  14    -2.100982765199
  15     0.115616681308
  16    -0.038729531120
  17    -0.076887150188
  18     0.026503861154
  19    -0.059548357406
  20    -0.028159880199
  21    -1.515673920780
  22     0.665935205873
  23     0.849738714907
  24    -0.460497910848
  25     0.245984422764
  26     0.049627127551
  27    -0.025965756984
  28     0.043501867004
  29     0.039561197839
  30    -0.017270686110
  31    -0.054592273274
  32    -0.090062133019
  33     0.052107404732
  34    -0.003771605788
  35     0.036985216435
  36    -0.033080955103
  37    -0.002440659701
  38     0.011682797607
  39    -0.397260721839
  40     2.697528340782
  41     0.875901617540
  42    -0.004244713531
  43     0.016531442112
  44     0.046170652377
  45     1.165668997282
  46    -0.187256936887
  47    -1.000458523779
  48     0.029916846852
  49     0.031821706290
  50    -0.975572343795
  51     0.013011623009
  52     0.000247727688
  53    -0.013259350697
  54    -0.000293303438
  55     0.004070018263
  56    -0.000312293629
  57     0.091986543887
  58    -0.255180841053
  59     0.163194297166
  60    -0.129731358387
  61    -0.527428842453
  62     0.147563900624
  63    -0.016754043277
  64     0.018781267704
  65     0.005283691836
  66    -0.009059977559
  67    -0.022324844666
  68    -0.029942423436
  69     0.031537885358
  70    -0.002872870108
  71     0.022853606966
  72     0.015019213935
  73     0.067374880544
  74    -0.221924264642
  75    -0.223933149022
  76    -0.015279372600
  77    -0.007396468585
  78    -0.026737881837
  79     0.008162361228
  80    -0.031753708394
  81    -0.154640798425
  82     2.007035993060
  83    -0.254815738514
  84     0.071467006250
  85    -0.008459297940
  86     0.988802773032
  87    -1.273446454481
  88    -0.651490425288
  89    -4.348081102039
  90    -0.995801827775
  91     0.725688191219
  92     4.870271602158
  93     0.012981610654
  94    -0.047903154482
  95     0.034921543828
  96     0.042223405097
  97     0.011091344394
  98    -0.025772726621
  99     0.827615707958
  100   -0.538110013159
  101   -0.289505694799
  102    0.441899316719
  103    0.217240524386
  104   -0.062880011942
  105   -0.007628445507
  106    0.047954090101
  107    0.136074380096
  108   -0.026076209466
  109    0.035727952172
  110   -0.093872540269
  111    0.036310843095
  112   -0.100065115331
  113   -0.088690398066
  114   -0.038348071326
  115   -0.018884096576
  116    0.032740480291
  117   -0.132215181645
  118   -0.702013746522
  119   -0.095799147554
  120   -0.017898863536
  121   -0.021504198615
  122   -0.070875883487
  123    0.088709410078
  124   -0.140543619389
  125   -0.188423625649
  126    0.564896651111
  127   -0.350898823067
  128    0.292785529427
  129    0.002844298769
  130    0.013899575846
  131   -0.016743874615
  132   -0.007205534657
  133    0.004282447449
  134    0.000776677312
  135    0.104458645312
  136   -0.137698903132
  137    0.033240257820
  138    0.133097798926
  139   -0.016256427700
  140   -0.050419790944
  141   -0.006662745273
  142   -0.028131770985
  143   -0.006065150787
  144    0.007686015960
  145    0.017972605518
  146    0.028548165025
  147    0.001252994848
  148    0.019770125833
  149   -0.020410911353
  150    0.014566333614
  151    0.298192264269
  152    1.054688672654
  153   -2.853915044768
  154    0.075110627069
  155   -0.252202239134
  156   -0.216209840393
  157    0.204510042071
  158    0.496276214549
  159   -0.827410489215
  160   -0.032728348553
  161    0.167228254112
  162   -0.041358273933
  163   -0.260085957598
  164   -0.751748756928
  165    2.294171565423
  166    0.226571920288
  167    0.067407224296
  168   -0.156918144865
  169   -0.003007328639
  170   -0.009499972827
  171    0.478105360271
  172    0.031360473788
  173    0.009181194697
  174    0.007860965756
  175    0.026890665803
  176   -0.066950651812
  177   -0.370198541143
  178   -0.030703603143
  179    0.001451061632
  180    0.039965465768
  181   -0.058288227570
  182    0.280643577820
  183    0.295987204976
  184    0.017851356294
  185    0.012857993720
  186    0.015362458062
  187   -0.017356122794
  188    0.123800370658
  189    0.321115622649
  190    0.010274755222
  191    0.033674328821
  192    0.006438176854
  193   -0.010920602308
  194   -0.178009756611
  195   -0.118052163672
  196   -0.011658741281
  197    0.011631147606
  198   -0.010567313044
 Sym=     1a
 Ene= 1.34728698351569E+00
Spin= Alpha
 Occup= 0
  1      0.004237909600
  2     -0.009390238426
  3      0.237336160801
  4     -1.132158300246
  5     -0.547291914209
  6     -0.018957651898
  7      0.072591074367
  8      0.042825572858
  9      0.238325028911
  10    -0.071390735449
  11    -0.764378901229
  12    -0.020344924544
  13    -1.599893634226
  14    -0.899986225163
  15     0.036816470448
  16    -0.014744229627
  17    -0.022072240821
  18     0.054345007106
  19     0.014652266131
  20    -0.037540432314
  21    -0.436323138692
  22     0.221970169019
  23     0.214352969673
  24    -0.523037564616
  25    -0.071944298973
  26     0.277857180808
  27    -0.012085108470
  28    -0.020151292730
  29     0.020741181824
  30    -0.025005367469
  31     0.038038317741
  32    -0.031050788273
  33     0.041219241902
  34    -0.011002521513
  35     0.003223572778
  36    -0.063897613873
  37    -0.003567969778
  38     0.012719009076
  39    -0.218906727062
  40     1.016411910460
  41     0.059978502802
  42    -0.031632433891
  43     1.015815215133
  44    -0.015688099061
  45     0.589050899064
  46    -3.534000441785
  47    -0.548288699494
  48     0.158225250017
  49     3.787935622337
  50     0.880537495850
  51    -0.001006839621
  52    -0.001100495134
  53     0.002107334755
  54    -0.022362723420
  55    -0.014529234516
  56    -0.043692819663
  57     0.083502960410
  58     0.138216470229
  59    -0.221719430639
  60    -0.004440734870
  61    -0.217324666723
  62    -0.543722606919
  63     0.015463031799
  64     0.008414558720
  65    -0.042461887311
  66    -0.027576988895
  67     0.113245533519
  68     0.020635916437
  69     0.006831154750
  70    -0.124534848698
  71     0.036332683451
  72     0.046038489794
  73     0.058978808050
  74    -0.208900879836
  75    -0.245801945290
  76     0.035636829114
  77    -0.002194935979
  78    -0.014406649753
  79    -0.004076340658
  80     0.013337355133
  81    -0.195082275116
  82     1.100550092191
  83     0.573440984722
  84     0.023422981628
  85    -0.028119430397
  86     0.000690170077
  87    -0.454532534315
  88     0.039007825932
  89    -0.306694572167
  90    -0.431906793398
  91     0.192167023994
  92    -0.023566530891
  93    -0.009793537097
  94     0.014380727472
  95    -0.004587190375
  96     0.010287562146
  97     0.005926326655
  98     0.013468534178
  99     0.205116435476
  100   -0.244800587586
  101    0.039684152110
  102    0.026404557429
  103    0.042896832185
  104   -0.125716940083
  105   -0.011626984598
  106   -0.005044118868
  107    0.003647646606
  108    0.002473901530
  109   -0.005019492172
  110   -0.022416873777
  111    0.013125335231
  112    0.011786887777
  113    0.017523042315
  114    0.001723664566
  115   -0.011934085531
  116    0.023388970687
  117   -0.069161124387
  118   -0.515653182943
  119    0.114968914596
  120    0.046681445157
  121   -0.029086625538
  122   -0.024929815362
  123   -0.153996909514
  124    0.002962335772
  125   -0.356016329437
  126   -0.790634567527
  127   -0.216380365137
  128    0.259922097893
  129   -0.002099552892
  130    0.001660106084
  131    0.000439446808
  132    0.001365464492
  133    0.020202323156
  134   -0.006135750802
  135    0.106656680434
  136    0.012173967903
  137   -0.118830648337
  138    0.022680263688
  139   -0.329141518536
  140   -0.017365331277
  141    0.017931881241
  142   -0.012965628351
  143   -0.002423642019
  144    0.005588888306
  145    0.011585391431
  146   -0.000434848991
  147   -0.029647031557
  148    0.005809824386
  149    0.003686505975
  150   -0.019169941512
  151    0.043195335297
  152   -0.096142168030
  153    0.080645304393
  154    0.013662403571
  155    0.014823705567
  156   -0.005617389979
  157   -0.000021150762
  158    0.032401228367
  159    0.000454082168
  160    0.006010662430
  161   -0.007051756395
  162   -0.014224618984
  163   -0.032610294437
  164   -0.210207182749
  165    0.167095234285
  166    0.044732860092
  167    0.001613263213
  168   -0.019446514478
  169    0.258923205784
  170    1.187493087752
  171   -2.390774959794
  172   -0.006704710073
  173   -0.224499807864
  174   -0.242935798765
  175   -0.007711881012
  176    0.325228902471
  177    0.064911191077
  178    0.035475203806
  179    0.019869735018
  180    0.013745607986
  181   -0.446066232501
  182   -0.745712527481
  183    1.648940675270
  184   -0.029966826502
  185   -0.268882809144
  186    0.177000049355
  187    0.040158267455
  188   -0.175312369967
  189   -0.211411169202
  190    0.020605895407
  191    0.011442714086
  192   -0.034599424692
  193   -0.053606057777
  194   -0.119558477520
  195    0.501542977858
  196    0.035429954355
  197    0.022371103985
  198   -0.009998543588
 Sym=     1a
 Ene= 1.36285519008999E+00
Spin= Alpha
 Occup= 0
  1      0.065353315728
  2     -0.080646105434
  3      1.100145299618
  4     -6.343467005704
  5      0.640721922609
  6      0.068184901259
  7      0.018542143418
  8      0.075678892996
  9      1.079494464414
  10    -0.476770713343
  11    -1.710922830327
  12    -2.381431405452
  13    -0.548171887348
  14    -1.483141078508
  15     0.128477908030
  16    -0.048266648420
  17    -0.080211259610
  18     0.014829630813
  19     0.019331178698
  20    -0.008418760774
  21    -1.695030747137
  22     0.912939770650
  23     0.782090976487
  24    -0.160452895393
  25     0.383896921369
  26    -0.090649878689
  27     0.023266228595
  28     0.041771267073
  29     0.065540532036
  30    -0.027910595187
  31    -0.048350527214
  32    -0.141786057127
  33    -0.003304326044
  34    -0.007691508396
  35     0.053854206179
  36    -0.000104830346
  37     0.010088452217
  38    -0.039322641199
  39    -0.220891868881
  40     2.677831201633
  41    -0.317638888104
  42    -0.080775795906
  43    -0.023439437038
  44     1.011380771382
  45     1.739526310629
  46    -0.390827558090
  47    -4.786869659757
  48     0.875662534506
  49     0.971327178385
  50     4.582368035150
  51     0.030839303078
  52    -0.064164348448
  53     0.033325045370
  54    -0.021752756864
  55    -0.011816878050
  56    -0.019134583412
  57     0.961371686390
  58    -0.736593547829
  59    -0.224778138561
  60    -0.058020955325
  61    -0.609974075692
  62    -0.090029861904
  63    -0.026851796746
  64     0.063021987929
  65     0.143016908968
  66    -0.020535282775
  67     0.020498504652
  68    -0.104595404130
  69     0.056560748480
  70    -0.105051374105
  71    -0.087281914101
  72     0.010554933462
  73     0.066140072602
  74    -0.202971830143
  75    -0.199771629336
  76     0.012297922106
  77    -0.004240274844
  78    -0.030987220175
  79    -0.007025153104
  80     0.020858369809
  81    -0.474906764807
  82     2.864458080921
  83     0.981417159480
  84     0.023858997391
  85     0.021642945987
  86     0.051492585267
  87    -1.311987636549
  88    -0.506289526872
  89    -0.885705244406
  90    -0.291532370630
  91    -0.035081813778
  92    -0.916192313141
  93     0.009729980957
  94     0.002447147029
  95    -0.012177127986
  96     0.002284914421
  97    -0.008196052273
  98    -0.003670021014
  99     0.167681028317
  100   -0.212173786049
  101    0.044492757732
  102    0.278788089472
  103    0.489066352062
  104    0.278011625844
  105    0.014689325246
  106    0.024012488591
  107    0.010736957190
  108   -0.001398513855
  109   -0.025351821700
  110   -0.031037389315
  111   -0.018309284021
  112   -0.006864312378
  113    0.016632249626
  114   -0.031320357714
  115   -0.022000131369
  116    0.039983150497
  117   -0.231259910895
  118   -0.249749588545
  119    0.088045359748
  120    0.009876442132
  121   -0.025907577872
  122   -0.085582993327
  123   -0.041772768900
  124   -0.034625537862
  125    0.055844344506
  126   -0.393596979763
  127   -0.383479628003
  128    0.467325475822
  129   -0.001442277991
  130    0.016164605525
  131   -0.014722327534
  132    0.001703508408
  133   -0.007679102796
  134   -0.002978268059
  135    0.121689593816
  136   -0.216640851568
  137    0.094951257752
  138   -0.031560896987
  139    0.033332250252
  140    0.041317688817
  141    0.004283396121
  142   -0.034864671059
  143    0.000628843257
  144    0.008476835854
  145    0.020127322937
  146    0.024306899019
  147   -0.014223614795
  148    0.026648541764
  149   -0.025150580781
  150    0.003441444937
  151    0.000038493893
  152   -0.057318884247
  153    0.482928062076
  154   -0.030152364791
  155    0.006192836774
  156    0.009875712619
  157   -0.049154439459
  158    0.255499435091
  159    0.276181470204
  160   -0.012185859290
  161    0.009671043620
  162    0.017401054333
  163    0.021696099369
  164   -0.071440291176
  165   -0.312845336607
  166    0.037104935688
  167    0.014508591667
  168    0.034235125098
  169    0.294208374531
  170    1.098663209992
  171   -2.827697794493
  172   -0.050012383875
  173   -0.272987639290
  174   -0.202504205216
  175   -0.215377712924
  176   -0.548217635946
  177    1.868029530986
  178   -0.217101413616
  179    0.000238722247
  180   -0.081821442331
  181    0.213469082650
  182    0.550558717565
  183   -0.881911770138
  184   -0.029113687146
  185    0.182924735211
  186   -0.044709554697
  187   -0.007703584842
  188   -0.206594859409
  189   -0.056465523601
  190    0.005212622894
  191    0.017856962348
  192   -0.011812599547
  193   -0.019134558928
  194    0.102151134001
  195    0.317379635178
  196   -0.016872686158
  197    0.028430699530
  198   -0.000673602874
 Sym=     1a
 Ene= 1.36725537591101E+00
Spin= Alpha
 Occup= 0
  1     -0.052790788131
  2      0.062474101839
  3     -0.782375313432
  4      4.664426644422
  5     -0.895626283899
  6      0.007831380059
  7      0.033073755965
  8     -0.060793294489
  9     -0.181171964258
  10    -0.412648268235
  11    -1.104037143729
  12    -0.233640174400
  13    -0.476818334415
  14     1.726875671119
  15     0.009505974519
  16     0.055243178185
  17    -0.064749152704
  18    -0.000364870407
  19     0.011697575545
  20     0.001514973339
  21    -0.304093054426
  22    -0.718889435053
  23     1.022982489479
  24     0.024185605075
  25    -0.112480752101
  26     0.420492779391
  27     0.013822455212
  28     0.037229111671
  29    -0.110734683722
  30     0.000003409800
  31    -0.014700408433
  32     0.096279664938
  33    -0.018548179482
  34    -0.035247686230
  35     0.052286503224
  36     0.003840898893
  37     0.005993086415
  38    -0.012522584639
  39     0.234907730841
  40    -1.174592149451
  41    -0.306095922661
  42     0.054248187120
  43    -0.006196613484
  44     0.012453448874
  45    -0.754508742993
  46     0.111595232929
  47     0.262747912334
  48    -0.478829182390
  49    -0.171230709609
  50    -0.244824716527
  51     0.019285497043
  52    -0.005912452578
  53    -0.013373044465
  54    -0.003962445075
  55     0.007997043167
  56    -0.004348638315
  57    -0.442206050594
  58     0.262408570561
  59     0.179797480033
  60     0.080575672232
  61     0.053470842165
  62     0.053744863533
  63    -0.036168257615
  64    -0.002680582374
  65    -0.007568258091
  66     0.024284351598
  67    -0.005635932290
  68     0.010759575819
  69     0.024240457996
  70     0.009232310934
  71    -0.000605692082
  72    -0.007916103485
  73    -0.469201792199
  74    -0.948779774446
  75     1.813672848233
  76     0.052225048387
  77    -0.345966323612
  78     0.094190677998
  79     0.008327095500
  80    -0.015491444119
  81     0.195172726109
  82    -0.673348729744
  83    -0.158371464353
  84    -0.050476467208
  85    -0.024723761504
  86     0.011171826511
  87     0.486018239870
  88     0.247050697830
  89     0.087271943477
  90     0.318983450726
  91     0.095645326962
  92    -0.246787405805
  93     0.013629669390
  94    -0.003437845237
  95    -0.010191824153
  96     0.012932205897
  97    -0.010678746122
  98    -0.006423137599
  99    -0.283994822677
  100    0.159407976820
  101    0.124586845857
  102   -0.241785366483
  103    0.068589558207
  104    0.068642405493
  105    0.027948840313
  106   -0.017549849583
  107    0.005768313821
  108   -0.017586309238
  109    0.016870128924
  110   -0.013837848232
  111   -0.019910994861
  112    0.006675465074
  113    0.006098843141
  114    0.009523212329
  115   -0.010892357581
  116    0.041584432304
  117    0.046529003005
  118   -1.620262021383
  119    0.306607624150
  120   -0.009631216607
  121    1.043854749239
  122    0.034511767943
  123   -0.083805280949
  124   -3.883701139914
  125   -1.298513146626
  126    0.302877716005
  127    3.085911450209
  128   -0.160555784014
  129   -0.015154318755
  130    0.033349794351
  131   -0.018195475596
  132   -0.017595265027
  133    0.006442521149
  134   -0.028789625055
  135    0.091619029028
  136    0.593816999985
  137   -0.685436029013
  138   -0.118644347130
  139    0.077404016790
  140   -0.576014630531
  141   -0.026466327449
  142   -0.076887549782
  143   -0.073146620925
  144    0.065062346205
  145    0.127200829634
  146    0.076267178827
  147   -0.029554041831
  148   -0.024045356873
  149    0.021869311200
  150    0.001582678996
  151   -0.025501243319
  152   -0.133133283695
  153    0.166122371448
  154   -0.018546442930
  155    0.003765265451
  156    0.031776535441
  157    0.001984999700
  158   -0.044123433748
  159   -0.072627497294
  160   -0.017524135027
  161   -0.003961678477
  162    0.012781838073
  163    0.031245837643
  164    0.035215153545
  165   -0.186881913299
  166    0.009383965596
  167    0.008465971930
  168    0.019930367760
  169   -0.032219608561
  170   -0.105569564125
  171    0.261376697448
  172    0.028467496180
  173    0.013164496762
  174    0.021715944257
  175    0.029401481509
  176    0.013258822550
  177   -0.264856184742
  178   -0.008801714129
  179    0.010868737765
  180    0.026049858521
  181    0.020986597210
  182   -0.115481038694
  183   -0.149264562038
  184    0.018367769180
  185    0.004151920775
  186    0.016730533139
  187    0.007533631298
  188    0.124550829492
  189    0.028118267347
  190    0.012977008152
  191    0.049736637390
  192    0.040941151612
  193    0.087445388581
  194    0.382002701597
  195   -0.708816034258
  196   -0.084781371545
  197    0.018765228991
  198    0.094751378984
 Sym=     1a
 Ene= 1.37866484415797E+00
Spin= Alpha
 Occup= 0
  1      0.054572344612
  2     -0.064736878465
  3      1.361410321993
  4     -8.282670376280
  5     -0.745053479929
  6     -0.110587338888
  7     -0.007457533086
  8     -0.050066247757
  9     -2.932004397501
  10    -1.528737542080
  11    -1.922687534095
  12    -1.145090330562
  13    -1.127108466441
  14    -1.293684364691
  15    -0.020557304045
  16    -0.021646451557
  17     0.042203755602
  18     0.071317278427
  19     0.026320576843
  20     0.042916039943
  21    -0.677678426772
  22     0.802535628731
  23    -0.124857201959
  24    -1.194736536377
  25    -1.015995010208
  26    -0.785153497206
  27     0.005739696522
  28     0.151299685168
  29     0.121626731977
  30     0.023516544399
  31    -0.200530455118
  32    -0.201893324102
  33    -0.031217155355
  34    -0.002459373488
  35     0.038713939753
  36    -0.193612133182
  37    -0.013437409067
  38     0.003084688067
  39    -0.220450950610
  40     1.013321119760
  41     0.202376225742
  42    -0.024887643959
  43    -0.029174272818
  44    -0.019128716206
  45     0.699005398753
  46     0.109726679713
  47    -0.086283513317
  48     0.134360183725
  49     0.257180238777
  50     0.231546805046
  51    -0.007151337628
  52    -0.001585440579
  53     0.008736778207
  54    -0.006688704270
  55    -0.010604506431
  56    -0.003683960351
  57     0.190540877624
  58    -0.120977726718
  59    -0.069563150906
  60     0.015879553524
  61    -0.091353127151
  62     0.162428089506
  63     0.032844043980
  64     0.018194445441
  65    -0.009485108056
  66    -0.026331180912
  67    -0.005884763180
  68    -0.004125084395
  69    -0.017733728085
  70    -0.018525646911
  71     0.016850692227
  72     0.016430988419
  73     0.082285304979
  74    -0.121436331509
  75    -0.138623274172
  76     0.006604059578
  77     0.004187846765
  78    -0.020403499173
  79    -0.017602928822
  80     0.050278592624
  81    -0.998597981721
  82     5.410715362308
  83     1.422131034244
  84     0.218385903043
  85    -0.066347444734
  86     0.119791343181
  87    -3.944621076695
  88    -0.228260378033
  89    -3.310554073594
  90    -1.067637296028
  91     0.172911197849
  92    -0.777280034682
  93     0.352868959611
  94    -0.340119899148
  95    -0.012749060463
  96     0.035859712311
  97     0.010839936697
  98     0.005763003387
  99     2.840543784437
  100   -2.408921302975
  101   -0.431622481462
  102    0.929928074860
  103    0.442545049967
  104   -0.029506106793
  105   -0.156401347724
  106    0.080314688496
  107    0.229950015574
  108    0.052657506235
  109   -0.044281803997
  110   -0.197005776025
  111    0.157176920934
  112   -0.063471657844
  113   -0.111504543726
  114   -0.003151679709
  115    0.007888094460
  116   -0.041697985437
  117    0.160221554196
  118    0.214507713915
  119   -0.194766722962
  120    0.003767857839
  121    0.000305641384
  122    0.029248986575
  123   -0.122684710346
  124    0.252559940480
  125    0.301420025931
  126    0.227582563571
  127   -0.067029240167
  128   -0.283511343977
  129   -0.009428122066
  130   -0.000311083510
  131    0.009739205576
  132   -0.000517727433
  133    0.010311964930
  134    0.009079298011
  135   -0.003880093218
  136   -0.108827943387
  137    0.112708036605
  138    0.007742703372
  139   -0.123493537686
  140    0.155283219735
  141   -0.017816458681
  142    0.000911530912
  143   -0.002611982385
  144    0.008098496611
  145   -0.008664585028
  146    0.001084295335
  147    0.015804791027
  148    0.007441637978
  149    0.002420046767
  150    0.014532527321
  151    0.187588772213
  152    1.343927986119
  153   -0.026070956869
  154    0.134969260505
  155   -0.133316598010
  156   -0.242744782447
  157    0.219030801661
  158    1.844476605676
  159    0.083538552668
  160   -0.158341388295
  161    0.235820424898
  162   -0.180593459280
  163   -0.162547755398
  164   -1.562988330774
  165    0.216201019386
  166    0.167083302052
  167    0.115340925285
  168   -0.219238078033
  169   -0.009074592122
  170   -0.197987452063
  171   -0.165337999206
  172   -0.008303347494
  173    0.026053181305
  174    0.009232774709
  175    0.007961971252
  176    0.049019843387
  177   -0.078442954142
  178    0.010618489498
  179    0.016415988748
  180    0.013896068862
  181    0.011733793929
  182    0.055691953139
  183   -0.018886259153
  184   -0.009945571527
  185    0.014528643069
  186    0.014199563087
  187    0.005903042375
  188   -0.078965779533
  189   -0.097177962770
  190    0.006805922482
  191    0.000634624068
  192   -0.033049545735
  193    0.036852284634
  194   -0.194188239371
  195   -0.281754139431
  196   -0.000598244731
  197    0.018973774928
  198   -0.001463445450
 Sym=     1a
 Ene= 1.38919368467183E+00
Spin= Alpha
 Occup= 0
  1      0.029621705714
  2     -0.041385635689
  3      0.693216189429
  4     -3.723776079897
  5     -0.398707245605
  6      0.014866265498
  7      0.071856672107
  8      0.028241913937
  9     -1.088281537576
  10    -0.288058268449
  11    -0.941486859363
  12     0.405417608247
  13    -1.362446361924
  14    -0.431681640284
  15     0.053989274000
  16    -0.044706553684
  17    -0.009282720316
  18    -0.028842222844
  19     0.000973603859
  20    -0.017194405302
  21    -0.814366448622
  22     0.673326080481
  23     0.141040368141
  24     0.088535451382
  25    -0.200116573549
  26    -0.022613413021
  27    -0.035764289476
  28     0.007530811799
  29     0.059483587240
  30     0.062781658761
  31     0.005927692540
  32    -0.109990050044
  33    -0.014798829299
  34    -0.016031336805
  35     0.030184443275
  36     0.020484156032
  37    -0.012174327874
  38     0.029552477542
  39    -0.332393211937
  40     1.400893711829
  41     0.769255409276
  42    -0.045543217137
  43    -0.034111662702
  44     0.018296680249
  45     0.553389771570
  46     0.143299067163
  47    -0.487758373536
  48     0.615492291967
  49     0.252795776165
  50    -0.023011429377
  51    -0.008612996232
  52     0.011681647427
  53    -0.003068651195
  54    -0.014025834725
  55    -0.007097236490
  56     0.010620279573
  57     0.248729207873
  58    -0.308489752430
  59     0.059760544557
  60     0.084689650962
  61    -0.081328513373
  62    -0.084751588842
  63     0.014688215111
  64    -0.003108642550
  65     0.003188053888
  66    -0.009466284380
  67     0.000875041969
  68    -0.028858417076
  69    -0.010240024093
  70     0.003295639667
  71     0.024581193951
  72    -0.005640095087
  73     0.058589790186
  74    -0.171225586311
  75    -0.217041702920
  76    -0.035312942426
  77    -0.009967784978
  78    -0.013766689208
  79    -0.000328886129
  80    -0.000077840521
  81    -0.338391952749
  82     2.196227274386
  83    -0.050920766103
  84     0.047863161082
  85     1.032299607052
  86    -0.001030307343
  87    -1.477043931238
  88    -3.982654935855
  89    -0.800166861115
  90     0.036698275682
  91     3.795684460705
  92     0.639910902344
  93     0.008552283321
  94     0.004748409448
  95    -0.013300692769
  96     0.015757416788
  97     0.037935104098
  98    -0.032750398845
  99     0.391201325330
  100    0.004617073041
  101   -0.395818398371
  102    0.075459533395
  103    0.622526349779
  104   -0.377991791865
  105   -0.069922732633
  106    0.073072110328
  107   -0.027469073056
  108    0.104810199859
  109    0.019690249424
  110    0.047217078435
  111   -0.010999009856
  112   -0.117726772996
  113   -0.010363449655
  114   -0.070472690133
  115   -0.017444310861
  116    0.036234898002
  117   -0.243032596532
  118    0.274166639277
  119    0.439097938348
  120   -0.037616547017
  121   -0.053764417562
  122   -0.041555587376
  123    0.049846824267
  124    0.245968771077
  125    0.039457971141
  126    0.797310653469
  127    0.113036786498
  128    0.350525954964
  129   -0.007217358983
  130    0.001537748452
  131    0.005679610531
  132   -0.003083614530
  133   -0.015080195932
  134   -0.013249704422
  135    0.140044508152
  136   -0.073305030330
  137   -0.066739477822
  138    0.008530913949
  139    0.227669184799
  140    0.183612350780
  141   -0.024020870611
  142   -0.024059590688
  143   -0.003122502961
  144    0.008048220879
  145    0.011027820967
  146   -0.001655495303
  147    0.024179158861
  148    0.021251507207
  149    0.005844772631
  150    0.012765453444
  151    0.250641499321
  152    1.275619996001
  153   -2.373453414708
  154    0.046800274700
  155   -0.224083581642
  156   -0.243839569329
  157   -0.437172708125
  158   -0.654165295055
  159    1.579919486235
  160    0.137558791528
  161   -0.225880640017
  162    0.161353007184
  163    0.069862098135
  164    0.691091887484
  165   -0.698968642678
  166   -0.090467314374
  167   -0.015428070541
  168    0.099826970126
  169    0.048471421320
  170   -0.181479176377
  171    0.102388594551
  172   -0.021898161418
  173    0.018162556391
  174   -0.006913426267
  175   -0.042280728142
  176   -0.215823307758
  177    0.282334258031
  178   -0.052147031511
  179   -0.001935681109
  180   -0.014651486742
  181    0.016801727261
  182   -0.012224420991
  183   -0.044686643676
  184   -0.016856105883
  185   -0.008991956038
  186   -0.013478426116
  187   -0.056679645290
  188   -0.152041181858
  189    0.498697616269
  190   -0.041281422828
  191    0.011341383205
  192   -0.019921940951
  193    0.044902477514
  194   -0.237061123854
  195   -0.081159318829
  196   -0.024519964037
  197    0.013055367532
  198   -0.032063668176
 Sym=     1a
 Ene= 1.41312876718094E+00
Spin= Alpha
 Occup= 0
  1      0.022220320338
  2     -0.036311025212
  3      0.569343437406
  4     -3.006017751436
  5     -0.371159187239
  6     -0.065100177616
  7      0.016740431013
  8     -0.008365803958
  9     -0.949461432354
  10    -0.139839109756
  11    -0.194207915716
  12    -0.551885037438
  13    -0.126951033286
  14    -0.001353148235
  15     0.033641880412
  16    -0.011555798495
  17    -0.022086081917
  18    -0.028081532716
  19    -0.019405572567
  20     0.051711745772
  21    -0.624419290745
  22     0.376601159656
  23     0.247818131089
  24     0.078903340883
  25    -0.038152459533
  26    -0.524147540878
  27    -0.117842335688
  28     0.020301227775
  29     0.046750858521
  30     0.096313534977
  31    -0.017889941822
  32    -0.086727793787
  33     0.061788548959
  34    -0.009347013376
  35     0.024004935192
  36    -0.017483555552
  37     0.008671509307
  38    -0.029880822478
  39     0.118789258258
  40     0.255686699489
  41    -0.097005241394
  42     0.040207679574
  43     0.014510064557
  44     0.004414547667
  45     0.151579411795
  46     0.064047849688
  47    -0.286343046154
  48    -0.102802813314
  49    -0.012205377643
  50     0.114132069446
  51     0.011531324760
  52    -0.003170156236
  53    -0.008361168524
  54     0.002332922697
  55    -0.001800567743
  56    -0.000147425019
  57     0.025276993742
  58    -0.098404454483
  59     0.073127460741
  60     0.049970267736
  61    -0.099477599867
  62    -0.046002852428
  63     0.007132803489
  64    -0.008998662307
  65     0.013720679988
  66    -0.004146356056
  67     0.024939694023
  68    -0.006662885745
  69    -0.005423304027
  70    -0.012866721648
  71    -0.011745338146
  72    -0.019984140476
  73    -0.018750636384
  74     0.040279737605
  75     0.052341215152
  76     0.000640596905
  77    -0.007829213399
  78    -0.013483321954
  79    -0.009382320310
  80     0.011488579597
  81    -0.355317853281
  82     1.967331661362
  83     0.472033366586
  84     0.109332630784
  85    -0.081356140597
  86    -0.004269781284
  87    -2.312330604697
  88     1.941295219581
  89     0.639826115720
  90    -0.611254590466
  91     0.465931469925
  92     0.097926934228
  93    -0.006305644374
  94    -0.000553783935
  95     0.006859428309
  96     0.019954765174
  97     0.006826360903
  98     0.407693428927
  99    -0.142327864013
  100   -0.196665275853
  101    0.338993139866
  102    0.273167329518
  103    0.350510249693
  104    2.858849221507
  105    0.168379287921
  106    0.058986576037
  107    0.049750753818
  108   -0.104501079829
  109   -0.260904383030
  110   -0.089232639243
  111   -0.121403440447
  112    0.181765586764
  113    0.022484998761
  114    0.026117847622
  115    0.000147560769
  116   -0.009308402778
  117   -0.038795298398
  118    0.535615950331
  119    0.053452868553
  120   -0.006176388458
  121    0.008363385299
  122    0.000554590503
  123    0.136628418949
  124    0.059469229509
  125    0.451718527623
  126    0.069970014575
  127    0.054911799349
  128    0.006938055024
  129   -0.003758522596
  130    0.002698531003
  131    0.001059991593
  132   -0.000056861852
  133   -0.005319550776
  134    0.005040615972
  135   -0.048237415243
  136   -0.108605518124
  137    0.156842933367
  138   -0.001106235937
  139    0.049109264756
  140    0.030452035412
  141   -0.005611169377
  142   -0.013801082375
  143    0.014891849734
  144    0.000563538731
  145    0.007213457302
  146    0.006916335888
  147    0.006964634965
  148    0.011302637711
  149   -0.026895848877
  150   -0.004436294370
  151   -0.401699580893
  152   -3.535179229929
  153    0.284859100228
  154   -0.060498955516
  155    0.453793358291
  156    0.490926231464
  157    0.299426377957
  158    2.281159409721
  159   -0.035528711519
  160   -0.178847162159
  161    0.388265999044
  162   -0.135627967511
  163    0.129610039382
  164    1.254848789376
  165   -0.052199031794
  166   -0.171755854367
  167    0.067794311800
  168    0.168568663734
  169    0.037465164871
  170   -0.004154051073
  171   -0.162547011764
  172   -0.010577712189
  173   -0.001765548702
  174   -0.010210549393
  175   -0.006502997443
  176   -0.043932699676
  177   -0.027679786149
  178   -0.015137111530
  179    0.001212584612
  180    0.005196627395
  181    0.027426608337
  182   -0.029907331182
  183   -0.044494887835
  184   -0.000270387221
  185    0.004105069147
  186   -0.003563458378
  187    0.001446392284
  188    0.059235109002
  189   -0.043129227306
  190    0.009200133585
  191   -0.001558618861
  192    0.006768195430
  193   -0.000894937258
  194    0.043007417514
  195   -0.006825853546
  196   -0.002407093038
  197    0.007977743182
  198    0.002355237869
 Sym=     1a
 Ene= 1.41490881952028E+00
Spin= Alpha
 Occup= 0
  1      0.011083603712
  2     -0.027243444098
  3      0.300145116737
  4     -1.179052609628
  5     -0.253944849260
  6      0.036775007718
  7      0.034698567016
  8     -0.010336420663
  9      0.014022238047
  10     0.217132353582
  11     0.112342728364
  12     0.107904304824
  13     0.090002352137
  14     0.068277202024
  15     0.006989240013
  16     0.000607179988
  17    -0.007596420001
  18     0.051258973664
  19     0.008664858798
  20     0.042195489504
  21    -0.156658992428
  22     0.120741234208
  23     0.035917758220
  24    -0.504554459862
  25    -0.032410985352
  26    -0.353989223934
  27     0.037200181241
  28    -0.052431183823
  29     0.022246139128
  30    -0.051786922214
  31     0.090144443083
  32    -0.054529549993
  33     0.001877641796
  34    -0.019800628382
  35     0.024683222397
  36    -0.053025842242
  37    -0.006548575484
  38    -0.002190196957
  39    -0.130347311622
  40     0.763823281959
  41     0.138214504578
  42    -0.035387756083
  43    -0.102241762275
  44    -0.009461040851
  45     0.484403282417
  46     2.634566762555
  47     0.607894392755
  48     0.186092132809
  49     0.600358680393
  50     0.102543280026
  51    -0.001024474368
  52    -0.007585674221
  53     0.008610148589
  54    -0.014393643357
  55    -0.002055289035
  56     0.409632094921
  57    -0.196386986032
  58    -0.258366992132
  59     0.454753978164
  60    -0.029964680868
  61    -0.086316467424
  62     2.805995123777
  63    -0.034594877194
  64     0.080528106569
  65     0.035318761792
  66     0.016873796221
  67    -0.324181707162
  68    -0.045591231323
  69     0.029540102027
  70     0.216141914929
  71    -0.001793860026
  72     0.046296875763
  73    -0.028255490726
  74     0.044105888364
  75     0.071599083179
  76     0.002712404450
  77    -0.008105613633
  78    -0.008642289450
  79     0.010169932902
  80    -0.027501135217
  81     0.119521899886
  82     0.250901687283
  83    -0.077147824547
  84    -0.046028096997
  85     0.011853897232
  86     0.013794129135
  87    -0.179191568491
  88    -0.019526623055
  89    -0.237094639998
  90     0.104593418471
  91    -0.032550336918
  92     0.018810010051
  93     0.011151614659
  94    -0.003204364183
  95    -0.007947250476
  96    -0.000264840588
  97    -0.002947663968
  98     0.001499025460
  99     0.054723936508
  100   -0.087452539098
  101    0.032728602590
  102   -0.001530638346
  103    0.103518235177
  104   -0.057008733435
  105   -0.018236219151
  106   -0.002847818645
  107    0.010741784749
  108    0.015124262766
  109    0.019007164664
  110   -0.008205168349
  111    0.009342192639
  112   -0.015186415017
  113   -0.006206448190
  114    0.012960819634
  115    0.004354789791
  116   -0.013055593785
  117    0.011705453182
  118    0.430226624716
  119    0.020259816378
  120   -0.012032105794
  121    0.015717051789
  122    0.005128606512
  123   -0.020787909188
  124    0.017878987432
  125    0.407352788880
  126    0.014284775320
  127    0.026539867688
  128    0.032981061929
  129    0.000181310441
  130    0.000526436472
  131   -0.000707746913
  132   -0.003167502882
  133    0.001640836973
  134    0.006108967558
  135   -0.090283168932
  136   -0.047554675937
  137    0.137837844869
  138    0.032995448549
  139   -0.026018590675
  140    0.008894607126
  141    0.002943505107
  142   -0.008544369723
  143    0.010041022784
  144    0.000740506093
  145    0.005007827304
  146    0.002593068797
  147   -0.004689632600
  148    0.006455647612
  149   -0.016064514502
  150    0.009998295595
  151    0.034732572533
  152    0.063422960147
  153   -0.098290580425
  154    0.010219436953
  155   -0.004419171370
  156   -0.012436861798
  157    0.007384527181
  158   -0.009313641709
  159   -0.004010385700
  160   -0.000438293647
  161   -0.000818857959
  162   -0.004726622135
  163   -0.008695226477
  164   -0.019168966144
  165   -0.007363786338
  166    0.011062873795
  167   -0.002034618376
  168    0.000256162372
  169   -0.409304992581
  170   -3.499410460829
  171    0.259941679198
  172    0.005044685234
  173    0.476720211025
  174    0.476275213977
  175    0.017052080968
  176    0.350340276336
  177   -0.009300366300
  178    0.027059085807
  179    0.111218962618
  180    0.038791046553
  181    0.344854289210
  182    2.566066699000
  183   -0.078935515099
  184    0.040256780046
  185    0.470140131799
  186   -0.189571861089
  187    0.005036953980
  188    0.107427388362
  189    0.025127305541
  190    0.007108163963
  191    0.004242446049
  192    0.005099926412
  193   -0.001829979860
  194    0.062332981572
  195   -0.024070955205
  196   -0.002482800315
  197   -0.005824444296
  198    0.010768823729
 Sym=     1a
 Ene= 1.44111719011421E+00
Spin= Alpha
 Occup= 0
  1      0.001099715340
  2      0.000856111178
  3      0.020443909638
  4     -0.223014400203
  5      0.010956034987
  6      0.014915940138
  7     -0.003205624730
  8      0.000908464272
  9     -1.119249471921
  10     0.073481574256
  11     0.221198259795
  12    -1.509018498218
  13    -0.043002702241
  14     0.144333195412
  15     0.001099681758
  16    -0.004283185731
  17     0.003183503973
  18    -0.090835036939
  19    -0.080578661146
  20     0.007166451834
  21     0.038311688056
  22     0.042875886992
  23    -0.081187575048
  24     0.785779286099
  25     0.812875485025
  26    -0.086766533925
  27     0.122430506168
  28     0.000070322641
  29     0.003347180882
  30     0.000396924092
  31    -0.010384978535
  32    -0.012512422526
  33    -0.164654684679
  34     0.010290630812
  35     0.008021708135
  36    -0.132117890167
  37     0.018172790270
  38    -0.039627596697
  39     0.344024327568
  40    -0.789992730157
  41    -0.373099813138
  42     0.006514418955
  43    -0.009169151342
  44    -0.045887232177
  45    -0.014682903773
  46     0.273831527012
  47     0.431752484722
  48    -0.138199349884
  49    -0.053537650572
  50     0.244575754665
  51    -0.009181118680
  52    -0.004607927962
  53     0.013789046642
  54    -0.007868053413
  55    -0.011137774994
  56     0.006242756265
  57     0.054561782822
  58     0.051185554024
  59    -0.105747336846
  60     0.146766088702
  61     0.025196669119
  62    -0.056893007818
  63    -0.021003341295
  64    -0.011673681800
  65    -0.000969397725
  66     0.008290849300
  67    -0.005965332123
  68     0.008512477538
  69     0.019888090034
  70     0.021627219755
  71    -0.007211894012
  72    -0.026968781460
  73    -0.027824012523
  74    -0.224310357765
  75     0.002028682468
  76    -0.022936274178
  77    -0.042378863446
  78    -0.023872012394
  79    -0.020532540003
  80     0.041954514871
  81    -0.348337410904
  82     0.662966344690
  83     0.351206602622
  84     0.011683345521
  85     0.022547532706
  86     0.047549579327
  87     0.018997098536
  88    -0.266927876082
  89    -0.360736598057
  90    -0.155162937800
  91    -0.023243578660
  92    -0.212915854106
  93     0.009850912233
  94     0.000629821317
  95    -0.010480733550
  96    -0.006100583158
  97    -0.013806551241
  98    -0.010860567593
  99    -0.123360939295
  100    0.032534692091
  101    0.090826247204
  102    0.107703688111
  103    0.043509413158
  104    0.086219440822
  105   -0.019296542934
  106    0.014154452130
  107   -0.004575260249
  108    0.003708431538
  109   -0.009892243052
  110    0.014615118233
  111    0.022180597501
  112   -0.009097947236
  113   -0.008476762474
  114   -0.027381704079
  115   -0.000561052652
  116    0.001915165109
  117   -0.038542494124
  118    0.217994903372
  119    0.063037208212
  120   -0.038497725012
  121    0.023692739609
  122   -0.018145339315
  123   -1.768104355014
  124   -0.408334573553
  125    0.473510225102
  126   -0.181878254758
  127   -0.107686487079
  128    0.118692097310
  129    0.005409152974
  130   -0.000096357832
  131   -0.005312795142
  132   -0.009941318602
  133    0.397150042590
  134    0.007852466513
  135    0.161328810318
  136   -0.020954921219
  137   -0.140373889099
  138   -0.296245467684
  139    3.036161045884
  140    0.236778500410
  141   -0.182259896476
  142    0.052662584013
  143    0.004233264603
  144    0.219809135623
  145   -0.046596349901
  146   -0.028212967303
  147    0.024718175232
  148   -0.024057920733
  149    0.022533446851
  150    0.257676962888
  151   -0.000095152024
  152    0.099317290134
  153    0.011485766768
  154   -0.016522315616
  155   -0.013215381155
  156   -0.015724569664
  157   -0.064051067607
  158    0.161190731990
  159    0.105233037404
  160   -0.000678562535
  161   -0.001032047175
  162   -0.000565489823
  163   -0.041408731024
  164    0.025708442668
  165    0.101863916794
  166    0.015049747869
  167    0.006558512563
  168   -0.000949963248
  169   -0.004498188660
  170   -0.136458477392
  171   -0.022273599162
  172   -0.018563790526
  173    0.012502924434
  174    0.027067361142
  175    0.043609454105
  176    0.033227536112
  177   -0.117596754292
  178    0.026268192326
  179    0.002603498504
  180    0.001784420398
  181    0.064392985810
  182   -0.154141530556
  183   -0.114168756763
  184    0.004600792892
  185    0.004575195303
  186    0.001380452681
  187   -0.315705445733
  188   -2.616503780202
  189    0.231326857729
  190   -0.521066696036
  191    0.064674949667
  192   -0.109127825899
  193    0.348437103642
  194    2.930097552228
  195   -0.225699232955
  196   -0.474969614754
  197   -0.213859852283
  198    0.252102565390
 Sym=     1a
 Ene= 1.45151401040606E+00
Spin= Alpha
 Occup= 0
  1     -0.004943106229
  2     -0.015235583659
  3     -0.079547166588
  4      1.450128935001
  5     -0.111022151929
  6     -0.022883174510
  7      0.036648447604
  8     -0.008478193765
  9      0.103866613142
  10    -0.637691743873
  11    -1.467403101649
  12     0.231637964208
  13    -0.309081664956
  14    -0.589086935813
  15     0.069043058004
  16    -0.038966081997
  17    -0.030076976007
  18     0.007235562532
  19     0.010839346833
  20     0.005084065789
  21    -0.824050428380
  22     0.224911172062
  23     0.599139256318
  24    -0.076675845290
  25    -0.062541357081
  26     0.148671655044
  27     0.003408432754
  28    -0.020883571495
  29    -0.080159343499
  30    -0.000562636373
  31     0.011898214862
  32     0.068665066222
  33    -0.004010256027
  34     0.016120036424
  35     0.038879978436
  36     0.006291808285
  37     0.009482871028
  38    -0.016535211262
  39     0.050175141281
  40     0.455004339893
  41     0.034939158158
  42     0.001757481766
  43    -0.009736512969
  44    -0.046273492048
  45     0.245344775188
  46    -0.007483301258
  47    -0.175581419305
  48     0.097620245428
  49     0.045033928047
  50     0.069745881595
  51    -0.002821581446
  52    -0.004722257911
  53     0.007543839357
  54    -0.000900746852
  55    -0.001549433297
  56     0.002558924860
  57     0.005773259956
  58     0.012127977856
  59    -0.017901237812
  60     0.011759891018
  61    -0.110270768120
  62    -0.043176054933
  63    -0.001150734119
  64    -0.003961600707
  65    -0.006543026290
  66    -0.014153017903
  67     0.003739475788
  68     0.006642939878
  69     0.015696889732
  70     0.001575569301
  71     0.002135451059
  72    -0.005509171055
  73     0.405476785028
  74     2.988903691191
  75    -0.121959623774
  76    -0.105434015568
  77     0.563773337943
  78    -0.070114864292
  79     0.014186786715
  80    -0.025153619570
  81     0.132235017099
  82     0.254100130998
  83    -0.060287360092
  84    -0.007799616497
  85    -0.008873893309
  86    -0.047660135151
  87    -0.258634839983
  88    -0.131951415435
  89    -0.031983798479
  90    -0.087530348999
  91     0.029683162872
  92     0.116549957312
  93    -0.002728789195
  94    -0.005893205811
  95     0.008621995006
  96     0.001334277267
  97     0.005623117732
  98     0.003050959895
  99     0.060219327433
  100    0.037628382453
  101   -0.097847709886
  102    0.022684266818
  103    0.073478868659
  104   -0.010594666005
  105    0.000368429247
  106    0.002509528543
  107    0.001488016083
  108    0.005091664741
  109   -0.002968062266
  110    0.000822433494
  111   -0.005585964445
  112   -0.000398823583
  113   -0.002818816562
  114    0.002460270766
  115   -0.001527618393
  116   -0.020906895063
  117    0.211943863158
  118   -1.100616681099
  119   -0.374719648030
  120    0.065291596053
  121   -0.093029454830
  122    0.103245605692
  123   -1.059630746648
  124    1.591199609766
  125   -2.876660637161
  126   -0.297158537540
  127    0.411712874452
  128   -0.614944191065
  129    0.346324969596
  130   -0.359436390648
  131    0.013111421052
  132    0.009093867960
  133    0.008455694373
  134   -0.017451577903
  135    2.572349665809
  136   -2.395608453263
  137   -0.176741212546
  138    0.282709448405
  139    0.069856295335
  140   -0.194170459568
  141   -0.040165015398
  142    0.171024910380
  143    0.217825035037
  144   -0.001068755102
  145   -0.028978970674
  146   -0.233077851209
  147    0.054955777950
  148   -0.200475024600
  149   -0.059165100118
  150   -0.016424494263
  151   -0.001757634147
  152    0.067930744630
  153    0.009065867804
  154   -0.005226667949
  155   -0.013578974927
  156   -0.001498398707
  157   -0.023643408619
  158    0.007800737543
  159    0.071860266871
  160    0.007372429048
  161   -0.004934038247
  162    0.007635799241
  163    0.017010716442
  164    0.111488000800
  165    0.050613368043
  166   -0.004746401359
  167   -0.006840966037
  168    0.006464605084
  169   -0.005038430591
  170    0.068368184903
  171    0.026853215831
  172    0.009613525018
  173   -0.010244966525
  174   -0.003439953858
  175    0.016939420584
  176    0.083910878220
  177    0.024087776832
  178   -0.003436810751
  179   -0.003454125512
  180    0.012959535913
  181   -0.029389485700
  182    0.041265400415
  183    0.072808013604
  184    0.001402458029
  185   -0.004839032265
  186    0.003553397178
  187   -0.327166762893
  188   -2.724369311181
  189    0.146846793118
  190   -0.420319353304
  191    0.071061306224
  192   -0.327572655142
  193   -0.213720216705
  194   -1.605807613724
  195    0.083282417023
  196    0.179827330463
  197    0.173500947298
  198   -0.254097509270
 Sym=     1a
 Ene= 1.46146629239268E+00
Spin= Alpha
 Occup= 0
  1      0.145748359424
  2     -0.580641184259
  3      3.453711922527
  4     -8.291513745110
  5     -13.338315942060
  6     -0.002214143712
  7      0.014352896404
  8     -0.005910247038
  9     -0.007180928720
  10     0.051808221402
  11    -0.022262865523
  12     0.012597285784
  13    -0.073541684701
  14     0.026953274697
  15     0.083683833287
  16    -0.133935049806
  17     0.050251216519
  18     0.039492228502
  19    -0.016424140128
  20     0.107363089231
  21    -0.636256958022
  22     1.018447238651
  23    -0.382190280629
  24    -0.300288203521
  25     0.124901766808
  26    -0.816495753186
  27    -0.003761580378
  28     0.002405574925
  29     0.052872397700
  30    -0.008285958849
  31    -0.035165037437
  32    -0.083807918938
  33     0.013332648505
  34     0.031937620002
  35     0.012872153704
  36    -0.008527540455
  37    -0.050517875710
  38     0.061911516844
  39    -0.723238889413
  40     3.473823176174
  41     4.127241626362
  42    -0.006991474405
  43     0.004892393262
  44     0.002017458377
  45     1.540795410768
  46    -0.063178540233
  47    -0.996271931667
  48     1.533231477795
  49     0.311973000288
  50    -1.192355012548
  51    -0.019925990173
  52     0.016545181645
  53     0.003380808528
  54     0.003286949821
  55     0.029452726632
  56     0.000039331414
  57     0.308006128546
  58    -0.311471496722
  59     0.003465368176
  60    -0.000176381006
  61    -0.373264760577
  62     0.083307922487
  63     0.020647597793
  64     0.000500164152
  65    -0.021295442157
  66    -0.023766419423
  67     0.021390471569
  68    -0.012210417643
  69    -0.003935239920
  70    -0.022061512196
  71     0.040781251407
  72     0.023994160943
  73    -0.043748875171
  74    -0.010278897619
  75     0.407071395534
  76     0.003216962505
  77    -0.005613838521
  78     0.037650357435
  79    -0.050538961224
  80     0.061940361327
  81    -0.723136546042
  82     3.472700839600
  83     4.128041020198
  84     0.005736283909
  85     0.006562369583
  86     0.001310207432
  87    -1.601809569018
  88    -0.452626349120
  89    -0.773813208668
  90    -1.719469831721
  91    -0.086498302726
  92    -0.951315659042
  93    -0.022834232164
  94     0.012922275549
  95     0.009911956615
  96    -0.014257182351
  97    -0.024059325178
  98    -0.005334652683
  99     0.347487055832
  100   -0.270651909996
  101   -0.076835145836
  102    0.198012235568
  103    0.281460480059
  104    0.149413887946
  105   -0.025334568750
  106    0.015785170590
  107   -0.022762895697
  108    0.029243854636
  109   -0.008588215535
  110    0.007884519267
  111    0.004746036108
  112   -0.012589813150
  113    0.022655110019
  114   -0.038258175377
  115   -0.050494601834
  116    0.061927867345
  117   -0.723209591523
  118    3.473725013907
  119    4.123565892606
  120   -0.000716771092
  121    0.001495084375
  122   -0.008613611020
  123    0.017039269585
  124    0.805278684490
  125    1.649214137918
  126   -0.034281650671
  127    1.212729188723
  128    1.547296402448
  129    0.020311938660
  130    0.006453974044
  131   -0.026765912704
  132    0.000374425444
  133   -0.001003863806
  134   -0.023524202385
  135   -0.177830284936
  136   -0.181855575885
  137    0.359685860821
  138    0.027213342906
  139   -0.002199733959
  140    0.379378209490
  141   -0.007721742315
  142   -0.052550823781
  143    0.003955969795
  144    0.016052171843
  145    0.031529027060
  146    0.007101215058
  147   -0.005692367410
  148    0.038975301489
  149   -0.012408705485
  150    0.003435338119
  151    0.022231063174
  152   -0.327315498742
  153   -0.204018776297
  154    0.025457834212
  155    0.019650578229
  156    0.023894792232
  157   -0.043722703642
  158   -0.009799329443
  159    0.406967629044
  160   -0.025450936973
  161   -0.027947317661
  162   -0.005578778107
  163    0.021673197853
  164   -0.326792026671
  165   -0.195405856368
  166    0.037966071119
  167    0.012540285658
  168    0.001512469723
  169    0.021767684089
  170   -0.327469773611
  171   -0.196989493955
  172   -0.025577080309
  173    0.013633685619
  174    0.027751363700
  175    0.022221669733
  176   -0.326325643105
  177   -0.201326391585
  178   -0.039133929210
  179    0.002918189044
  180    0.007489448375
  181   -0.043802963269
  182   -0.009494453670
  183    0.407345131088
  184    0.030596478147
  185   -0.020926224998
  186   -0.009385874597
  187    0.021757237220
  188   -0.327194570157
  189   -0.195702683771
  190   -0.014844263394
  191   -0.011085677449
  192   -0.035565080228
  193    0.022282761938
  194   -0.326539866296
  195   -0.201377812637
  196    0.011547069295
  197   -0.008044946709
  198   -0.037402852563
 Sym=     1a
 Ene= 1.46380003638007E+00
Spin= Alpha
 Occup= 0
  1      0.049524620042
  2     -0.039993453800
  3      1.191340080266
  4     -8.105547411565
  5     -0.501789097195
  6     -0.067449323165
  7     -0.046892614351
  8     -0.046178192592
  9     -4.274613540380
  10    -1.139119978872
  11    -1.241748054581
  12    -2.295895075707
  13    -0.418485560407
  14     0.002550483801
  15     0.084264327886
  16     0.000446370942
  17    -0.084710698828
  18     0.018194179553
  19     0.012375419427
  20    -0.013370685713
  21    -1.713353012740
  22     0.624027899863
  23     1.089325112877
  24    -0.821589189688
  25    -0.916773860183
  26    -0.215668236856
  27    -0.164160755673
  28     0.084728903669
  29     0.123808315809
  30     0.064468402204
  31    -0.189509117918
  32    -0.188909894097
  33     0.155776363150
  34     0.075833364961
  35     0.022803607900
  36    -0.074680779886
  37    -0.000513584342
  38    -0.023920465081
  39     0.123022828337
  40    -0.323995891246
  41    -0.235145161400
  42    -0.010105805610
  43    -0.018285264411
  44    -0.017641412568
  45    -0.092396984701
  46     0.016508373379
  47    -0.178073805917
  48    -0.104341840228
  49     0.109387324104
  50     0.381756038449
  51     0.008219792008
  52    -0.003313382534
  53    -0.004906409474
  54    -0.004057714870
  55    -0.008104729594
  56    -0.005847370599
  57    -0.008654724931
  58    -0.114784852234
  59     0.123439577165
  60     0.017702127958
  61    -0.041855521368
  62     0.123036617458
  63     0.009716165559
  64     0.000788312995
  65     0.005238668004
  66     0.000829521377
  67    -0.003376011760
  68    -0.004780855471
  69    -0.013865125380
  70     0.002318378893
  71    -0.002247555190
  72    -0.008308641025
  73     0.020239234194
  74     0.057878099860
  75    -0.061819255405
  76     0.005260172346
  77     0.011918108520
  78    -0.011896196763
  79    -0.013902194823
  80     0.058845622645
  81    -1.020006044663
  82     5.506605248032
  83     1.518832831190
  84     0.173114165227
  85     0.119383914734
  86     0.116827503702
  87    -5.139834271629
  88    -2.645578524350
  89    -1.326146803041
  90    -1.147619555968
  91    -0.572787538097
  92    -0.481839781464
  93     0.022937200495
  94    -0.009695839129
  95    -0.013241361366
  96    -0.000898580352
  97     0.413443200573
  98     0.005616301604
  99     0.625751990748
  100   -0.047887264045
  101   -0.577864726703
  102    0.337449813545
  103    3.435590081842
  104    0.358619790039
  105   -0.016994565613
  106    0.167287649451
  107    0.025807044609
  108    0.254866618215
  109   -0.117511279075
  110   -0.064712042197
  111   -0.232066015840
  112   -0.106928654507
  113    0.030088258570
  114   -0.025145857863
  115   -0.025032632757
  116    0.027012164338
  117   -0.314843571279
  118    0.614239112101
  119    0.229059636099
  120   -0.066499039732
  121   -0.035411827982
  122   -0.022750610403
  123    0.322479023162
  124    0.190195791281
  125    0.231501561755
  126    0.395677650436
  127    0.122537567483
  128   -0.084475330567
  129   -0.007787858061
  130    0.003362399243
  131    0.004425458818
  132   -0.013569767682
  133   -0.015016703667
  134   -0.003600404516
  135    0.092591839203
  136   -0.174786440093
  137    0.082194600890
  138    0.139776499931
  139    0.051657204569
  140    0.070735551736
  141   -0.011788064633
  142   -0.026018474249
  143    0.016602177009
  144    0.001631117868
  145    0.016251698115
  146    0.008248773518
  147    0.014184230437
  148    0.018655748139
  149   -0.030522931338
  150   -0.001441171316
  151    0.082567906753
  152    0.528363841495
  153    0.105336180097
  154   -0.108666525123
  155   -0.112227881232
  156   -0.057498031225
  157   -0.167708903953
  158   -1.073157580099
  159    0.161485502600
  160    0.083629269034
  161   -0.172541972841
  162    0.097981915331
  163    0.389332424860
  164    2.989919667624
  165   -0.113598798841
  166   -0.378265670678
  167   -0.184017132967
  168    0.439016612831
  169    0.024688304909
  170   -0.178952455692
  171   -0.273527725220
  172    0.010239085485
  173    0.017359165014
  174   -0.018920552709
  175    0.004170872161
  176   -0.157155303097
  177   -0.106506182276
  178   -0.037440055036
  179    0.018871753086
  180    0.013523682215
  181    0.096256086667
  182   -0.140408034407
  183   -0.186442250364
  184   -0.008475858329
  185    0.016376162259
  186    0.002157578893
  187    0.005167589532
  188   -0.022445698158
  189   -0.078739890252
  190    0.010612829132
  191    0.011455094313
  192   -0.013635957360
  193   -0.023603791857
  194   -0.200683988943
  195   -0.167237715139
  196    0.006209196133
  197    0.019893151163
  198   -0.020112451494
 Sym=     1a
 Ene= 1.47450032390409E+00
Spin= Alpha
 Occup= 0
  1      0.057322750860
  2     -0.069192889127
  3      1.423843287164
  4     -8.605584440401
  5     -0.766906881104
  6      0.096107208961
  7      0.009451862059
  8     -0.080929045145
  9      3.043687612133
  10    -0.459197412496
  11    -2.432098088256
  12     1.330374777143
  13    -0.511238253505
  14    -1.411453756448
  15     0.006226509833
  16    -0.065856875497
  17     0.059630365664
  18    -0.028203641749
  19    -0.027678082149
  20     0.015879191084
  21    -0.848458909963
  22     1.352965540585
  23    -0.504506630622
  24     0.308395706235
  25     1.322997577394
  26    -0.371049587314
  27    -0.003373754874
  28     0.044805060509
  29     0.093529505705
  30    -0.157183181534
  31    -0.053023238869
  32    -0.267474618691
  33     0.161709548677
  34    -0.007089057751
  35     0.141991619096
  36     0.058176550433
  37    -0.019886129350
  38     0.049805666227
  39    -1.052621386302
  40     5.740122754612
  41     1.496919924271
  42    -0.163972215980
  43    -0.055082903855
  44     0.172615005737
  45     3.102187532430
  46     0.427801534032
  47    -4.436692601414
  48     0.831360710699
  49     0.234019258960
  50    -1.076977722149
  51     0.369858900229
  52    -0.359958686454
  53    -0.009900213775
  54    -0.012297946492
  55    -0.015105631331
  56     0.008964356728
  57     3.152664069889
  58    -2.851000035998
  59    -0.301664033891
  60    -0.145144870409
  61    -0.620778582057
  62     0.001064659557
  63     0.081662576582
  64     0.081846964187
  65     0.318554892617
  66    -0.038026099823
  67    -0.027608089329
  68    -0.286853457351
  69    -0.071535743650
  70    -0.082201136076
  71    -0.140532779323
  72     0.001380834887
  73     0.072722695540
  74    -0.086685213803
  75    -0.128782236720
  76    -0.004252532427
  77     0.008104103504
  78    -0.013778829986
  79    -0.010495529529
  80    -0.005142863963
  81    -0.159869274773
  82     0.894023520578
  83     0.128936564515
  84     0.021381589894
  85    -0.007511605157
  86    -0.025932448327
  87    -0.673148969348
  88    -0.177347174097
  89    -0.045677892797
  90    -0.120146319400
  91     0.169846147182
  92     0.260394922700
  93    -0.003502432359
  94     0.000770749876
  95     0.002731682483
  96     0.001521639801
  97     0.014802220884
  98     0.001046901012
  99     0.178997484079
  100   -0.123656172523
  101   -0.055341311556
  102    0.154482652562
  103    0.006670477950
  104    0.121244326793
  105   -0.017341150137
  106    0.032740017335
  107   -0.015284519837
  108    0.007941810198
  109   -0.032574363048
  110    0.014211196409
  111    0.015323784110
  112   -0.011350979560
  113    0.006295138806
  114   -0.015365972114
  115    0.006207996769
  116   -0.041577663792
  117    0.141488309966
  118    0.283838825138
  119   -0.180834483293
  120   -0.006802069002
  121    0.011167231830
  122    0.026314271287
  123    0.122920970090
  124    0.317595366838
  125    0.321078174187
  126   -0.230141676657
  127   -0.166585219194
  128   -0.235664081525
  129   -0.010199615561
  130   -0.001616832758
  131    0.011816448319
  132   -0.004344611641
  133   -0.006783667890
  134    0.006834264793
  135   -0.007514237887
  136   -0.071458065044
  137    0.078972302931
  138    0.084914315513
  139    0.029730966846
  140    0.199485899668
  141    0.027302530020
  142   -0.006094645271
  143   -0.004973031708
  144   -0.015788651630
  145   -0.004782381544
  146    0.004691253828
  147   -0.020841536219
  148    0.012959206218
  149    0.001980768344
  150   -0.014261683005
  151   -0.000437872061
  152   -0.091898462820
  153   -0.165001441522
  154   -0.002145199835
  155    0.021136706847
  156   -0.007052331327
  157    0.009157125231
  158    0.046208855321
  159   -0.011291397336
  160    0.012473328021
  161    0.014464521454
  162    0.008736797195
  163    0.003107958769
  164    0.022705476637
  165   -0.097235127817
  166   -0.002568141675
  167    0.009805304752
  168    0.012844157848
  169    0.207808931139
  170    1.678828902356
  171   -0.015230475364
  172   -0.082412866201
  173   -0.184280838243
  174   -0.266872249568
  175   -0.261942692877
  176   -2.410877139202
  177    0.294546060536
  178   -0.354321257694
  179    0.018387729926
  180   -0.290116451266
  181    0.274400632932
  182    2.213021516675
  183    0.053866997281
  184   -0.006208297845
  185    0.351414434108
  186   -0.238664422832
  187    0.045554935233
  188   -0.108926605892
  189   -0.309891928525
  190    0.010041627676
  191    0.021113507486
  192   -0.002388180108
  193   -0.002403165925
  194   -0.103777788191
  195   -0.100382066222
  196   -0.002746145501
  197   -0.004343154178
  198   -0.035319573442
 Sym=     1a
 Ene= 1.49930510093301E+00
Spin= Alpha
 Occup= 0
  1     -0.064630792317
  2      0.058704324587
  3     -1.565860219141
  4      10.346185951186
  5      0.703265368931
  6     -0.107968529506
  7      0.017266770108
  8      0.057683987910
  9     -4.892357645750
  10     0.190975759559
  11     2.634117092393
  12    -2.480863833078
  13     0.039842032260
  14     0.954175668151
  15    -0.063362696176
  16     0.006475418870
  17     0.056887277306
  18    -0.008637761954
  19     0.058926821408
  20     0.002057084595
  21     1.684239328682
  22    -1.073122652327
  23    -0.611116676355
  24    -0.081528214247
  25    -1.857943559283
  26     0.181210482661
  27    -0.138024123784
  28    -0.024726387977
  29    -0.188245176120
  30     0.175156681989
  31     0.056165332629
  32     0.353978240616
  33     0.010022112001
  34    -0.022991402016
  35    -0.101420834471
  36    -0.026382873494
  37     0.019581244895
  38    -0.071079370866
  39     1.298947322175
  40    -7.038125351407
  41    -1.914233121675
  42     0.256366249842
  43    -0.044996731922
  44    -0.132040659269
  45    -6.661472814459
  46     0.802583153626
  47     2.488607456875
  48    -1.545230448947
  49     0.126932189295
  50     0.698043156222
  51    -0.014671481613
  52     0.017201174730
  53    -0.002529693117
  54    -0.003288478510
  55     0.425518706623
  56    -0.002070973084
  57    -0.553436649229
  58     0.483490885133
  59     0.069945764096
  60     0.219807954416
  61     3.847465392339
  62    -0.086211267140
  63    -0.064545785057
  64    -0.034293444376
  65    -0.004757108980
  66     0.329732865758
  67     0.026103362078
  68     0.060256526961
  69    -0.243135607928
  70     0.019906121606
  71    -0.053874195528
  72    -0.001524805971
  73    -0.040154095807
  74    -0.017749568527
  75     0.091329246807
  76     0.008330784819
  77    -0.009340336970
  78     0.017987820129
  79     0.005957774102
  80     0.020912565792
  81    -0.035822102330
  82    -0.028879059766
  83     0.147986214880
  84    -0.015960532769
  85     0.015053603107
  86     0.024671857784
  87     0.156630126594
  88    -0.045098107127
  89     0.208071984455
  90    -0.084688734205
  91    -0.172897562063
  92    -0.440693058367
  93    -0.005370273629
  94    -0.000562298798
  95     0.005932572427
  96    -0.006952253449
  97    -0.010165129300
  98     0.003422947366
  99    -0.074441773202
  100    0.174590042680
  101   -0.100148269478
  102   -0.041437426624
  103   -0.028033809149
  104   -0.134425597421
  105    0.020123876027
  106   -0.007197272734
  107    0.001106395478
  108   -0.006702367028
  109    0.004824585383
  110    0.000595130033
  111   -0.020296645833
  112    0.004831569269
  113   -0.002079515333
  114   -0.006970412216
  115    0.020091259476
  116   -0.009619516087
  117    0.218075003117
  118   -0.544044815279
  119   -0.111120550103
  120   -0.065116902636
  121    0.010052531476
  122    0.026448268055
  123    0.215377688882
  124   -0.127119023323
  125   -0.379655455758
  126    0.453592835563
  127    0.039761623652
  128    0.093530178551
  129    0.011468897287
  130   -0.007998818678
  131   -0.003470078609
  132   -0.006086359115
  133   -0.014836876345
  134   -0.002737219485
  135   -0.096542125481
  136    0.242939189940
  137   -0.146397064459
  138   -0.010983857108
  139    0.049991181493
  140   -0.093323914055
  141   -0.007894592402
  142    0.021922909520
  143   -0.025278949223
  144   -0.008910760122
  145   -0.017636907477
  146    0.002337922676
  147    0.019502467282
  148   -0.011775762093
  149    0.031577346641
  150   -0.011942629433
  151   -0.026928974566
  152    0.193629305354
  153    0.340013846864
  154    0.009249707394
  155   -0.020288154727
  156    0.019517842551
  157   -0.092645021469
  158    0.100401519871
  159    0.185397274936
  160   -0.002478853611
  161   -0.021231311258
  162    0.000657637988
  163   -0.001291038448
  164    0.157039482517
  165    0.123558386666
  166   -0.033752261097
  167   -0.029859014849
  168   -0.009812657134
  169   -0.037323943355
  170   -0.036757342166
  171   -0.162757288611
  172   -0.102006650756
  173    0.047305328037
  174   -0.010271317428
  175   -0.392330601702
  176   -3.101025848359
  177    0.073457295119
  178   -0.503148325966
  179    0.046479516214
  180   -0.341462984560
  181    0.077833716724
  182    0.376816421312
  183   -0.165361579453
  184    0.016746383503
  185    0.044476299761
  186   -0.073917459675
  187    0.009635633507
  188    0.179184465131
  189    0.227334275950
  190    0.007349118216
  191   -0.027729077605
  192    0.009638130161
  193   -0.004562672230
  194    0.055793127064
  195    0.117163765858
  196    0.013105315246
  197   -0.004474466269
  198    0.022388506949
 Sym=     1a
 Ene= 1.51710678816797E+00
Spin= Alpha
 Occup= 0
  1      0.027535198919
  2     -0.046926315375
  3      0.614523689684
  4     -2.953413200760
  5     -0.256534246160
  6     -0.040138683167
  7     -1.158899589180
  8     -0.108941338388
  9      1.772396669914
  10     5.380179554971
  11     4.815805909786
  12    -0.217331934848
  13    -3.075348166604
  14    -0.592134461117
  15    -0.053648008857
  16     0.007570128299
  17     0.046077880558
  18    -0.009064465852
  19    -0.019261377280
  20     0.042140734962
  21     1.871992239857
  22    -0.117930703224
  23    -1.754061536633
  24     0.415167980580
  25     0.573077899500
  26    -1.177451084408
  27    -0.003409341091
  28    -0.283479603370
  29    -0.037697634346
  30     0.020725410732
  31     0.120548580032
  32    -0.073634045733
  33    -0.016151299669
  34     0.259779217990
  35     0.124210729526
  36     0.015981159387
  37    -0.011511654292
  38     0.026863750254
  39    -0.135288034703
  40     0.017044765895
  41     0.438681295208
  42    -0.030614452214
  43    -0.007256636805
  44    -0.030466248262
  45    -0.007156863519
  46    -0.282382790287
  47     0.519427487714
  48     0.242636755299
  49     1.056231513507
  50     0.182841323397
  51    -0.010508167553
  52    -0.000190593680
  53     0.010698761233
  54    -0.007385877051
  55    -0.003921913408
  56    -0.015526469565
  57     0.042210762817
  58     0.167314302984
  59    -0.209525065801
  60    -0.198476040506
  61     0.189590614111
  62     0.239984689046
  63    -0.012549574082
  64     0.069701398332
  65    -0.010549978473
  66     0.040576858556
  67    -0.099313126056
  68     0.023680321591
  69    -0.023739838114
  70     0.005798887178
  71    -0.009526040175
  72     0.108709129884
  73     0.036708440421
  74    -0.536572671258
  75    -0.144603904383
  76     0.002841585348
  77    -0.124782555421
  78    -0.177424844387
  79    -0.019199797138
  80     0.059417389660
  81     0.082353031018
  82    -2.465588937350
  83     0.590242124504
  84    -0.016511992976
  85    -0.023684353988
  86    -0.036362706778
  87     2.106729603344
  88     0.475488117157
  89     1.291212721931
  90    -0.390498937911
  91     1.020119791583
  92     0.000303114855
  93    -0.021953201541
  94     0.017103396967
  95     0.004849804574
  96    -0.004815978165
  97    -0.000294406110
  98    -0.019047791938
  99    -0.646120940026
  100    0.462591826523
  101    0.183529113503
  102   -0.194347965740
  103   -0.881752446082
  104    0.057527531224
  105    0.095092476437
  106   -0.009755444581
  107   -0.065265123749
  108   -0.143713478838
  109   -0.023395385029
  110    0.132057815257
  111    0.016133533961
  112    0.036483687370
  113   -0.044495463300
  114   -0.038316380271
  115    0.005734782758
  116   -0.045843094019
  117   -0.622551280720
  118    5.570661476540
  119    0.098244465106
  120   -0.020550244911
  121   -0.005648783357
  122   -0.117670113967
  123    0.265283913829
  124    1.218603975584
  125    4.623756785650
  126    0.121724941964
  127    0.550024631634
  128   -0.255658112330
  129   -0.017155663663
  130   -0.002652379356
  131    0.019808043019
  132   -0.004257899188
  133   -0.002817735706
  134    0.037960232209
  135   -1.215851996351
  136   -0.454498320134
  137    1.670350316485
  138   -0.004900546148
  139    0.137310887823
  140    0.829431980891
  141    0.002047017702
  142   -0.063710244486
  143    0.199082186820
  144   -0.011744692198
  145   -0.032390963178
  146   -0.128766575987
  147    0.008998329758
  148    0.117867225698
  149   -0.138330205717
  150    0.005902624936
  151   -0.062751359605
  152   -0.310944350345
  153   -0.172504107912
  154   -0.044687956969
  155    0.021047501194
  156    0.010413771097
  157   -0.015429349753
  158    0.048389138965
  159    0.204277381281
  160    0.042066466967
  161    0.005175991571
  162    0.023563448486
  163   -0.024329170277
  164   -0.152492725247
  165    0.129834514273
  166   -0.030698022946
  167   -0.001402630260
  168   -0.043732147937
  169   -0.031178921878
  170   -0.223670379692
  171   -0.326399821169
  172    0.030024526324
  173    0.005401004653
  174    0.005178583490
  175    0.024049100139
  176    0.003624807054
  177    0.121574128692
  178    0.037098191258
  179   -0.009043616816
  180   -0.023300714541
  181    0.000605954753
  182   -0.132666672808
  183    0.095392913864
  184   -0.079937541261
  185   -0.010729050290
  186    0.060165136077
  187    0.093971718695
  188    0.197436664502
  189   -0.223520772354
  190    0.037318256823
  191   -0.036164810840
  192    0.047400586322
  193    0.077127100049
  194    0.129117682507
  195   -0.355202749341
  196   -0.015340175995
  197   -0.044448818412
  198    0.044253462659
 Sym=     1a
 Ene= 1.52410853521996E+00
Spin= Alpha
 Occup= 0
  1      0.105019928013
  2     -0.131703377944
  3      1.852288789487
  4     -10.561211771212
  5      0.730651960001
  6      0.027872940295
  7     -0.025019678742
  8     -0.050956907505
  9     -3.098315554739
  10    -0.619361141754
  11    -0.868831759134
  12     0.599881424464
  13     0.981485907528
  14     1.951998208915
  15     0.004269166781
  16    -0.037600013326
  17     0.033330846545
  18     0.048701627081
  19     0.068495884253
  20     0.070929215721
  21    -0.907194415172
  22     1.071831175642
  23    -0.164636760470
  24    -0.998118664953
  25    -1.316884896595
  26    -1.074876399551
  27    -0.047640102520
  28     0.031525601679
  29     0.114871607417
  30     0.049308479517
  31    -0.106650976938
  32    -0.195672352025
  33     0.014607425097
  34     0.064354943907
  35     0.041555918304
  36    -0.072777274929
  37    -0.031569503145
  38     0.063152969313
  39    -0.546069966170
  40     1.229355858862
  41     0.735892674541
  42    -0.117177676095
  43     0.000762955203
  44     0.062161442751
  45     0.704321334626
  46    -0.025826814972
  47    -0.506678181062
  48     0.907787787555
  49    -0.183764069795
  50     0.124429761878
  51    -0.007209104991
  52     0.010032766095
  53    -0.002823661104
  54     0.001494691721
  55     0.007101162029
  56    -0.012864914270
  57     0.238953229881
  58    -0.295536493533
  59     0.056583263652
  60    -0.003578299283
  61    -0.214692902542
  62     0.247748143028
  63     0.032748452270
  64     0.012610315688
  65    -0.015999595913
  66    -0.038471636287
  67     0.013484880904
  68    -0.015366120558
  69    -0.005465022973
  70    -0.030403394761
  71     0.036831831002
  72     0.024373435712
  73    -0.007626334022
  74     0.143323468494
  75     0.145470665604
  76     0.004318650501
  77     0.000839111469
  78    -0.017740974341
  79     0.014077046079
  80    -0.055467090084
  81    -0.458085366571
  82     4.727481898537
  83    -0.468189583026
  84     1.096205338025
  85     0.035080153471
  86     0.075336072328
  87    -6.877136407844
  88    -1.219261549605
  89    -1.355357986461
  90     3.958936043506
  91     0.185362746075
  92    -1.042921628543
  93     0.051486109294
  94    -0.015967106776
  95    -0.035519002518
  96     0.007744070001
  97     0.045796129025
  98     0.036201376712
  99     0.962187340370
  100   -0.547032078457
  101   -0.415155261913
  102    0.646183603529
  103    1.330512896284
  104    0.423999642398
  105   -0.058076740715
  106    0.143104636901
  107    0.082286169848
  108    0.130572303104
  109   -0.158992997672
  110   -0.049196360165
  111   -0.052654179013
  112   -0.033002019932
  113   -0.061202121468
  114    0.026106843912
  115   -0.022128380883
  116    0.051101248136
  117   -0.698944635486
  118    3.186065096098
  119    1.295689500176
  120    0.019044605523
  121   -0.050941437616
  122   -0.094028994313
  123   -0.206474243837
  124    0.824221193836
  125    1.689489401780
  126   -0.217262766412
  127    0.504035515211
  128    0.816302379824
  129   -0.004992018983
  130    0.004593882937
  131    0.000398136046
  132    0.004227300466
  133    0.010156658442
  134   -0.009194984908
  135   -0.193719346960
  136   -0.336542733998
  137    0.530262080958
  138   -0.042269256047
  139   -0.214949699221
  140    0.487301150554
  141   -0.000551830297
  142   -0.044972498711
  143    0.033029136436
  144    0.012175178679
  145    0.007437915561
  146   -0.020613287245
  147   -0.011434820645
  148    0.052899022981
  149   -0.023699949341
  150   -0.017721589010
  151   -0.035316822402
  152    0.296305013000
  153    0.130103084877
  154    0.081004510113
  155   -0.016562545250
  156    0.021792456644
  157    0.111783219263
  158    0.490759523752
  159   -0.560581924804
  160    0.052009258826
  161    0.147249513441
  162   -0.035988314621
  163    0.285201352452
  164    1.332007697208
  165   -2.818324266028
  166   -0.186434012313
  167   -0.098443675272
  168    0.302574207113
  169    0.012310762094
  170   -0.321908407785
  171    0.136656072434
  172   -0.011538435125
  173    0.028876900615
  174   -0.014303946741
  175   -0.032445071028
  176   -0.002890067691
  177    0.371488048677
  178   -0.020762577297
  179    0.034523480946
  180   -0.000629053951
  181    0.064466125582
  182   -0.146757063930
  183   -0.152848317347
  184   -0.040132021862
  185    0.003328277030
  186    0.001957269884
  187   -0.006661147875
  188   -0.112016511865
  189   -0.026408604733
  190    0.000863531824
  191   -0.009357605636
  192   -0.059201493065
  193    0.016943223727
  194   -0.230657838374
  195    0.477777231544
  196    0.012050057502
  197    0.028547374567
  198   -0.001102761656
 Sym=     1a
 Ene= 1.53042863040307E+00
Spin= Alpha
 Occup= 0
  1     -0.100866049591
  2      0.127726231028
  3     -1.830358554506
  4      10.370373461801
  5     -0.520661938553
  6      0.044103322751
  7      0.017748479959
  8      0.049061366614
  9     -3.035938092682
  10    -0.194047088923
  11     1.301178152215
  12     0.217063499771
  13    -0.559116811353
  14    -2.111879329408
  15     0.007512149166
  16     0.052271421274
  17    -0.059783570440
  18     0.014730546430
  19     0.080511578398
  20    -0.052353297283
  21     0.707779777670
  22    -1.319851194959
  23     0.612071417289
  24    -0.162650029564
  25    -1.633848389555
  26     0.749277149789
  27    -0.017696714646
  28     0.018516311104
  29    -0.109382934618
  30     0.089285322891
  31     0.032935816117
  32     0.214712376410
  33    -0.065542688735
  34    -0.057778054310
  35    -0.067959769979
  36    -0.003133736944
  37    -0.012263015722
  38     0.048665079204
  39     0.502085838076
  40    -4.797447301134
  41     0.427009250709
  42     1.090497622705
  43    -0.019967231086
  44    -0.086908943640
  45    -6.890806841691
  46     0.352961492765
  47     1.862248010736
  48     4.257521109454
  49     0.022073023519
  50     0.946478741793
  51    -0.032909237199
  52     0.005622034471
  53     0.027287202728
  54    -0.011577777132
  55     0.070311130015
  56    -0.014126433958
  57    -0.686004306409
  58     0.605400842120
  59     0.080603464289
  60     0.170470113483
  61     1.617705611992
  62     0.001646569484
  63    -0.116308731941
  64    -0.033999931841
  65    -0.030753665052
  66     0.237186550088
  67     0.018301508801
  68     0.019241609506
  69    -0.081142011490
  70     0.027314186496
  71     0.022018761862
  72    -0.002310053768
  73     0.002435742404
  74    -0.125081987772
  75    -0.116086232531
  76    -0.000454244226
  77     0.000512174468
  78     0.016730256035
  79     0.032940646419
  80    -0.066215400554
  81     0.549321980931
  82    -1.140505196116
  83    -0.770066593128
  84    -0.128885240563
  85    -0.020966682102
  86    -0.039630946991
  87     0.698226492020
  88     0.125823846025
  89     0.366192155443
  90     0.911725496082
  91     0.366845231616
  92    -0.385100294262
  93     0.010780481840
  94    -0.011726872496
  95     0.000946390656
  96     0.006024925716
  97     0.000350994480
  98     0.010237197406
  99    -0.276332455416
  100    0.296635314378
  101   -0.020302858962
  102   -0.165219307429
  103   -0.058102011587
  104   -0.217705329544
  105    0.037483578828
  106   -0.029755719285
  107    0.019913509816
  108   -0.034055813701
  109    0.023039013089
  110   -0.006408188624
  111   -0.016233684479
  112    0.016882473535
  113   -0.020308588347
  114    0.033433822858
  115    0.022904938989
  116   -0.053394480080
  117    0.712848878189
  118   -3.230045195718
  119   -1.369970785333
  120    0.009498041501
  121    0.061693359266
  122    0.089217963456
  123   -0.212203414525
  124   -0.922645692691
  125   -1.632022926442
  126   -0.064306520678
  127   -0.575253994413
  128   -0.824996490835
  129    0.004891449665
  130   -0.000129470855
  131   -0.004761978810
  132    0.008077165080
  133    0.000650205346
  134    0.011916674569
  135    0.182859339532
  136    0.273249978426
  137   -0.456109317958
  138   -0.167242188507
  139   -0.121400109966
  140   -0.536690092356
  141    0.008923094141
  142    0.047256527002
  143   -0.030084164035
  144   -0.006142209633
  145   -0.013072904825
  146    0.030004358192
  147   -0.005829377408
  148   -0.050328379229
  149    0.010357783305
  150   -0.018854803558
  151   -0.023413128461
  152    0.358056721832
  153   -0.099359959214
  154   -0.009876645682
  155   -0.035225826529
  156    0.017812649857
  157   -0.075022111628
  158    0.178980606522
  159    0.204609643425
  160   -0.042567850224
  161   -0.011186612104
  162    0.009818730578
  163    0.045051879425
  164    0.043860211881
  165   -0.475984296686
  166   -0.016957959212
  167   -0.039033076306
  168    0.012754345843
  169    0.014489548957
  170   -0.451171689189
  171    0.056731949377
  172    0.067975638294
  173    0.054180629007
  174   -0.002092317820
  175   -0.326749966678
  176   -1.556223761571
  177    3.209137528865
  178   -0.297713359178
  179    0.039435691277
  180   -0.299267144976
  181    0.029519458629
  182   -0.242313025311
  183    0.031150138597
  184    0.098260167982
  185   -0.038957168152
  186   -0.024360543368
  187   -0.028919680744
  188    0.252842652280
  189   -0.457298897667
  190    0.014641329789
  191   -0.026091376386
  192    0.005758174774
  193    0.018111933924
  194    0.161716811010
  195   -0.057834288589
  196   -0.004590047835
  197    0.009169294456
  198    0.063640439723
 Sym=     1a
 Ene= 1.60227528860545E+00
Spin= Alpha
 Occup= 0
  1     -0.108074292937
  2      0.137873336184
  3     -2.001631310817
  4      11.287977879493
  5     -0.414910528181
  6     -0.005773750153
  7     -0.013260068850
  8      0.029646544146
  9      0.067318692108
  10    -1.663034927827
  11    -3.196870771387
  12     0.183849200090
  13     1.036425863168
  14     0.934205971985
  15     0.007938646513
  16     0.039745288508
  17    -0.047683935021
  18    -0.013872845400
  19    -0.005398725933
  20    -0.077695502625
  21    -0.471984034340
  22    -0.955050046701
  23     1.427034081041
  24     0.235349063671
  25     0.037649624324
  26     1.742461848437
  27     0.007048176356
  28     0.064852396991
  29    -0.104494829535
  30     0.006014197882
  31     0.096650566133
  32     0.187971561996
  33    -0.015470318752
  34    -0.183659187039
  35    -0.047777036713
  36     0.011636660697
  37     0.032359421433
  38    -0.069033045454
  39     0.691680960082
  40    -2.245244838871
  41    -1.179489064974
  42     0.102431269154
  43     0.004164217476
  44    -0.092793154881
  45    -1.163055740968
  46    -0.106832389701
  47     0.721028451902
  48    -0.576980444001
  49     0.378158526995
  50     0.835178506942
  51     0.004131604576
  52    -0.010472441599
  53     0.006340837023
  54     0.008923225013
  55    -0.005885596365
  56     0.008875905226
  57    -0.350387825256
  58     0.382246401629
  59    -0.031858576373
  60    -0.085123473304
  61     0.333916599724
  62    -0.232495554227
  63    -0.018827746517
  64    -0.000186742008
  65     0.002588051480
  66     0.032370156508
  67    -0.016875968642
  68     0.035959706746
  69    -0.007110083862
  70     0.017126509337
  71    -0.039431942169
  72    -0.034865983524
  73     0.144198642977
  74    -0.067482857728
  75    -0.384381900849
  76    -0.004693149438
  77     0.082453575716
  78     0.105932454534
  79     0.030975544491
  80    -0.067247168677
  81     0.714657520765
  82    -2.538675941808
  83    -1.265668839337
  84    -0.111479981088
  85    -0.019082924373
  86    -0.072267471277
  87     1.390348271888
  88     0.219468178856
  89     0.586761980027
  90     0.663463485912
  91     0.435093109524
  92     0.717149044530
  93     0.007920599933
  94    -0.012586330665
  95     0.004665730732
  96    -0.004454075637
  97     0.003050884860
  98     0.010071628136
  99    -0.448431756294
  100    0.379997952990
  101    0.068433803304
  102   -0.178781651856
  103   -0.229124537956
  104   -0.289606155679
  105    0.029106630550
  106   -0.017712585758
  107   -0.000768425681
  108   -0.032946961797
  109    0.020894806853
  110    0.016158084107
  111   -0.006103680906
  112    0.002869120635
  113   -0.015127132872
  114    0.050690030057
  115   -0.012171524981
  116    0.048436412203
  117    0.587674603195
  118   -5.346996543237
  119    0.435314731451
  120    0.006877477220
  121    0.049629079506
  122    1.126986482959
  123   -0.062134454817
  124   -1.604351697707
  125   -7.509138815277
  126   -0.090576784869
  127   -0.336935772435
  128    3.907966483791
  129    0.054903737183
  130   -0.000648555852
  131   -0.054255181331
  132    0.009418264780
  133   -0.004743958099
  134   -0.049245825250
  135    1.295036855650
  136    0.028153462988
  137   -1.323190318638
  138    0.098042221266
  139   -0.108435954196
  140   -1.205846114477
  141   -0.042823520867
  142    0.071277951136
  143   -0.019147262729
  144    0.013613043654
  145    0.112325431274
  146   -0.073260647947
  147    0.043840738562
  148   -0.207954837696
  149    0.098949396574
  150   -0.055914255515
  151    0.042893851191
  152    0.160694458866
  153   -0.341023894319
  154   -0.031224152660
  155   -0.047121190786
  156   -0.025047124849
  157   -0.040136781117
  158    0.032606440767
  159    0.053454230102
  160   -0.013310266788
  161   -0.019248302496
  162   -0.025260461099
  163   -0.039243831210
  164    0.348213081073
  165   -0.296610062377
  166   -0.000215607219
  167   -0.038275794982
  168    0.009204160978
  169    0.046285714907
  170    0.142841441870
  171   -0.394126855985
  172    0.033906215016
  173   -0.041028393854
  174   -0.024884576513
  175   -0.037951801691
  176    0.366504788987
  177   -0.253779837649
  178    0.011865989024
  179   -0.039382876773
  180    0.006162081357
  181   -0.051269480455
  182    0.071699724711
  183    0.099440265504
  184    0.015114725583
  185   -0.018130920932
  186   -0.030468337366
  187   -0.174356755482
  188   -1.180687902137
  189    1.807551143778
  190   -0.256526473629
  191    0.073447012041
  192   -0.063252868284
  193   -0.220997175673
  194   -1.332821873893
  195    2.245414888787
  196    0.259551518698
  197    0.146839786295
  198   -0.127306374870
 Sym=     1a
 Ene= 1.61663248017299E+00
Spin= Alpha
 Occup= 0
  1      0.000259094739
  2      0.010862677539
  3     -0.045530069038
  4     -0.273459274300
  5      0.205033050704
  6     -0.067652448268
  7      0.010602030729
  8     -0.042097363471
  9      0.413753470509
  10     0.120411245606
  11     0.197777633573
  12     0.786310987483
  13     0.207324376659
  14     0.383635771040
  15    -0.000453651239
  16    -0.002635594882
  17     0.003089246121
  18     0.000810612724
  19    -0.004950088021
  20     0.003920406741
  21     0.004563793544
  22     0.030414692767
  23    -0.034978486311
  24     0.005354264352
  25     0.045338501265
  26    -0.033397316438
  27     0.005649401442
  28    -0.007517866242
  29    -0.001298522569
  30    -0.007752140690
  31     0.005503461673
  32     0.001725957136
  33     0.000172673297
  34     0.004582814304
  35     0.000016193705
  36     0.005740813412
  37    -0.001378006933
  38     0.005679404115
  39    -0.077215240045
  40     0.351617077241
  41     0.074827066203
  42     0.010042665845
  43     0.005859077936
  44     0.023030561790
  45     0.075426497429
  46    -0.040171200263
  47    -0.233291806066
  48    -0.029579872860
  49    -0.025834942578
  50    -0.211865602324
  51     0.003266473415
  52     0.000264073667
  53    -0.003530547082
  54     0.001732634418
  55     0.003807531300
  56    -0.000563629801
  57    -0.030932172045
  58    -0.018646620036
  59     0.049578792081
  60    -0.023142048909
  61    -0.086990438789
  62     0.006777960355
  63    -0.003716770124
  64     0.001384065149
  65    -0.000044353882
  66    -0.002355244463
  67    -0.000435252355
  68    -0.002574502774
  69     0.007341814856
  70    -0.001421665900
  71     0.002634009751
  72     0.002986280810
  73    -0.012307334869
  74     0.035639207277
  75     0.056614339860
  76     0.002378850886
  77    -0.001651693975
  78     0.000039632141
  79     0.001437171765
  80     0.040088682739
  81    -0.138598586071
  82     0.111889526986
  83     0.384133491387
  84    -0.005427280831
  85     0.033088454102
  86    -0.013779909495
  87     0.302504945587
  88    -0.029153655225
  89     0.183161972209
  90     0.309349129547
  91    -0.477192579935
  92     0.330551298435
  93     0.001015478661
  94    -0.002515571276
  95     0.001500092615
  96     0.000416804155
  97    -0.001243702170
  98     0.002185854140
  99     0.007525395551
  100   -0.041384623469
  101    0.033859227918
  102    0.040178492148
  103   -0.065440172132
  104    0.070400010209
  105    0.026097345657
  106    0.010751827970
  107    0.033498759001
  108   -0.038090650778
  109   -0.021637708413
  110   -0.000391677497
  111    0.003077387426
  112    0.007212617479
  113   -0.044551623876
  114    0.027342510641
  115   -0.001370995048
  116    0.005717054240
  117   -0.077128470025
  118    0.350641429177
  119    0.075528177092
  120    0.025350067437
  121   -0.002695208059
  122   -0.003814923794
  123   -0.156725521601
  124    0.091410894751
  125    0.169435234717
  126   -0.190636830524
  127    0.066351947846
  128    0.071406013483
  129    0.001827827500
  130   -0.000085485421
  131   -0.001742342079
  132    0.002585651532
  133    0.004692520308
  134   -0.000751936777
  135   -0.047499467277
  136   -0.000144885766
  137    0.047644353043
  138   -0.036470446370
  139   -0.070356364217
  140    0.037715008117
  141    0.004579346887
  142   -0.002913977429
  143    0.002165426889
  144   -0.000031172696
  145   -0.000714119668
  146   -0.001666738279
  147   -0.006112665863
  148    0.004623630637
  149   -0.001238486756
  150   -0.003198104784
  151   -0.003565749587
  152   -0.149384287508
  153    0.032374329724
  154   -0.004044796199
  155    0.013952242573
  156   -0.004346819557
  157    1.366835749927
  158   -1.360664173736
  159   -1.142382111759
  160   -0.003549152134
  161    0.023951179619
  162   -0.009694280228
  163   -0.003599775154
  164   -0.149829025474
  165    0.031302084651
  166   -0.001987115196
  167    0.012824050020
  168   -0.007792445413
  169    0.002216603339
  170    0.040512128798
  171    0.048786646564
  172    0.003860309460
  173   -0.002493230729
  174   -0.000050159392
  175   -0.003980717281
  176   -0.000956211753
  177   -0.023184595583
  178   -0.000244185248
  179   -0.000684359715
  180    0.004395239071
  181   -0.012198818505
  182    0.037184639691
  183    0.056521690402
  184    0.000933625879
  185   -0.000662424029
  186    0.002617157597
  187   -0.004046361366
  188   -0.000586212408
  189   -0.022028426724
  190    0.003105537222
  191   -0.002738816241
  192   -0.001558742345
  193    0.002577526533
  194    0.040162196898
  195    0.047625135885
  196    0.001340458551
  197   -0.001066824227
  198    0.004209756647
 Sym=     1a
 Ene= 1.61688230229477E+00
Spin= Alpha
 Occup= 0
  1      0.000244212653
  2      0.010888353364
  3     -0.045746050010
  4     -0.272788024999
  5      0.204931242819
  6      0.056283409834
  7      0.025810937218
  8     -0.051255134698
  9     -0.397941610347
  10     0.020270153467
  11     0.256370285706
  12    -0.750251452910
  13     0.017364165639
  14     0.493925821714
  15     0.000737553988
  16    -0.002622851575
  17     0.001885297587
  18     0.000700663708
  19     0.004195793143
  20     0.005116523069
  21    -0.001205690909
  22     0.024939970136
  23    -0.023734279227
  24    -0.018783290374
  25    -0.040880796193
  26    -0.042638038442
  27    -0.005524386337
  28    -0.002365334833
  29    -0.000865783191
  30     0.009985514946
  31    -0.002284845752
  32     0.004616408799
  33    -0.002573772917
  34     0.005458275437
  35    -0.003454838758
  36    -0.003715077032
  37     0.001435387212
  38     0.040096478649
  39    -0.138750759860
  40     0.112569881082
  41     0.384204972696
  42    -0.004851236898
  43     0.033131836186
  44    -0.013982701662
  45    -0.257660577327
  46    -0.098809614692
  47     0.223332914854
  48    -0.132641546888
  49    -0.530099332369
  50     0.365256764668
  51     0.001151126082
  52    -0.002360035174
  53     0.001208909092
  54     0.000982371518
  55     0.000703146886
  56     0.002425754780
  57     0.032199380911
  58    -0.051474119716
  59     0.019274738805
  60    -0.008623320369
  61     0.046119057778
  62     0.088602322229
  63    -0.004869313718
  64     0.023372696461
  65     0.033824103881
  66     0.007054708375
  67    -0.043189730200
  68     0.009707454775
  69    -0.000521838489
  70     0.011831967337
  71    -0.055087252108
  72    -0.003736605646
  73    -0.012193121928
  74     0.036815599112
  75     0.056583383434
  76    -0.001949977874
  77    -0.002083692613
  78     0.000338067735
  79    -0.001374171330
  80     0.005701122389
  81    -0.076995167183
  82     0.349952053080
  83     0.075262586553
  84    -0.007810975611
  85     0.003832145596
  86     0.024260104192
  87    -0.094260764618
  88    -0.061526938116
  89    -0.220812292795
  90     0.004387439585
  91    -0.021887063457
  92    -0.212631932782
  93     0.002832867567
  94    -0.000350924527
  95    -0.002481943040
  96    -0.001002440176
  97    -0.004593815634
  98    -0.001388494024
  99    -0.018573817736
  100   -0.008663063760
  101    0.027236881496
  102    0.022319044384
  103    0.093644199039
  104    0.025637083740
  105    0.003180956742
  106    0.002493826286
  107    0.002062289368
  108    0.001562780301
  109   -0.001193585382
  110   -0.003540827839
  111   -0.005830481607
  112   -0.002152233678
  113    0.000773976309
  114   -0.004543658559
  115   -0.001377016378
  116    0.005707317050
  117   -0.077279782454
  118    0.351435436585
  119    0.075059582682
  120   -0.024190660655
  121   -0.008980255593
  122   -0.000158727015
  123    0.151606862819
  124    0.130160828592
  125    0.147537292817
  126    0.178084635841
  127    0.112589996304
  128    0.044580325021
  129    0.001597378575
  130   -0.001056989991
  131   -0.000540388584
  132   -0.002080931464
  133   -0.004861316529
  134   -0.001640994318
  135   -0.042850716160
  136    0.013049976363
  137    0.029800739797
  138    0.027743925649
  139    0.073116289322
  140    0.051134720642
  141   -0.004331387379
  142   -0.002756092160
  143    0.000343767187
  144    0.000384746699
  145   -0.001430327401
  146   -0.000668179399
  147    0.005426419271
  148    0.005128013054
  149    0.000206967320
  150    0.003995730674
  151    0.002551246373
  152    0.039958446281
  153    0.047631345616
  154   -0.003061387154
  155   -0.003323869800
  156    0.000410071639
  157   -0.012296716041
  158    0.035895991836
  159    0.056306324248
  160   -0.000295886415
  161   -0.000922467071
  162    0.002696402460
  163   -0.004074275925
  164   -0.000508211681
  165   -0.022049207854
  166    0.001058818011
  167   -0.000622892259
  168    0.004254521357
  169   -0.003541734223
  170   -0.149288886799
  171    0.031726492135
  172   -0.000184713771
  173    0.014405539723
  174   -0.004713811235
  175   -0.003620810441
  176   -0.149886590356
  177    0.031820871346
  178   -0.002333765267
  179    0.012715177685
  180   -0.007871349254
  181    1.366948349143
  182   -1.361517968209
  183   -1.141557459340
  184   -0.003886295109
  185    0.023738270042
  186   -0.009806315769
  187    0.002268438470
  188    0.040471927751
  189    0.048628350673
  190   -0.000480650304
  191   -0.001304736470
  192    0.004367949150
  193   -0.003969501044
  194   -0.001026229961
  195   -0.023022961312
  196   -0.002631036740
  197   -0.003379206125
  198   -0.001187144242
 Sym=     1a
 Ene= 1.61741089209396E+00
Spin= Alpha
 Occup= 0
  1      0.000246525695
  2      0.010869059277
  3     -0.045584680797
  4     -0.272779250555
  5      0.204401116808
  6     -0.003427348112
  7      0.060167239789
  8      0.053151227649
  9     -0.005997983478
  10    -0.204539516993
  11    -0.427271717057
  12    -0.008018646531
  13    -0.408182720368
  14    -0.800169730690
  15     0.006428534402
  16    -0.005509306875
  17    -0.000919227527
  18     0.001663166892
  19    -0.000569026241
  20    -0.000438458131
  21    -0.064631697341
  22     0.043002800961
  23     0.021628896380
  24    -0.015576139903
  25     0.007638841958
  26    -0.002668838113
  27    -0.000521145570
  28     0.008004733482
  29    -0.002880466514
  30    -0.000713390862
  31     0.000941811256
  32    -0.001263930106
  33     0.001412581015
  34    -0.011681288180
  35     0.005128481465
  36    -0.002018720783
  37    -0.001364365043
  38     0.005680576996
  39    -0.076833736912
  40     0.349649129286
  41     0.075022957189
  42    -0.015572771734
  43    -0.013786873908
  44    -0.015210527365
  45     0.233581791081
  46     0.082875861883
  47     0.004949802660
  48     0.160790257783
  49     0.121008685257
  50     0.072879761855
  51    -0.004691456271
  52     0.000512791681
  53     0.004178664590
  54    -0.001597834488
  55    -0.000099233256
  56     0.002077894023
  57     0.087475991241
  58    -0.025809345322
  59    -0.061666645919
  60     0.024273484349
  61    -0.027534154398
  62    -0.035379984519
  63     0.006790229308
  64    -0.000847949927
  65     0.002323043499
  66    -0.004667877454
  67     0.001917476711
  68    -0.003937124934
  69    -0.004442171135
  70    -0.000779832503
  71     0.000820435027
  72    -0.001920325082
  73     1.367173684965
  74    -1.362604797299
  75    -1.140038002085
  76    -0.003545281381
  77     0.023529520686
  78    -0.010100826882
  79    -0.001378531537
  80     0.005688334550
  81    -0.077258042129
  82     0.351816278396
  83     0.075157894277
  84     0.016153773067
  85    -0.010021044271
  86    -0.017416293219
  87    -0.244341820714
  88     0.023914433773
  89     0.037998081382
  90    -0.174398586012
  91     0.080677771601
  92     0.097412160156
  93    -0.004967770115
  94     0.000964014412
  95     0.004003755703
  96     0.000292154394
  97     0.001071763687
  98     0.002066001666
  99     0.096152747473
  100   -0.030281805911
  101   -0.065870941562
  102    0.006053390031
  103    0.009541967574
  104   -0.028977123168
  105   -0.007480044135
  106    0.001830391633
  107    0.000703006829
  108    0.004420722016
  109   -0.002610697773
  110   -0.001599842805
  111    0.005614810280
  112    0.000154969702
  113    0.000656660170
  114    0.000859883897
  115    0.001431610662
  116    0.040098297569
  117   -0.138903322315
  118    0.113324828450
  119    0.383596815713
  120   -0.005049678051
  121    0.033294961914
  122   -0.013571073040
  123    0.014027919634
  124   -0.254152141618
  125   -0.247847281421
  126    0.078737832826
  127   -0.651979027873
  128   -0.006402531192
  129    0.002598260904
  130   -0.002766958130
  131    0.000168697226
  132    0.000855824121
  133   -0.000387972657
  134    0.001513243673
  135    0.082853386098
  136   -0.103518515759
  137    0.020665129661
  138    0.026451049715
  139   -0.004985503934
  140   -0.002410575550
  141    0.010359721238
  142    0.054634362165
  143    0.024700791095
  144   -0.021124736140
  145   -0.039350788475
  146   -0.005639067878
  147    0.007225711591
  148   -0.033948900150
  149   -0.027500520914
  150    0.003791291701
  151   -0.004008711690
  152   -0.001094602712
  153   -0.023072417424
  154    0.003866829332
  155   -0.002117760786
  156   -0.000594343327
  157   -0.012177074927
  158    0.037140651526
  159    0.056611117329
  160    0.001761642213
  161   -0.002048101549
  162   -0.000983322940
  163    0.002228774083
  164    0.040528798864
  165    0.048721758010
  166   -0.002185237815
  167   -0.003867804382
  168   -0.001129062066
  169   -0.004058656506
  170   -0.000683717309
  171   -0.022163155380
  172   -0.003213144780
  173   -0.003041355313
  174   -0.000018836507
  175    0.002526257508
  176    0.040210043301
  177    0.047721383975
  178    0.002892678807
  179   -0.003195250807
  180   -0.001456167521
  181   -0.012255299176
  182    0.035919720739
  183    0.056409082766
  184   -0.001311359737
  185   -0.002475052745
  186   -0.000663999409
  187   -0.003553277682
  188   -0.149352103489
  189    0.031551272432
  190   -0.004076945503
  191    0.013838028397
  192   -0.004596975427
  193   -0.003635436824
  194   -0.149956509992
  195    0.031773860079
  196    0.000080780608
  197    0.014307955621
  198   -0.004901185730
 Sym=     1a
 Ene= 2.02729823949032E+00
Spin= Alpha
 Occup= 0
  1      0.008691230749
  2     -0.017809520759
  3      0.168817181139
  4     -0.538356875623
  5     -0.070587982027
  6      0.017016617687
  7     -0.013110323792
  8     -0.023178340636
  9     -0.233671163745
  10     0.026025517316
  11     0.277184935817
  12    -0.107357039716
  13     0.092705273908
  14     0.212930184645
  15     0.001792248605
  16     0.000445252889
  17    -0.002237501494
  18     0.016477276617
  19     0.006249453861
  20     0.034243944123
  21    -0.009187244653
  22     0.014214840657
  23    -0.005027596004
  24    -0.110485846933
  25    -0.086713731378
  26    -0.299647102792
  27     0.008427285693
  28     0.001537125400
  29     0.007455687725
  30    -0.009047538972
  31    -0.005364015359
  32    -0.013055452948
  33    -0.002258851233
  34     0.003301745229
  35     0.003052598205
  36     0.017816719172
  37    -0.004732021269
  38    -0.000704488936
  39    -0.045386406006
  40     0.185749952922
  41     0.060828730219
  42    -0.001269992920
  43     0.033857355529
  44    -0.001926658954
  45    -0.282741786082
  46    -0.262025582688
  47    -0.023973871771
  48    -0.002719811678
  49    -0.087974260998
  50    -0.010991240296
  51     0.003155185677
  52     0.000329696617
  53    -0.003484882294
  54    -0.029599261675
  55     0.003435805131
  56    -0.021458381078
  57     0.006051739387
  58    -0.088106457876
  59     0.082054718489
  60     0.657090205971
  61     0.142026726051
  62     0.538926257690
  63    -0.024723017362
  64     0.179693663590
  65     0.004981192186
  66     0.042238454994
  67    -0.221235102093
  68    -0.047855817565
  69    -0.009069046536
  70    -0.019849246054
  71     0.041172846963
  72    -0.201721645544
  73    -0.016556071208
  74     0.046741574400
  75     0.034421219198
  76    -0.007258964651
  77    -0.001500500445
  78    -0.003507002055
  79     0.003263988197
  80    -0.010545972594
  81     0.022771853045
  82     0.234804959542
  83    -0.013584603684
  84    -0.017577507251
  85     0.001630922854
  86     0.012981191585
  87    -0.138839254386
  88    -0.020750778623
  89    -0.119649144853
  90     0.067193459628
  91    -0.019748778217
  92    -0.067798263835
  93     0.006737252033
  94    -0.002389055420
  95    -0.004348196613
  96     0.000390030428
  97    -0.002910065278
  98     0.000955858530
  99     0.011434000589
  100   -0.028322189787
  101    0.016888189198
  102   -0.014286932690
  103    0.086484241929
  104   -0.002102109597
  105   -0.004599206310
  106   -0.000920598911
  107    0.004942052887
  108    0.011163470277
  109    0.011893336508
  110   -0.008223861956
  111   -0.004992987506
  112   -0.010658223462
  113    0.001593402234
  114    0.001675128608
  115    0.003881709804
  116   -0.012593691250
  117    0.016949755213
  118    0.361419942168
  119    0.009981269764
  120   -0.019116079752
  121    0.007195753018
  122    0.015885504610
  123    0.015462310924
  124    0.047871567544
  125    0.301361617925
  126    0.074259847088
  127    0.063291792696
  128    0.004101168399
  129   -0.001115772133
  130   -0.002070183703
  131    0.003185955836
  132   -0.000770149177
  133   -0.006786746667
  134    0.002214261383
  135   -0.062555009921
  136   -0.034913063599
  137    0.097468073520
  138   -0.006319132859
  139    0.054752179622
  140    0.038204188677
  141    0.002406069086
  142   -0.001698896921
  143    0.007838037516
  144    0.002119985481
  145    0.000853826469
  146    0.001685419579
  147   -0.005348065902
  148    0.001425482932
  149   -0.012201250396
  150    0.006766360336
  151    0.009828026187
  152    0.020632732434
  153   -0.019033311404
  154    0.001469842710
  155    0.001108527568
  156    0.001597195797
  157    0.000827426858
  158   -0.028715380987
  159    0.015982937452
  160    0.002244241799
  161   -0.004877473038
  162    0.001730933870
  163    0.006945307925
  164   -0.000513310746
  165   -0.030653649342
  166    0.004946765610
  167   -0.000748294170
  168    0.004389164311
  169   -0.097557187752
  170   -0.196375541630
  171    0.051842771086
  172   -0.080718689599
  173    0.044058134375
  174    0.021690898158
  175   -0.004126309609
  176   -0.307192929763
  177    0.020662247808
  178   -0.051182403564
  179    1.422222115353
  180   -0.026911163970
  181    0.108582346802
  182   -0.078593337196
  183   -0.066852584071
  184    0.110259003931
  185    0.021245596194
  186    0.042083960214
  187   -0.002643751624
  188    0.034803754193
  189    0.045196708605
  190    0.000599487006
  191   -0.003137773963
  192    0.011837110637
  193    0.008720135175
  194    0.069212420538
  195   -0.036508105683
  196   -0.012522291306
  197   -0.004592140525
  198    0.007661995481
 Sym=     1a
 Ene= 2.02887534526134E+00
Spin= Alpha
 Occup= 0
  1      0.000519372741
  2      0.000644243781
  3     -0.000552197130
  4      0.063087360126
  5     -0.033348734991
  6     -0.009067577818
  7     -0.006738862362
  8     -0.004194107886
  9     -0.084667148024
  10     0.021196327042
  11     0.072519190113
  12    -0.117425239097
  13     0.023329743479
  14     0.097488293484
  15    -0.010510207479
  16     0.011789047878
  17    -0.001278840399
  18     0.033086818882
  19    -0.006229127735
  20    -0.002817613914
  21     0.099222315018
  22    -0.089770742714
  23    -0.009451572304
  24    -0.246357312641
  25     0.015602773424
  26     0.011745189312
  27    -0.017823750748
  28     0.008134866917
  29     0.002551324772
  30     0.028573052330
  31    -0.012853000572
  32    -0.002467729944
  33    -0.004659981359
  34     0.001938931323
  35    -0.000955231430
  36     0.008120949788
  37     0.002402488132
  38    -0.006242161391
  39     0.068921740318
  40    -0.288468288425
  41    -0.153475687143
  42     0.003446571158
  43    -0.001588698861
  44    -0.010237630840
  45    -0.062533293387
  46    -0.080538671508
  47     0.072558850788
  48    -0.038248905817
  49     0.111215595027
  50     0.099172987603
  51    -0.001633352017
  52     0.002995693356
  53    -0.001362341339
  54     0.000505619786
  55     0.000343727631
  56     0.000411649379
  57     0.013048385010
  58     0.011579022154
  59    -0.024627407164
  60    -0.046475460080
  61     0.031150390695
  62     0.008131728304
  63    -0.000679833112
  64     0.009399465354
  65     0.005232491069
  66     0.009480630096
  67    -0.002876351932
  68     0.007923946016
  69    -0.008568538264
  70    -0.009734354158
  71    -0.014944069449
  72     0.010322800845
  73    -0.033385928600
  74    -0.658769795915
  75     0.043430241944
  76     1.423152989452
  77    -0.134142411078
  78     0.018109894360
  79    -0.002678246455
  80     0.007140775755
  81    -0.054990234996
  82     0.149674336162
  83     0.128234256064
  84     0.002748381934
  85     0.001638683886
  86     0.016113533151
  87    -0.026127496802
  88     0.095105053567
  89    -0.049394269667
  90     0.002729805887
  91    -0.101937361682
  92    -0.103062175065
  93     0.002444329495
  94    -0.000728161624
  95    -0.001716167871
  96     0.002055504085
  97    -0.001655162747
  98    -0.000963660175
  99    -0.008780606579
  100   -0.033427457012
  101    0.042208063591
  102   -0.054462767906
  103    0.032203980611
  104    0.009029235941
  105   -0.000319246213
  106   -0.003100396123
  107   -0.002082239033
  108    0.011809293410
  109    0.000390183824
  110   -0.013095551553
  111   -0.011380979670
  112    0.003769434069
  113    0.015889168367
  114    0.004801933010
  115   -0.005108568288
  116   -0.013675540428
  117   -0.047067421043
  118    0.529188952988
  119    0.066284010128
  120    0.071502489650
  121   -0.012234775736
  122    0.000493069802
  123   -0.443648119105
  124   -0.500901502390
  125    0.128992056652
  126   -0.178967918982
  127   -0.040071619814
  128    0.049844046937
  129    0.003077544139
  130    0.005102765468
  131   -0.008180309607
  132   -0.035441693105
  133    0.008592175635
  134   -0.000399929343
  135   -0.315109809701
  136    0.404499989154
  137   -0.089390179453
  138    0.646312531534
  139   -0.149701366257
  140   -0.123605789846
  141    0.163461546059
  142   -0.155502431248
  143   -0.022859244248
  144   -0.273461161783
  145    0.156623526714
  146   -0.021072874504
  147    0.054154484566
  148    0.052004877448
  149    0.051741768936
  150    0.031872603349
  151   -0.008411700066
  152   -0.063661026375
  153    0.086186774038
  154    0.001580485218
  155    0.012119512091
  156    0.014891450264
  157    0.012385312175
  158   -0.050193007970
  159   -0.031251101828
  160   -0.004132880729
  161   -0.004165799826
  162    0.007819354346
  163    0.008077068061
  164   -0.062804512868
  165   -0.005299925451
  166    0.012513920325
  167    0.011063706584
  168    0.000405618419
  169    0.009354278014
  170    0.057289109444
  171   -0.102026033559
  172    0.001839156545
  173   -0.011171134217
  174   -0.016601751283
  175   -0.012134804176
  176    0.076299756075
  177   -0.002341302696
  178    0.015741141040
  179   -0.008208226886
  180   -0.000756877908
  181   -0.011638222215
  182    0.073296954553
  183    0.022129684982
  184   -0.004074951071
  185    0.005517880935
  186   -0.012848449543
  187    0.101303558817
  188   -0.132283359062
  189   -0.050295894715
  190   -0.002260797077
  191    0.128502374300
  192   -0.006846225302
  193   -0.089115204387
  194    0.163928579581
  195    0.042369170275
  196    0.042648627031
  197   -0.110406556607
  198   -0.000792571487
 Sym=     1a
 Ene= 2.04730638720461E+00
Spin= Alpha
 Occup= 0
  1     -0.004137858070
  2      0.012933389339
  3     -0.096866051105
  4      0.204468016262
  5      0.062696827225
  6     -0.001499044426
  7      0.009259087329
  8      0.054236467011
  9      0.003617355988
  10    -0.142191548990
  11    -0.454430261075
  12    -0.031038364769
  13    -0.047647925788
  14    -0.293290587337
  15     0.014393404794
  16    -0.001534058636
  17    -0.012859346158
  18     0.008512690435
  19    -0.053401570886
  20    -0.001008601810
  21    -0.137646689576
  22     0.031442759968
  23     0.106203929608
  24    -0.042913327281
  25     0.474111597087
  26     0.049246541088
  27     0.015554933486
  28     0.005444870445
  29     0.010316255791
  30     0.007894007897
  31    -0.001486308365
  32    -0.022265247813
  33    -0.028763141093
  34    -0.005818751902
  35     0.008424538280
  36     0.003568813418
  37     0.006367629151
  38    -0.014857213421
  39     0.041405538227
  40     0.336563494917
  41    -0.008660663594
  42     0.010955352718
  43    -0.002523446180
  44    -0.025882105016
  45     0.310150692354
  46    -0.031074926794
  47    -0.032045280856
  48     0.062772239282
  49     0.028382663227
  50     0.066824761750
  51     0.000619507492
  52    -0.002768362680
  53     0.002148855188
  54    -0.000393268805
  55    -0.005990884686
  56     0.000076171727
  57     0.093941915200
  58    -0.013224081925
  59    -0.080717833275
  60    -0.018614829632
  61    -0.058305892585
  62     0.014557619281
  63     0.004748304000
  64     0.002128038385
  65     0.011830222969
  66     0.003113982275
  67    -0.001015134712
  68    -0.010504959254
  69    -0.009484500587
  70    -0.001839928380
  71    -0.005366950395
  72     0.002247748575
  73     0.110412217782
  74    -0.208711965880
  75    -0.082346289042
  76     0.113652431754
  77     0.004203773512
  78     0.048076116161
  79     0.000002894518
  80    -0.002711951231
  81     0.013069218933
  82    -0.045399600718
  83    -0.057579455473
  84     0.006588030619
  85    -0.008555580919
  86    -0.015188143877
  87     0.032891684283
  88     0.050172849892
  89    -0.031704802323
  90    -0.021930973250
  91     0.076101546650
  92     0.120985711381
  93    -0.002763099507
  94    -0.002188105019
  95     0.004951204526
  96     0.003964313601
  97     0.001373264928
  98     0.002951285942
  99     0.000679159662
  100   -0.007076103890
  101    0.006396944228
  102   -0.051694137050
  103    0.031458298294
  104   -0.025311398114
  105   -0.003419998911
  106    0.002344685805
  107    0.001795619236
  108    0.015903992610
  109   -0.000303766537
  110   -0.005161678088
  111   -0.011315582581
  112   -0.002841959571
  113    0.002752602084
  114    0.002797652802
  115   -0.003813624493
  116   -0.010535071473
  117    0.031276051682
  118   -0.074809503301
  119   -0.025593343288
  120   -0.050652365543
  121    0.055483898744
  122   -0.000462889628
  123    0.022576004186
  124   -0.559910326112
  125   -0.485093975268
  126    0.201586621165
  127   -0.149746821183
  128    0.016391942501
  129    0.003276524954
  130    0.000652872846
  131   -0.003929397800
  132   -0.037062380172
  133   -0.003701161400
  134   -0.013957071094
  135    0.256668999565
  136   -0.162793579216
  137   -0.093875420349
  138    0.790019302575
  139    0.254474470204
  140    0.190244939597
  141   -0.062584658695
  142    0.174925852958
  143    0.047749680207
  144    0.074702325549
  145   -0.228827559888
  146   -0.094439177770
  147    0.009263805166
  148   -0.005860099053
  149    0.030376259262
  150   -0.160736174391
  151    0.003525156119
  152    0.021663628816
  153   -0.056180094706
  154   -0.001865316442
  155   -0.007005642910
  156   -0.001013468547
  157   -0.009586244022
  158    0.022479072301
  159    0.037843888439
  160   -0.006838352132
  161   -0.004977801033
  162   -0.000411853144
  163    0.004361257548
  164    0.042767101343
  165    0.001549167478
  166    0.003729242322
  167   -0.000663589690
  168    0.002593323843
  169   -0.000608851138
  170   -0.006175431427
  171   -0.010154791160
  172   -0.004504463514
  173   -0.000996545486
  174    0.003251250831
  175   -0.008790138441
  176    0.103152905499
  177    0.016893868906
  178    0.016298118919
  179   -0.003138079243
  180   -0.004280673614
  181   -0.008223596858
  182    0.022980499599
  183    0.011417660669
  184   -0.005807094487
  185    0.001539817384
  186    0.000681276247
  187   -0.019626031335
  188   -0.340535586682
  189    0.131505858993
  190   -0.072270156565
  191    1.439542479509
  192   -0.008261939093
  193   -0.038309589700
  194   -0.201095630268
  195   -0.025421825878
  196    0.006537491785
  197   -0.029443825394
  198   -0.083677600776
 Sym=     1a
 Ene= 2.08017297426802E+00
Spin= Alpha
 Occup= 0
  1      0.014817666978
  2     -0.030806274171
  3      0.282680049519
  4     -0.746578037777
  5     -0.177596021895
  6     -0.000787641281
  7     -0.008473549873
  8     -0.027856956150
  9      0.171678643296
  10     0.032805911521
  11     0.275923927652
  12    -0.080933081652
  13     0.062332158414
  14     0.262716266587
  15     0.021012681371
  16    -0.013801114267
  17    -0.007211567104
  18     0.000328645243
  19    -0.031844592644
  20     0.023311405384
  21    -0.171703544395
  22     0.135840743639
  23     0.035862800756
  24    -0.032766965261
  25     0.268972679680
  26    -0.202020221883
  27    -0.018249401776
  28     0.017777963446
  29     0.006183179452
  30     0.011917403851
  31    -0.035838230737
  32    -0.001113873986
  33     0.012566737901
  34     0.011986589877
  35    -0.007181731757
  36    -0.020067074408
  37     0.006627714873
  38    -0.018670595088
  39     0.069263142591
  40     0.236213041764
  41    -0.057727940435
  42     0.027093762982
  43     0.008645399971
  44     0.005123674906
  45     0.158693604422
  46    -0.042037073109
  47    -0.170443827830
  48    -0.079455102361
  49    -0.022122839197
  50    -0.040724548662
  51     0.009033760913
  52    -0.003760085403
  53    -0.005273675510
  54     0.002092505120
  55     0.000552891982
  56     0.000158798228
  57    -0.036918943937
  58    -0.011428303435
  59     0.048347247372
  60    -0.006338727104
  61    -0.109766076695
  62    -0.008291986300
  63    -0.008731960849
  64    -0.002473074814
  65     0.000029223764
  66    -0.000571064261
  67     0.009160930146
  68     0.000205866710
  69     0.012286219082
  70    -0.005842952108
  71    -0.000245074504
  72    -0.006320776648
  73    -0.019165675816
  74     0.068908885031
  75     0.042803931884
  76     0.009785423292
  77     0.002909963055
  78    -0.001358326012
  79    -0.011119104168
  80    -0.024342308154
  81    -0.109190752738
  82     1.061799816582
  83     0.160254140817
  84     0.022093694243
  85     0.038934632164
  86    -0.006309867387
  87     0.746433728144
  88    -0.009841115167
  89    -0.783035615587
  90     0.017078122913
  91    -0.088477892094
  92    -0.165637285262
  93     0.003334237953
  94     0.007350770133
  95    -0.010685008086
  96     0.030703988562
  97    -0.016520228655
  98    -0.029930109123
  99     0.161003771547
  100   -0.575069316806
  101    0.414065545259
  102   -0.360217979962
  103   -0.542499232716
  104    0.441237303369
  105    0.048731998287
  106    0.076930078650
  107   -0.007656914718
  108   -0.194260693574
  109   -0.078542755928
  110   -0.176292405536
  111    0.128879857065
  112   -0.024669775297
  113    0.186565234621
  114    0.113607789629
  115    0.002749321841
  116   -0.011383145334
  117    0.011106788838
  118    0.329823270325
  119    0.012394557649
  120    0.019327999586
  121    0.005840585063
  122    0.013162374292
  123    0.061624309171
  124    0.080209379228
  125    0.268980727690
  126   -0.066612175081
  127    0.072601332589
  128   -0.007685740499
  129    0.001634555396
  130   -0.002662880888
  131    0.001028325492
  132    0.001580040394
  133    0.008448211263
  134    0.003271634389
  135   -0.078090054586
  136   -0.007198016058
  137    0.085288070644
  138    0.025625353930
  139   -0.033359645610
  140    0.043215140533
  141   -0.004471576453
  142   -0.002875843509
  143   -0.001485559095
  144    0.000493059583
  145   -0.003432795024
  146    0.012305856311
  147    0.005506189766
  148    0.007291143971
  149   -0.010312769639
  150    0.004087240081
  151   -0.103801827397
  152   -0.121253039568
  153    0.066342498335
  154    0.061367187544
  155    0.079052175865
  156    0.002200395516
  157    0.108072835028
  158    0.002719091942
  159   -0.072299538829
  160   -0.104735297623
  161   -0.015662539257
  162    0.048885026391
  163   -0.044736593454
  164   -1.421584741934
  165    0.110797410990
  166    0.209199340342
  167    1.491782832537
  168   -0.163931119265
  169    0.010387261272
  170    0.021325411650
  171   -0.020510607986
  172    0.005981947812
  173   -0.001064683355
  174   -0.000381077498
  175    0.010434592051
  176    0.025909691851
  177   -0.046744670262
  178   -0.001622415402
  179   -0.000748386595
  180    0.010670291481
  181    0.002184595409
  182   -0.047828300769
  183    0.017694600344
  184   -0.001334365551
  185   -0.003188330479
  186    0.006658619613
  187    0.012128285227
  188    0.096775085861
  189   -0.046119089020
  190    0.019261080737
  191   -0.000663607090
  192    0.009146336089
  193   -0.001290751519
  194    0.018659552211
  195    0.036128011499
  196    0.000539843851
  197   -0.007371348633
  198    0.010116274623
 Sym=     1a
 Ene= 2.08623818284233E+00
Spin= Alpha
 Occup= 0
  1     -0.022280905029
  2      0.032740729111
  3     -0.371572590868
  4      1.704958839369
  5     -0.100390649651
  6      0.020079988520
  7      0.003607203041
  8     -0.021568233340
  9     -0.598663848535
  10    -0.322149323376
  11     0.507496153537
  12    -0.098759537938
  13    -0.049212799558
  14     0.007786140343
  15    -0.002675001663
  16     0.028051344093
  17    -0.025376342430
  18    -0.025627079823
  19     0.026901758457
  20     0.029677857182
  21     0.084287060437
  22    -0.303736308081
  23     0.219449247644
  24     0.274209305028
  25    -0.410746700105
  26    -0.291413037085
  27     0.043930402822
  28     0.056662609365
  29    -0.026557319959
  30    -0.012657354481
  31    -0.015591360621
  32     0.035589930484
  33    -0.046281465712
  34    -0.060429507172
  35     0.000040453154
  36     0.073694057599
  37     0.007802912666
  38    -0.012611266658
  39     0.261825550843
  40    -1.294340692436
  41    -0.320188061915
  42     0.121832992150
  43    -0.059466930870
  44    -0.003738224712
  45    -1.315385814534
  46     0.733882789740
  47     0.154286969513
  48    -0.368516622939
  49     0.307893921562
  50    -0.039391649884
  51     0.007561569828
  52     0.001973220401
  53    -0.009534790229
  54    -0.049598251802
  55     0.015037081631
  56     0.006537061572
  57    -0.155281822470
  58    -0.074622749540
  59     0.229904572010
  60     0.986353251693
  61    -0.033621320255
  62     0.117790360473
  63     0.157294970070
  64     0.007627934290
  65    -0.001523174613
  66    -0.253484041964
  67    -0.012747311927
  68     0.054502565230
  69     0.042450694606
  70     0.002513364166
  71    -0.052459012044
  72     0.147498792172
  73    -0.010683727346
  74    -0.075787903378
  75     0.013789524729
  76    -0.004074161683
  77    -0.016960667305
  78    -0.012700149564
  79    -0.001033989038
  80     0.009532119116
  81    -0.049492900519
  82     0.114817580417
  83     0.141756747825
  84     0.014618876702
  85     0.009123431183
  86    -0.013366527809
  87     0.015822035039
  88    -0.003410336987
  89     0.124778805872
  90    -0.174073331012
  91    -0.080446713520
  92     0.153651969100
  93    -0.001053109840
  94    -0.003690968781
  95     0.004744078621
  96    -0.003331720831
  97     0.000891664986
  98    -0.000876715469
  99    -0.009219526459
  100    0.077582106869
  101   -0.068362580410
  102   -0.030690889639
  103   -0.039986610901
  104    0.004790569915
  105   -0.005585041080
  106   -0.014942077236
  107    0.009815840166
  108   -0.001943883414
  109    0.016864326970
  110   -0.011751368301
  111    0.009437002321
  112    0.003182573285
  113   -0.001417963219
  114   -0.005878710637
  115    0.001609162645
  116    0.002551519461
  117    0.015518762807
  118   -0.116227892743
  119   -0.004753886094
  120    0.003472660319
  121    0.014061656736
  122   -0.006770643096
  123   -0.077941856615
  124   -0.200440372276
  125   -0.039618884588
  126   -0.072313792496
  127   -0.038703976217
  128    0.047925135519
  129    0.001880076868
  130    0.004018410629
  131   -0.005898487497
  132    0.003282048718
  133   -0.002148075334
  134    0.002153365472
  135    0.001398847609
  136   -0.022690480267
  137    0.021291632658
  138   -0.078409720833
  139    0.032871982168
  140   -0.109241629526
  141   -0.003333962712
  142    0.005956042109
  143    0.005033961570
  144   -0.001656578936
  145    0.003732999982
  146   -0.000525501395
  147    0.006129559292
  148   -0.011723869002
  149   -0.006228266765
  150   -0.007010131431
  151    0.008870686827
  152   -0.135628257259
  153    0.007806667258
  154    0.008246550786
  155    0.013295995322
  156    0.017124269942
  157    0.001788827252
  158   -0.138376284897
  159   -0.014008829464
  160    0.020674529142
  161   -0.012381226729
  162    0.011437886058
  163   -0.004009903904
  164    0.023474891506
  165    0.157654466598
  166   -0.004397467584
  167   -0.001508383300
  168   -0.014242421405
  169   -0.022068801066
  170   -0.159607292013
  171   -0.035864931400
  172   -0.047192528237
  173    0.017674264566
  174    0.030014348520
  175    0.076166802676
  176   -0.311194319988
  177   -0.084104965803
  178   -0.020604104259
  179    0.124653534462
  180   -0.029965766201
  181    0.010570297170
  182    0.637696714038
  183    0.087204768254
  184    1.470214034905
  185    0.075474248540
  186   -0.082553676976
  187   -0.001445508610
  188   -0.063642217909
  189    0.007639930584
  190   -0.009677324236
  191   -0.006564583450
  192   -0.000258269771
  193    0.005235047296
  194    0.087098089286
  195    0.060532786905
  196   -0.005567552248
  197    0.007369145922
  198    0.020410913989
 Sym=     1a
 Ene= 2.09477752917883E+00
Spin= Alpha
 Occup= 0
  1     -0.003880655616
  2      0.013850521813
  3     -0.103896443736
  4      0.330058463528
  5      0.019732318159
  6      0.011839155527
  7      0.014922545190
  8      0.049138248066
  9     -0.045248401250
  10    -0.147231358465
  11    -0.423041264444
  12    -0.046173031352
  13    -0.024356174014
  14    -0.168562782676
  15     0.026453846536
  16    -0.001852641048
  17    -0.024601205488
  18     0.006594728333
  19     0.039302881872
  20     0.008847628786
  21    -0.212286420681
  22     0.014846440539
  23     0.197439980142
  24    -0.079506676608
  25    -0.379424155100
  26    -0.058869300720
  27    -0.017640570103
  28    -0.001644200128
  29     0.006228448996
  30    -0.009720248740
  31    -0.008949986565
  32    -0.010008923642
  33     0.033387557087
  34     0.011155912518
  35     0.001652582432
  36    -0.011892316439
  37     0.001689783537
  38    -0.006830396501
  39     0.052040038046
  40    -0.166336390614
  41    -0.116102282030
  42    -0.001294843698
  43    -0.008984120151
  44    -0.018744213432
  45    -0.081449948613
  46     0.011175952162
  47     0.007322389967
  48    -0.008588488661
  49     0.097286024919
  50     0.124402684657
  51    -0.001496869084
  52    -0.003771707225
  53     0.005268576309
  54    -0.003459352351
  55    -0.002081302879
  56     0.004619160518
  57    -0.020034759848
  58     0.021945330214
  59    -0.001910570366
  60     0.031645991571
  61    -0.001933942463
  62    -0.051672493942
  63     0.001542999939
  64    -0.005025626184
  65     0.000641563088
  66    -0.010510077413
  67     0.005944883255
  68     0.000061964567
  69     0.008439925761
  70     0.000797701812
  71    -0.000922711773
  72    -0.003463859373
  73     0.110257032613
  74    -0.185933466132
  75    -0.092798156430
  76    -0.097657490531
  77    -0.034369615055
  78     0.064835573478
  79     0.006324440800
  80    -0.014534558399
  81     0.046706740859
  82     0.287930859953
  83    -0.015432862022
  84    -0.014227885445
  85    -0.008525244902
  86    -0.020807253928
  87    -0.278418403465
  88    -0.063591552756
  89     0.009351216110
  90    -0.033953634469
  91     0.020523855994
  92     0.062486140739
  93     0.001824980579
  94    -0.002270098313
  95     0.000445117734
  96     0.001576004235
  97     0.005814316219
  98     0.001716551726
  99     0.082393228342
  100   -0.006828230217
  101   -0.075564998125
  102    0.027027595677
  103    0.031654570460
  104    0.016817091697
  105   -0.005852627853
  106   -0.001150055388
  107    0.008491308095
  108   -0.000869835825
  109    0.000643893842
  110   -0.006826932443
  111    0.008721960061
  112    0.000899067374
  113   -0.004565352828
  114    0.001160324799
  115   -0.009401072531
  116   -0.036898694966
  117    0.002989230045
  118    0.644495487158
  119    0.032576635205
  120    0.071912128526
  121    0.077474133590
  122   -0.027312681518
  123    0.586348293628
  124   -0.339924982712
  125   -0.922988089650
  126   -0.134452170429
  127   -0.161681080630
  128    0.074703763918
  129    0.001455123625
  130    0.006241769997
  131   -0.007696893622
  132    0.037629469033
  133   -0.006059347295
  134   -0.022971842407
  135    0.527626721672
  136   -0.571675853096
  137    0.044049131424
  138   -0.394101410354
  139   -0.718846997185
  140    0.069975986059
  141    0.080578079671
  142    0.055827431655
  143    0.071248352692
  144   -0.219715510453
  145   -0.063923407666
  146   -0.232432409963
  147    0.111608672269
  148   -0.010976951649
  149    0.136842714021
  150    0.059750356985
  151   -0.001501881234
  152   -0.012569074356
  153   -0.008302121861
  154    0.005429374535
  155    0.001369319769
  156    0.003653282459
  157   -0.006744812776
  158    0.035309846053
  159    0.008807610809
  160    0.002578470920
  161    0.003320669256
  162   -0.002707323963
  163   -0.010650717557
  164    0.116583916699
  165   -0.006588090648
  166   -0.016683515406
  167   -0.007371887171
  168    0.001347036701
  169    0.005157659988
  170    0.054002096674
  171   -0.077659912394
  172    0.003430745771
  173   -0.010938248506
  174   -0.006013629643
  175    0.003029470415
  176    0.049763639508
  177    0.007090392770
  178    0.001799737862
  179   -0.004593043254
  180    0.000114315916
  181   -0.012123961763
  182    0.023106387535
  183    0.046402067017
  184    0.006519465477
  185   -0.003797832217
  186   -0.004444902465
  187   -0.019102236622
  188   -0.131655376269
  189   -0.044503355955
  190   -0.018389763846
  191   -0.029446748574
  192   -0.079284937079
  193   -0.064252111759
  194   -1.401302161072
  195    0.264351089619
  196    0.220962699791
  197    1.513250934361
  198   -0.141881984536
 Sym=     1a
 Ene= 2.09836647245998E+00
Spin= Alpha
 Occup= 0
  1     -0.022594207764
  2      0.035605243736
  3     -0.392510795526
  4      1.903330323254
  5     -0.162176371275
  6      0.000355872584
  7      0.010290952243
  8      0.015113741955
  9      0.054533750597
  10    -0.635312873137
  11    -0.445461397171
  12     0.016490699320
  13    -0.000461974733
  14     0.084846815309
  15     0.011002367526
  16    -0.018708507428
  17     0.007706139902
  18    -0.001803570560
  19     0.006121940008
  20    -0.048805028184
  21    -0.177324773194
  22     0.206486582182
  23    -0.029161808988
  24     0.006783335006
  25    -0.059926508645
  26     0.584657001952
  27    -0.005008019016
  28    -0.037802275981
  29     0.046363374945
  30     0.008825082439
  31     0.052602390590
  32     0.048412434310
  33    -0.002106119868
  34    -0.001885315311
  35    -0.110615429136
  36     0.017551486205
  37    -0.000133732545
  38     0.007664967880
  39    -0.010978196945
  40    -0.101971714364
  41     0.061003436602
  42     0.001073010057
  43     0.017458349203
  44     0.012648578698
  45    -0.171305777885
  46    -0.111910105194
  47     0.026645705224
  48    -0.021825434707
  49    -0.134250174230
  50    -0.127357742027
  51     0.000059079005
  52     0.002256177369
  53    -0.002315256374
  54     0.006299282522
  55     0.001840806370
  56    -0.000318519798
  57    -0.061488080691
  58     0.019617905430
  59     0.041870175261
  60    -0.087534790360
  61     0.059890856627
  62    -0.032570455421
  63    -0.006059438894
  64     0.002619211748
  65    -0.008722585515
  66     0.005004059211
  67    -0.012892523538
  68     0.003690070755
  69     0.003125531152
  70     0.009378482228
  71     0.008012505736
  72    -0.006570697836
  73    -0.045480535313
  74    -0.446141731755
  75     0.165346442418
  76     0.018109894360
  77    -0.102423366008
  78     1.488281038107
  79     0.000240538966
  80     0.006636670161
  81    -0.000987530789
  82    -0.139178281705
  83     0.039546803165
  84    -0.004079215831
  85     0.016406362966
  86     0.011018003746
  87     0.206697730952
  88    -0.076181361929
  89     0.008925467791
  90     0.038597646659
  91    -0.111323122648
  92    -0.117669954618
  93     0.001982534772
  94    -0.000286275172
  95    -0.001696259600
  96    -0.006530323268
  97    -0.002268363719
  98     0.000239112892
  99    -0.102647005478
  100    0.054393085247
  101    0.048253920231
  102    0.053144743275
  103   -0.032542782266
  104   -0.055717170039
  105    0.011394451072
  106   -0.001126729464
  107   -0.006756313113
  108   -0.009842014855
  109   -0.004204210027
  110   -0.000590524352
  111   -0.005445245443
  112    0.005715876231
  113    0.009655069591
  114    0.006205174505
  115   -0.000477839948
  116   -0.036405905491
  117    0.194971443522
  118   -0.461621567292
  119   -0.223608040848
  120    0.012224671818
  121   -0.057801107904
  122    0.144571583601
  123   -0.002008812142
  124   -0.488421313640
  125   -1.384757679148
  126   -0.035115664857
  127    0.176451135438
  128   -0.387263430831
  129   -0.015937990573
  130   -0.003226661784
  131    0.019164652357
  132   -0.002742243032
  133    0.007962696914
  134   -0.047051632634
  135    0.239581612824
  136    0.641926252410
  137   -0.881507865234
  138   -0.067489429869
  139   -0.149237322970
  140    0.582101024586
  141   -0.004498672316
  142   -0.192667143568
  143    0.051612438635
  144    0.049349138527
  145    0.027101023268
  146    0.105244616854
  147   -0.043313536263
  148    0.231389074761
  149   -0.174489969617
  150    0.053311359038
  151    0.002070616132
  152    0.056817988775
  153    0.094702540077
  154   -0.015606848141
  155   -0.002498056064
  156   -0.008125023062
  157   -0.004661653955
  158   -0.088016238792
  159   -0.006271835884
  160    0.016684517393
  161   -0.005986063733
  162    0.007424262490
  163   -0.000370069381
  164   -0.088901039608
  165    0.001650122838
  166    0.014167077745
  167   -0.001535766005
  168   -0.004845438152
  169    0.000671762772
  170    0.047123769806
  171    0.107802975927
  172    0.014149091029
  173    0.002980785052
  174   -0.007812603717
  175    0.001035754797
  176   -0.098526765820
  177    0.002621087418
  178   -0.016113961674
  179   -0.003965616302
  180   -0.002501532119
  181   -0.003031704197
  182   -0.096212899791
  183   -0.009984558337
  184   -0.012702610280
  185   -0.010248206631
  186    0.011098581806
  187    0.031974403349
  188   -0.210468910312
  189   -0.066196226679
  190   -0.020385770754
  191    0.054357790490
  192   -0.064939975579
  193    0.045381091796
  194   -0.232013467238
  195   -0.073300725553
  196   -0.007262230423
  197    0.073299778383
  198   -0.066583092135
 Sym=     1a
 Ene= 2.11964456700430E+00
Spin= Alpha
 Occup= 0
  1     -0.024043674521
  2      0.056786561494
  3     -0.494035210255
  4      1.377554305876
  5      0.253470794936
  6      0.025515718805
  7     -0.022345390895
  8     -0.033006199995
  9     -0.083232388921
  10     0.237277188333
  11     0.152553600807
  12     0.045765254690
  13     0.223849811365
  14     0.265610882458
  15     0.038005915335
  16     0.014761034915
  17    -0.052766950250
  18     0.039135914415
  19     0.026382317363
  20    -0.050191031505
  21    -0.338490023368
  22    -0.136884377840
  23     0.475374401208
  24    -0.314984706582
  25    -0.245512150171
  26     0.473651276871
  27     0.012956621997
  28    -0.030237163868
  29    -0.013462191691
  30     0.000344515042
  31    -0.004188400088
  32     0.018275825628
  33    -0.017727647567
  34     0.044755812402
  35    -0.000214400179
  36    -0.049323234244
  37     0.003366786775
  38    -0.012485969210
  39     0.146468529822
  40    -0.610948360400
  41    -0.170777508838
  42     0.078499284122
  43     0.067564810228
  44     0.032168772873
  45    -0.877886180940
  46    -0.420404527745
  47     0.020884664951
  48    -0.267911875981
  49    -0.296984710370
  50    -0.199780483495
  51     0.014777043543
  52    -0.002996027919
  53    -0.011781015624
  54     0.040381677829
  55     0.031271807043
  56    -0.003005105180
  57    -0.431883147945
  58     0.194072280415
  59     0.237810867530
  60    -0.817470731813
  61    -0.571881503412
  62     0.038065442221
  63     0.144834410987
  64     0.034501365443
  65    -0.018542289000
  66    -0.145009110873
  67    -0.069355499102
  68     0.003470441018
  69    -0.049306642196
  70     0.023067060033
  71     0.021406650180
  72    -0.214475854724
  73    -0.017420084847
  74     0.091918668857
  75     0.031887804038
  76     0.001625787040
  77     0.009913866953
  78     0.012507586087
  79     0.003749872380
  80    -0.001923416304
  81     0.039809765453
  82    -0.099273176822
  83    -0.033781581485
  84    -0.002516473923
  85    -0.000270074536
  86    -0.013352917462
  87     0.159240630708
  88    -0.011508687519
  89    -0.159888161435
  90     0.044360997882
  91    -0.089913124061
  92     0.040932489386
  93    -0.003294045152
  94     0.002623204080
  95     0.000670841072
  96    -0.001414360617
  97     0.008765256233
  98     0.002904326279
  99    -0.042698014179
  100   -0.031329761597
  101    0.074027775776
  102    0.038139385629
  103   -0.022416169618
  104   -0.056992091492
  105    0.017799721510
  106   -0.012553669767
  107    0.008175506385
  108   -0.009412078643
  109    0.001773403444
  110   -0.018149250671
  111   -0.014468753723
  112    0.015069111936
  113    0.007180657855
  114   -0.001213787052
  115   -0.006624276317
  116    0.016322945761
  117   -0.028013403073
  118   -0.511265747182
  119   -0.063546038796
  120    0.006331467903
  121   -0.008222667309
  122   -0.012206715013
  123   -0.131395071058
  124   -0.151997153680
  125   -0.351807939702
  126    0.040417117832
  127    0.030938190771
  128   -0.054935264726
  129    0.002695378040
  130   -0.001467341242
  131   -0.001228036798
  132    0.000366078562
  133    0.003475498883
  134   -0.002128827107
  135    0.055484008817
  136    0.024300226865
  137   -0.079784235682
  138   -0.030458349697
  139   -0.089189821811
  140   -0.082329049075
  141    0.006260978668
  142   -0.001657462130
  143    0.009213504031
  144    0.000535969536
  145   -0.000092834855
  146   -0.003041557734
  147   -0.008935953879
  148    0.002316553651
  149   -0.009319655060
  150   -0.002583502946
  151   -0.010651942217
  152    0.112426969759
  153   -0.055365045166
  154   -0.006666443179
  155    0.002634119756
  156   -0.013220072353
  157    0.017350185109
  158   -0.049244816736
  159   -0.046214786326
  160    0.006685997225
  161   -0.000409977616
  162   -0.008413689656
  163   -0.017765726474
  164   -0.142539949268
  165    0.051599477713
  166    0.027388939610
  167    0.005978725477
  168   -0.016400961510
  169   -0.018548007209
  170    0.179811902303
  171    0.168845975495
  172    1.480609591291
  173   -0.002567841783
  174   -0.035911774420
  175    0.115688568884
  176    0.009102736076
  177   -0.140061012909
  178   -0.000165703453
  179   -0.080685172858
  180    0.005819353434
  181   -0.014131621058
  182   -0.220527427810
  183   -0.013893568135
  184   -0.041725576220
  185   -0.024011497954
  186    0.029211021030
  187   -0.010484181475
  188    0.031656513070
  189    0.036913053331
  190    0.002517029725
  191   -0.004502155107
  192   -0.002859232436
  193   -0.007553790697
  194    0.031572162390
  195   -0.032380302179
  196    0.001095535354
  197    0.003428647218
  198    0.017626935986
 Sym=     1a
 Ene= 2.12682951852052E+00
Spin= Alpha
 Occup= 0
  1      0.022442803032
  2     -0.054381754009
  3      0.468431252183
  4     -1.314283889010
  5     -0.233627512477
  6      0.035176003899
  7      0.030871649091
  8      0.029283593400
  9     -0.155934070583
  10    -0.269792061768
  11    -0.171585892811
  12     0.006011095015
  13    -0.213876109458
  14    -0.254199603226
  15    -0.049410281416
  16     0.008070044841
  17     0.041340236575
  18     0.034737759365
  19     0.036329382663
  20     0.051755237366
  21     0.432071464973
  22    -0.048036818815
  23    -0.384034646158
  24    -0.284937372599
  25    -0.329774043878
  26    -0.490976404698
  27     0.011036720779
  28     0.022219349137
  29     0.015470385343
  30    -0.009434673240
  31     0.004145703182
  32     0.003885243012
  33    -0.005372641506
  34    -0.033956088235
  35    -0.024640942971
  36    -0.054151123389
  37    -0.005185062442
  38     0.006033380588
  39    -0.048960261508
  40     0.001727747865
  41     0.035019625144
  42    -0.008323963921
  43    -0.001894918110
  44     0.012973833253
  45     0.106897455983
  46     0.076618450735
  47     0.184994499970
  48     0.025748194691
  49     0.095276094552
  50    -0.022297854652
  51     0.003465692789
  52    -0.001669933364
  53    -0.001795759425
  54    -0.000042892600
  55     0.008393547952
  56    -0.000256649250
  57     0.009572118512
  58     0.057207364593
  59    -0.066779483105
  60     0.053313754892
  61    -0.023468413321
  62     0.037994493502
  63     0.019159000842
  64     0.004843442612
  65    -0.003134976957
  66    -0.009387556327
  67     0.011814574585
  68     0.009602229066
  69    -0.016316940631
  70    -0.018312734740
  71    -0.005396216116
  72     0.001262505592
  73     0.019052192581
  74    -0.088874925464
  75    -0.042313597568
  76     0.001396882994
  77    -0.008625049415
  78    -0.013793827681
  79    -0.000460759838
  80     0.021087722701
  81    -0.132630331785
  82     0.379937896080
  83     0.145035586658
  84     0.093368168012
  85    -0.065582607501
  86    -0.049814708896
  87    -1.006468845153
  88     0.064675140050
  89    -0.149348364577
  90    -0.297347811708
  91     0.254858057397
  92     0.236560362769
  93    -0.019115514780
  94     0.008795625605
  95     0.010319889175
  96     0.034300144345
  97     0.035997428867
  98    -0.000423139286
  99     0.672446193287
  100   -0.343853828700
  101   -0.328592364587
  102   -0.582314533444
  103   -0.626710365303
  104   -0.211767193402
  105    0.097369127458
  106   -0.043353634779
  107   -0.018260578423
  108   -0.084071640306
  109    0.122472129537
  110    0.090996016736
  111   -0.046562752437
  112   -0.064307124875
  113   -0.066496879938
  114   -0.206018101413
  115    0.005473804580
  116   -0.012683012273
  117    0.011559913960
  118    0.496540544297
  119    0.087668413924
  120   -0.000330666482
  121    0.007304148181
  122    0.008027896649
  123   -0.108773245232
  124    0.108662503260
  125    0.348479123143
  126    0.087086271382
  127   -0.016082266733
  128    0.065976065785
  129   -0.002089537472
  130    0.002474968892
  131   -0.000385431420
  132   -0.001702203075
  133    0.001553947274
  134    0.002161707700
  135   -0.051250782967
  136   -0.049733834509
  137    0.100984617476
  138   -0.021421890485
  139   -0.069049339402
  140    0.055084810178
  141    0.005974229816
  142    0.002262893976
  143   -0.003671075940
  144    0.000067847885
  145    0.003387613289
  146   -0.000562315831
  147   -0.008083118274
  148   -0.006423604143
  149    0.005487581043
  150   -0.005044726372
  151    0.033786859338
  152    0.214876158435
  153   -0.223032448088
  154    1.490274130941
  155   -0.035435167455
  156   -0.028035470773
  157   -0.019979602445
  158    0.249775376506
  159    0.039472323460
  160   -0.049724112339
  161    0.034209251370
  162    0.006637428918
  163   -0.096266701095
  164    0.032824573878
  165    0.136657526020
  166   -0.041993998530
  167    0.061323487348
  168   -0.009157641271
  169    0.012120598726
  170   -0.133039033192
  171    0.050238668105
  172   -0.006665286371
  173   -0.001001804420
  174    0.015791103016
  175    0.016032767993
  176    0.130329371828
  177   -0.042514227202
  178    0.028451785970
  179    0.001468977437
  180    0.009959605206
  181   -0.013233013070
  182    0.035705750731
  183    0.037689276754
  184    0.007289975489
  185    0.001072070199
  186    0.005829372094
  187    0.005274954700
  188   -0.042975084078
  189    0.050571487378
  190   -0.002788439440
  191   -0.001864037005
  192   -0.018236178435
  193    0.008355684693
  194   -0.042278965294
  195   -0.033897355444
  196    0.001162392370
  197    0.005425111873
  198    0.001512839207
 Sym=     1a
 Ene= 2.12838003268361E+00
Spin= Alpha
 Occup= 0
  1     -0.011569598835
  2      0.019709509155
  3     -0.256178023886
  4      1.225189762862
  5      0.103686194625
  6      0.016598157487
  7     -0.109022352038
  8     -1.374836541180
  9     -0.735301785517
  10     4.816967020221
  11     14.924394134669
  12     0.092443325884
  13    -0.590414831958
  14    -4.247082360957
  15    -0.139486365130
  16     0.048134498596
  17     0.091351866534
  18    -0.019257275574
  19     0.021506871982
  20     0.085342271569
  21     4.802042452063
  22    -1.162306753112
  23    -3.639735698951
  24     0.572789610264
  25    -0.820210762033
  26    -2.422118682083
  27     0.020052952321
  28    -0.298853714270
  29     0.061486618660
  30     0.056615790494
  31    -0.048405149901
  32     0.184021539788
  33    -0.083519649217
  34     0.449359482162
  35    -0.266514495207
  36     0.089093451692
  37    -0.015416177181
  38     0.074205843297
  39     0.630373307691
  40    -6.540677828826
  41     0.217992863933
  42     0.070002130458
  43    -0.082034158539
  44    -0.109246573837
  45    -4.681790378916
  46     1.140094758894
  47     3.245865842570
  48     0.703762800348
  49     0.486048641958
  50     0.988240235792
  51    -0.037794158853
  52     0.018370642222
  53     0.019423516631
  54    -0.026483389683
  55     0.037586397631
  56    -0.013136298646
  57    -1.200469475107
  58     1.013915879005
  59     0.186553596102
  60     0.622080949071
  61     1.851897941756
  62     0.168217669064
  63    -0.144056704791
  64    -0.049321077249
  65    -0.137409179725
  66     0.150968013297
  67     0.040998142420
  68     0.221141785245
  69     0.042304337419
  70     0.025173026452
  71    -0.036788025286
  72    -0.001505356610
  73     0.066846874953
  74    -0.699435352768
  75    -0.488828811987
  76     0.001749823952
  77    -0.101410730688
  78    -0.143084795542
  79    -0.011013155062
  80     0.055730535235
  81     0.504220400832
  82    -5.113670703599
  83     0.129676808771
  84    -0.037361783813
  85    -0.084573477207
  86    -0.099214222431
  87     3.542985010694
  88     1.871924764671
  89     2.137243024702
  90    -0.692922822858
  91     0.290950743044
  92     1.222372528170
  93    -0.045424875348
  94     0.016809516687
  95     0.028615358661
  96     0.008262771103
  97    -0.014781974428
  98    -0.020299782606
  99    -0.915452312960
  100    0.493688340928
  101    0.421763972032
  102   -1.008082498826
  103   -1.232189461026
  104   -0.069683336271
  105    0.138261069100
  106   -0.094208284939
  107   -0.081107260715
  108   -0.054037368430
  109    0.131553688023
  110    0.113063634641
  111   -0.131459321059
  112   -0.005160010522
  113   -0.004246825585
  114    0.029350340295
  115    0.037022159026
  116   -0.147016173941
  117   -0.852227774789
  118    10.357436312136
  119   -0.816418519905
  120   -0.003763387002
  121   -0.017652455448
  122   -0.193864580769
  123    0.148447865994
  124    3.420973507678
  125    8.781162625234
  126    0.000907578163
  127   -0.848274646931
  128    0.276456151578
  129   -0.012082219030
  130   -0.032597764067
  131    0.044679983097
  132    0.011067324528
  133   -0.003802478918
  134    0.073478538114
  135   -2.477187203272
  136   -0.349825719620
  137    2.827012922892
  138   -0.166679499021
  139    0.155040053141
  140    2.302528678306
  141    0.013569418716
  142   -0.146154148942
  143    0.133784748369
  144   -0.019516304833
  145   -0.188559510424
  146   -0.195375315152
  147    0.001311019235
  148    0.384645877761
  149    0.015884240128
  150    0.022122246810
  151   -0.139030976070
  152   -0.445555788026
  153   -0.257221575318
  154   -0.004641677768
  155    0.071559544835
  156    0.034826449413
  157   -0.033386284742
  158    0.426682938917
  159    0.183375732609
  160   -0.131669479160
  161   -0.013437632316
  162   -0.068504784703
  163   -0.022426335132
  164    0.036364822877
  165    0.678890792492
  166   -0.015867604565
  167    0.034862650745
  168   -0.032246339037
  169   -0.156396119674
  170   -0.494025610559
  171   -0.162824645671
  172   -0.002836865013
  173    0.086436023468
  174    0.033551049561
  175   -0.050228325522
  176   -0.057344933162
  177    0.689297843340
  178   -0.006505962191
  179    0.045107040896
  180   -0.047921307731
  181   -0.042723871455
  182    0.531869426961
  183    0.242310620807
  184    0.143468751663
  185    0.020971548450
  186   -0.104821629630
  187    0.162716521959
  188    0.533936264957
  189   -0.342021542755
  190    0.086632062648
  191   -0.090755341643
  192    0.005755335600
  193    0.173053452243
  194    0.580334234775
  195   -0.262507758730
  196   -0.065092117722
  197   -0.107413488314
  198    0.021631372856
 Sym=     1a
 Ene= 2.17576263036800E+00
Spin= Alpha
 Occup= 0
  1      0.024715493391
  2     -0.033322040235
  3      0.392686477613
  4     -1.671624008649
  5      0.034078342458
  6      0.038801105262
  7     -0.000153544319
  8      0.028339486594
  9     -0.909094871834
  10     0.122202356122
  11    -0.520921245740
  12    -0.291135586350
  13    -0.042366422369
  14    -0.094345770677
  15     0.020765039599
  16    -0.036533619896
  17     0.015768580297
  18    -0.024429836045
  19     0.041447553652
  20    -0.025335543227
  21    -0.331566399406
  22     0.392774905096
  23    -0.061208505690
  24     0.182470476574
  25    -0.563598473786
  26     0.207306040169
  27     0.005627679032
  28    -0.053819744327
  29     0.050176705328
  30     0.026952507101
  31     0.038987674831
  32    -0.094764226466
  33    -0.034502830825
  34     0.033219089276
  35     0.027445112066
  36     0.058461760859
  37     0.000519981869
  38    -0.008416140886
  39     0.060770142619
  40    -0.249148032059
  41    -0.165156279930
  42     0.014000003532
  43    -0.011616535439
  44     0.008355559768
  45    -0.060687639880
  46     0.041708508239
  47    -0.099010527012
  48    -0.226018574485
  49     0.055966080827
  50    -0.111976211821
  51     0.000207121710
  52     0.003161277654
  53    -0.003368399364
  54    -0.007138722500
  55    -0.000998012480
  56     0.002044725033
  57     0.015333147922
  58    -0.091247896713
  59     0.075914748791
  60     0.022247700410
  61    -0.003261248928
  62    -0.015475173068
  63     0.010210381307
  64     0.007505632640
  65    -0.011281780165
  66    -0.014667518153
  67    -0.012056579717
  68     0.016463163678
  69     0.000968854145
  70     0.001986716839
  71    -0.001327067265
  72    -0.002500571003
  73     0.011784146870
  74     0.110896615256
  75    -0.023227393647
  76    -0.004133071465
  77     0.024224389473
  78     0.016685287398
  79    -0.019225117517
  80    -0.015860409988
  81    -0.380004220291
  82     2.515773311495
  83     0.483827415910
  84     0.119438113439
  85     0.054958683376
  86     0.010473694398
  87    -0.873183022969
  88    -1.934561037419
  89     0.417730852650
  90    -0.325424063583
  91    -0.494888695049
  92     0.079974003566
  93     0.007699949022
  94    -0.011561535003
  95     0.003861585981
  96    -0.061502319346
  97     0.021944299761
  98    -0.014696596404
  99    -0.419241104064
  100    0.810606853735
  101   -0.391365749671
  102    0.627355792314
  103    0.188592028323
  104   -0.619334731559
  105   -0.001932123256
  106   -0.155110136869
  107   -0.091924134496
  108   -0.067419463188
  109    0.222803574075
  110   -0.126974878886
  111    0.070011678553
  112   -0.014701488052
  113    0.250304046990
  114   -0.013769319136
  115   -0.001819819675
  116   -0.002272259165
  117    0.005316929938
  118   -0.058458728314
  119   -0.037164066657
  120    0.002778963005
  121   -0.017260979347
  122    0.007816916368
  123   -0.116204754745
  124    0.167080822670
  125   -0.031222506309
  126   -0.086054934723
  127    0.026089824734
  128   -0.079472037996
  129   -0.004001740760
  130   -0.003518571460
  131    0.007520312220
  132    0.000804683678
  133   -0.001949861520
  134   -0.005425411724
  135    0.054649033261
  136    0.000138807554
  137   -0.054787840815
  138   -0.050015836396
  139    0.010350220892
  140    0.125129533396
  141   -0.000569875239
  142   -0.004613198158
  143   -0.009266383102
  144   -0.004198744393
  145   -0.005738198256
  146    0.007209373037
  147    0.004963312257
  148    0.011927453060
  149    0.005222784476
  150   -0.003140051597
  151    0.029867089134
  152    0.213996144675
  153    0.033880552698
  154   -0.056262301002
  155   -0.018831105045
  156   -0.011870565225
  157   -0.082838481172
  158   -2.087180325320
  159    0.000427601941
  160    1.608616321623
  161   -0.295892484734
  162    0.211635940667
  163   -0.061751929138
  164    0.356653153024
  165    0.077108803585
  166    0.016969276486
  167   -0.118422478522
  168    0.009321925748
  169   -0.013592295833
  170    0.152656375011
  171   -0.012438154491
  172    0.007563821556
  173   -0.012762639543
  174   -0.019598866184
  175    0.004165837119
  176   -0.041114031923
  177   -0.177137513789
  178   -0.004261876602
  179    0.002537840714
  180    0.015039620987
  181    0.000344167927
  182    0.171756467453
  183    0.002149176068
  184    0.020679489264
  185    0.022367195025
  186   -0.018180185276
  187   -0.003974600695
  188   -0.095862970819
  189   -0.088975423511
  190   -0.004577168912
  191   -0.007732215022
  192   -0.020518404517
  193   -0.003779945274
  194    0.086837033620
  195   -0.016488571620
  196   -0.013170288867
  197    0.002915221682
  198    0.003804786517
 Sym=     1a
 Ene= 2.17842642447507E+00
Spin= Alpha
 Occup= 0
  1      0.013716925598
  2     -0.015592156833
  3      0.198892502634
  4     -0.709019364086
  5     -0.058382132859
  6      0.038526800466
  7     -0.005021539407
  8      0.014557678126
  9     -0.557910133536
  10    -0.005941333892
  11    -0.412264523823
  12    -0.270583217710
  13    -0.121699042268
  14    -0.246158589995
  15     0.019662905876
  16    -0.000797440278
  17    -0.018865465598
  18    -0.037222606115
  19     0.024023440038
  20     0.003323276816
  21    -0.280292250179
  22     0.067545964722
  23     0.212746285457
  24     0.245425637647
  25    -0.333294680058
  26     0.006826068820
  27    -0.006958989308
  28    -0.017711142978
  29     0.038638180170
  30     0.004952610535
  31     0.030754230239
  32    -0.063755293242
  33     0.004383853353
  34    -0.006992238445
  35     0.011916734810
  36     0.027822002619
  37    -0.002821934989
  38     0.004027212837
  39    -0.021603851368
  40    -0.039517229401
  41     0.042299316282
  42    -0.009690873029
  43    -0.018373464920
  44    -0.000412045687
  45    -0.064209263192
  46     0.145724290343
  47    -0.080459800817
  48     0.013406502232
  49     0.029374713859
  50     0.031617303668
  51    -0.002436860870
  52     0.002346097508
  53     0.000090763362
  54    -0.007259440807
  55    -0.002669754777
  56     0.003881165308
  57     0.022079479048
  58    -0.070776395208
  59     0.048696916160
  60     0.095819303335
  61     0.020548455410
  62    -0.045015505566
  63     0.002068235579
  64    -0.010002048143
  65     0.003228399702
  66    -0.004708138983
  67     0.012598000512
  68    -0.006631180608
  69     0.001933309774
  70     0.000821155225
  71     0.002299827893
  72    -0.011219424087
  73    -0.006215166782
  74     0.149356435270
  75     0.007130102315
  76     0.007819715216
  77     0.028654712539
  78     0.007424605126
  79    -0.021165504413
  80    -0.038264565354
  81    -0.298706825644
  82     2.455599213700
  83     0.394663356811
  84     0.036836243480
  85     0.006977259082
  86     0.088520043936
  87     0.123140573948
  88    -1.978638645530
  89     0.197417786087
  90    -0.111286289115
  91    -0.386334509592
  92    -0.125875971187
  93    -0.015065553993
  94    -0.006936985417
  95     0.022002539410
  96    -0.028027336291
  97     0.017332638433
  98    -0.049130298497
  99    -0.180024313720
  100    1.020954326026
  101   -0.840930012306
  102   -0.355611646895
  103    0.277104668348
  104   -0.215101696926
  105   -0.087991062120
  106   -0.201616964184
  107   -0.140409083860
  108    0.222741003383
  109    0.020289451220
  110    0.014871413188
  111   -0.104688605594
  112    0.250208091179
  113    0.173507140513
  114   -0.097465387060
  115    0.001570119963
  116   -0.007532817677
  117    0.086288314190
  118   -0.423803438740
  119   -0.201496175453
  120    0.005427900966
  121   -0.004491172709
  122    0.011577931781
  123   -0.033370109514
  124   -0.047561586325
  125   -0.103216273573
  126   -0.157956797709
  127    0.032101025464
  128   -0.172823938150
  129   -0.001712539769
  130   -0.001349723660
  131    0.003062263429
  132   -0.003204131167
  133   -0.000841515353
  134   -0.005509632600
  135    0.034656786721
  136   -0.020877981096
  137   -0.013778805625
  138   -0.012856423351
  139    0.003372252063
  140    0.004494025256
  141    0.001302226700
  142    0.004872275627
  143   -0.000898972232
  144   -0.014748328517
  145    0.001157287805
  146    0.015998383820
  147    0.013001208063
  148   -0.007694131509
  149   -0.014792286007
  150   -0.004986833451
  151   -0.075648437987
  152    0.299711914020
  153    0.059424604672
  154    0.007510179792
  155   -0.082621982773
  156    0.087342601522
  157   -0.115836849312
  158   -2.519801261175
  159    0.096063693814
  160    0.211635940667
  161   -0.394820925287
  162    1.654126687472
  163    0.085640140754
  164    0.051961717185
  165   -0.019788753265
  166   -0.055234234738
  167    0.055273495366
  168   -0.062001416685
  169   -0.000486510480
  170    0.016433815119
  171   -0.015516246090
  172   -0.009518347832
  173    0.003282434953
  174   -0.003402972594
  175   -0.006595416481
  176   -0.094838466769
  177   -0.004855041441
  178   -0.021278620223
  179    0.001957380194
  180   -0.000567220914
  181    0.014289568361
  182    0.046700064227
  183   -0.038144519953
  184    0.011440630174
  185    0.004522395543
  186   -0.015153992497
  187    0.008708954582
  188    0.010021940258
  189   -0.165800263575
  190    0.016531504032
  191   -0.000465687787
  192    0.001112928180
  193   -0.017437077927
  194    0.134985587694
  195   -0.015048866361
  196   -0.010275805482
  197   -0.003060903055
  198    0.021163359204
 Sym=     1a
 Ene= 2.20473057789781E+00
Spin= Alpha
 Occup= 0
  1     -0.055495271794
  2      0.088078390319
  3     -1.313403892755
  4      6.687774289247
  5      0.750111446548
  6     -0.087171968839
  7     -0.029761670944
  8     -0.019757656864
  9      4.256688289087
  10     1.037911245303
  11     1.163081676513
  12     1.510877238342
  13     0.453465516181
  14     0.341739730122
  15    -0.015251501636
  16    -0.003221202523
  17     0.018472704159
  18     0.745211220159
  19    -0.047634056246
  20     0.004988571843
  21     1.077669977114
  22    -0.517962187411
  23    -0.559707789703
  24     2.531019158729
  25     1.894446335367
  26     0.337022764681
  27     0.113042219934
  28    -0.043331916430
  29    -0.100660602990
  30    -0.004311402355
  31     0.123117257648
  32     0.126806823617
  33    -0.147350650505
  34    -0.064981391208
  35     0.008243546948
  36     0.267906884828
  37     0.014740948908
  38    -0.023424646727
  39     0.043465806976
  40     0.907565154019
  41     0.115104845679
  42     0.028423234199
  43    -0.063989327502
  44     0.004047438213
  45     0.645074063637
  46     0.759359284132
  47    -0.342070043964
  48     0.155489942258
  49    -0.018756164500
  50    -0.361785217083
  51    -0.001114366586
  52     0.002443527379
  53    -0.001329160793
  54    -0.020915436281
  55    -0.004600137343
  56     0.028139389798
  57     0.327076760965
  58    -0.236674699878
  59    -0.090402061087
  60     0.599239078035
  61    -0.273244446621
  62    -0.628235308488
  63     0.022167071753
  64    -0.183875685567
  65     0.040279055151
  66    -0.082095094256
  67     0.199905464301
  68    -0.095900196829
  69     0.052354846674
  70     0.046789655102
  71     0.041860173597
  72    -0.224797215888
  73    -0.023533641230
  74    -0.134796587026
  75     0.034249609584
  76    -0.025791456350
  77    -0.027094732312
  78    -0.002351407415
  79     0.008077989923
  80     0.028289152421
  81     0.883989617150
  82    -6.966646695100
  83    -1.244774267064
  84    -0.084302714968
  85     0.041546269290
  86    -0.068995147484
  87     4.466555395169
  88     0.661450391488
  89     2.318867574080
  90     0.771551712762
  91     0.123985165492
  92     0.575431588456
  93    -0.034132624196
  94     0.009688061959
  95     0.024444562237
  96    -0.045180465456
  97    -0.031792490480
  98    -0.031623305307
  99    -1.511075172850
  100    1.190281022693
  101    0.320794150157
  102   -0.314218813439
  103   -1.400738636364
  104    0.004379472945
  105    0.210391024686
  106   -0.030387092198
  107   -0.155058533448
  108   -0.325661121152
  109    0.014503920404
  110    0.372027211658
  111    0.043391941321
  112    0.026264641872
  113   -0.163994358889
  114    0.002968147292
  115    0.010449030799
  116   -0.006311486846
  117    0.151026043466
  118   -0.502091397788
  119   -0.068160173636
  120   -0.003911405288
  121    0.029528835336
  122    0.021349086948
  123    0.408509916931
  124   -0.257768671073
  125   -0.335496630955
  126   -0.329148766579
  127   -0.105274168240
  128    0.173398300351
  129    0.003768737342
  130    0.001523170260
  131   -0.005291907602
  132    0.010780505005
  133   -0.028065725565
  134   -0.005241276834
  135   -0.000567360692
  136    0.143359087570
  137   -0.142791726878
  138   -0.044934590172
  139    0.720899822012
  140   -0.096577520806
  141   -0.096959689877
  142    0.021611804669
  143   -0.012946146805
  144   -0.020632461491
  145   -0.003485344868
  146   -0.008999466773
  147    0.150717536076
  148   -0.025509933745
  149    0.026368545354
  150    0.072896196924
  151   -0.058725530387
  152   -0.062934649033
  153   -0.178088943571
  154   -0.047453308184
  155   -0.024317309283
  156   -0.011029897781
  157    0.040249677857
  158   -0.169717421952
  159   -0.057773681224
  160    0.019365308672
  161    0.048526398202
  162    0.011077751161
  163   -0.021703116988
  164    0.191442188565
  165   -0.081367761018
  166   -0.065434601640
  167   -0.019671162473
  168    0.004916080001
  169    0.058084981063
  170    0.082977234982
  171    0.262835495319
  172   -0.049596316126
  173   -0.012064371586
  174    0.015891697740
  175    0.009166499565
  176   -0.031840443543
  177    0.130877286959
  178    0.001045354697
  179   -0.006723959826
  180   -0.024960289231
  181   -0.069953620113
  182    0.157316060148
  183    0.061936730005
  184    0.067139504656
  185   -0.039964348956
  186   -0.044488114009
  187   -0.041446569015
  188   -0.118326091521
  189    0.023264277133
  190   -0.045072178369
  191    0.005582913441
  192    0.043260629338
  193    0.044851393583
  194    0.255380978885
  195    0.253117374653
  196   -0.027321838789
  197   -0.025245420949
  198   -0.004369540195
 Sym=     1a
 Ene= 2.21342099126661E+00
Spin= Alpha
 Occup= 0
  1      0.017005630832
  2     -0.020096251683
  3      0.251892609255
  4     -0.942747047920
  5     -0.050302607880
  6     -0.038303735017
  7     -0.015079170521
  8      0.023710720479
  9      0.588885246599
  10     0.171512066074
  11    -0.566426369913
  12     0.293931827107
  13    -0.047167014574
  14    -0.288562414423
  15    -0.003191067602
  16     0.011864849519
  17    -0.008673781917
  18     0.041079732807
  19    -0.031766325721
  20    -0.013881531486
  21    -0.083748954155
  22    -0.008774305416
  23     0.092523259571
  24    -0.327904777986
  25     0.442967798888
  26     0.185570055925
  27    -0.030653428499
  28    -0.023199425799
  29     0.040293290932
  30     0.014611307108
  31     0.016829366482
  32    -0.048089819148
  33     0.026514582812
  34     0.014295929394
  35    -0.005969303389
  36    -0.060009831687
  37    -0.023273429620
  38    -0.039146665642
  39    -0.346397911220
  40     2.752292326157
  41     0.454665185690
  42    -0.042443694355
  43     0.004938009057
  44     0.095796717900
  45     0.591700166392
  46    -2.131622848345
  47     0.205487858442
  48     0.243982398687
  49    -0.401476532777
  50    -0.140357785597
  51    -0.028859558779
  52     0.003337303569
  53     0.025522255210
  54     0.022521412775
  55     0.000877589911
  56    -0.056787367124
  57    -0.318213298136
  58     1.125610588746
  59    -0.807397290610
  60    -0.209389873841
  61    -0.302676997550
  62    -0.380262238314
  63     0.016890876970
  64    -0.288804830631
  65    -0.169082803251
  66    -0.029844100424
  67     0.150583154560
  68    -0.031669344371
  69     0.007182610961
  70     0.236889185553
  71     0.258517729509
  72     0.045386676349
  73    -0.004060612328
  74     0.165249174563
  75     0.003076661582
  76    -0.012845960576
  77     0.029540487339
  78     0.011096431819
  79    -0.002651829170
  80     0.002619532621
  81    -0.010528817502
  82    -0.084871610862
  83     0.013606723259
  84     0.011857549070
  85    -0.017412386838
  86    -0.000587762283
  87     0.024438205660
  88     0.162898340850
  89    -0.098299621430
  90     0.014496573529
  91     0.041372885603
  92     0.013169907182
  93    -0.004874179889
  94     0.005885047042
  95    -0.001010867153
  96     0.006344126427
  97     0.002221544875
  98     0.003666374049
  99     0.053916819181
  100   -0.116878281938
  101    0.062961462757
  102   -0.063574620766
  103   -0.006230619257
  104   -0.038870204555
  105   -0.009952216654
  106   -0.002992108686
  107    0.001766339144
  108    0.013608958351
  109    0.005748469962
  110   -0.007079453916
  111   -0.000256658572
  112   -0.001734134912
  113    0.004709661277
  114    0.007272145860
  115    0.001190215310
  116   -0.007543250255
  117    0.082971312122
  118   -0.413752795443
  119   -0.199384380722
  120   -0.001843916183
  121   -0.008084326854
  122    0.012722428151
  123    0.038351323866
  124   -0.008527207114
  125   -0.108438875756
  126    0.127966478438
  127    0.072708005611
  128   -0.198885497574
  129   -0.002846544557
  130   -0.000714001972
  131    0.003560546529
  132    0.001785564587
  133    0.003827426583
  134   -0.005980469274
  135    0.027960911009
  136   -0.011044352055
  137   -0.016916558954
  138    0.037305828487
  139   -0.020123328139
  140    0.016583927463
  141    0.003809058741
  142    0.011155963252
  143    0.002980143436
  144    0.009895475947
  145   -0.003376727741
  146    0.008193321642
  147   -0.015005864512
  148   -0.011590567570
  149   -0.012191603625
  150    0.011400137486
  151   -0.002426047702
  152    0.038281904092
  153   -0.018234081388
  154    0.006594290076
  155    0.003202770390
  156   -0.007380446593
  157    0.014248678595
  158    0.070253314719
  159   -0.037013591183
  160   -0.018175824630
  161    0.003762472761
  162   -0.015150357705
  163   -0.005864864117
  164   -0.098450349805
  165   -0.031573204059
  166    0.020253215767
  167    0.007526985854
  168   -0.001258960146
  169   -0.071159848289
  170    0.328706639072
  171    0.063530004312
  172    0.033038295925
  173   -0.081240803739
  174    0.082650195015
  175    0.075606247706
  176    0.102681904794
  177   -0.007722813609
  178    0.033076663636
  179    0.047578104262
  180   -0.065805351754
  181   -0.124157647830
  182   -2.742394149929
  183    0.092205701342
  184   -0.082553676976
  185   -0.462730872016
  186    1.702711599766
  187   -0.017979908893
  188    0.143911261135
  189   -0.013882477898
  190    0.014926767844
  191    0.000770143277
  192    0.018987895408
  193    0.007660563569
  194   -0.007037791024
  195   -0.174299534089
  196   -0.014445673479
  197   -0.005024205588
  198   -0.000218248456
 Sym=     1a
 Ene= 2.23894148858574E+00
Spin= Alpha
 Occup= 0
  1     -0.004207334560
  2      0.007218004932
  3     -0.094165229961
  4      0.450189462565
  5      0.040447445376
  6     -1.413970948466
  7     -0.040026073404
  8      0.016874169835
  9      16.650526249828
  10     1.771001353226
  11    -0.738497667043
  12    -4.464623489191
  13    -0.219416822235
  14     0.087646219162
  15    -0.019302775735
  16    -0.003555679329
  17     0.022858455064
  18    -0.029792965572
  19    -0.174422022741
  20    -0.019299194125
  21     0.454628826245
  22     0.307565710290
  23    -0.762194536535
  24     1.764952456424
  25     5.708253458501
  26     0.573614495643
  27     0.297936946446
  28    -0.126170621765
  29    -0.003784938056
  30    -0.480468662619
  31     0.190057648586
  32    -0.050110634174
  33     0.080744303462
  34    -0.020781996368
  35     0.055188661445
  36     0.241421602861
  37     0.032068890400
  38    -0.132101174960
  39    -0.835891929303
  40     9.764786951662
  41    -0.669401683897
  42    -0.185988645347
  43     0.046244238038
  44     0.029550403773
  45     7.716180950695
  46    -0.932776830289
  47    -4.196694659289
  48     0.478157317317
  49    -0.216930657736
  50     0.939759976038
  51     0.037295447557
  52    -0.065124824291
  53     0.027829376734
  54     0.005319813434
  55    -0.051472915346
  56     0.009675654249
  57     1.901866782071
  58    -1.260672060525
  59    -0.641194721546
  60    -0.430243385445
  61    -3.000315878488
  62    -0.169993492762
  63     0.033410065685
  64     0.028158923113
  65     0.161906973045
  66    -0.234560469162
  67    -0.027496546716
  68    -0.310104427938
  69     0.189736162360
  70    -0.010282613037
  71     0.092883429282
  72     0.029931124543
  73     0.000508739452
  74     0.016231464262
  75    -0.016561020291
  76     0.001989977633
  77     0.008543800963
  78     0.011689703713
  79    -0.030128311139
  80     0.130575719302
  81     0.923555601395
  82    -10.289921094157
  83     0.566242931252
  84    -0.179567635705
  85    -0.100913566021
  86    -0.010154301721
  87     8.066194771613
  88     3.121920950160
  89     3.215889485985
  90     0.278969909079
  91     0.107496407856
  92    -0.854233998487
  93    -0.047356660088
  94     0.061100674061
  95    -0.013744013973
  96    -0.025866891900
  97    -0.048349366611
  98    -0.018697166839
  99    -2.262186562503
  100    0.874296288791
  101    1.387890273712
  102   -1.506923095598
  103   -2.521398914433
  104   -0.425669972956
  105    0.077106620562
  106   -0.161396455232
  107   -0.205165429489
  108   -0.143420118797
  109    0.203360569426
  110    0.295449672585
  111    0.039970731742
  112    0.013175497710
  113   -0.020191364403
  114    0.141962819302
  115    0.001868459233
  116   -0.004643275483
  117    0.015587820105
  118    0.047505381075
  119   -0.069679855964
  120   -0.103201116203
  121   -0.013545906929
  122    0.008057142828
  123    0.689005637826
  124    0.179669125688
  125    0.002401777957
  126    1.701501420146
  127    0.081847147424
  128   -0.074377410570
  129    0.008230283859
  130   -0.010267509433
  131    0.002037225574
  132   -0.037655392992
  133   -0.009874355021
  134    0.002058565690
  135   -0.098500441162
  136    0.106411656138
  137   -0.007911214976
  138    0.340302566918
  139    0.008840744778
  140    0.038183065415
  141    0.106313710080
  142   -0.011164150923
  143    0.002801712746
  144   -0.030589540607
  145    0.007890128540
  146   -0.010142137152
  147   -0.112045269000
  148    0.007088151684
  149    0.006383245059
  150   -0.066380421667
  151   -0.131109251435
  152   -0.355363715684
  153    0.627573894754
  154   -0.059425586591
  155    0.097881883910
  156    0.003753051236
  157   -0.066949260169
  158    0.769673800581
  159    0.429577635471
  160   -0.202300226092
  161   -0.021593527811
  162   -0.109520359822
  163   -0.197713134354
  164   -0.624751114571
  165    0.095511192706
  166    0.029472785330
  167    0.071750992025
  168   -0.102883095023
  169    0.121548947528
  170    0.349387585627
  171   -0.595101334282
  172   -0.043024293101
  173   -0.102399026301
  174    0.008018384464
  175    0.193231087111
  176    0.647727306348
  177   -0.023108081110
  178    0.054212521369
  179   -0.053440644362
  180    0.099421323027
  181    0.063097390387
  182   -0.691364145980
  183   -0.437807545884
  184   -0.150292307798
  185   -0.021099573181
  186    0.113423963802
  187    0.070183347163
  188    0.305675773904
  189    0.566663200541
  190    0.027036196967
  191    0.008453096544
  192    0.021181306022
  193   -0.067737557399
  194   -0.267021978225
  195   -0.544300311808
  196    0.020481893558
  197   -0.006982633304
  198   -0.034251424608
 Sym=     1a
 Ene= 2.25770205425530E+00
Spin= Alpha
 Occup= 0
  1      0.010751115069
  2     -0.030871992947
  3      0.258252066417
  4     -0.960864465570
  5     -0.018016503475
  6     -0.025893075122
  7      0.003852442324
  8      0.027375110271
  9      0.218960651604
  10    -0.072867050114
  11    -0.084876725925
  12    -0.108620412081
  13    -0.001975458892
  14     0.063259712463
  15     0.044265745417
  16    -0.001120608155
  17    -0.043145137262
  18     0.006768241133
  19     0.004259330649
  20     0.004689540983
  21    -0.410719424165
  22     0.032280149697
  23     0.378439274468
  24    -0.080105626020
  25    -0.128247616952
  26    -0.035179746414
  27     0.023632144473
  28     0.006195987244
  29    -0.029442416413
  30    -0.012129827776
  31    -0.010945724806
  32     0.028435191630
  33    -0.019576021122
  34     0.002632935607
  35     0.011065955083
  36    -0.007274113435
  37     0.014927796546
  38     0.078197737761
  39    -0.001351266405
  40    -1.572459611520
  41    -0.067766041059
  42     0.099068462397
  43    -0.009097660531
  44     0.145032861218
  45     1.924033802348
  46    -0.050135135616
  47     0.447792109395
  48    -0.155620047110
  49     0.030840249288
  50    -0.158105475388
  51     0.003333667998
  52     0.026994578722
  53    -0.030328246720
  54     0.004488713354
  55    -0.051415760078
  56    -0.001559825785
  57    -1.167920127145
  58     0.457994172459
  59     0.709925954686
  60     0.076881109037
  61    -0.867838221585
  62     0.148229121313
  63     0.217936917458
  64     0.026742794467
  65    -0.234735501433
  66    -0.203604763534
  67    -0.055273503792
  68     0.335877759677
  69    -0.088788293812
  70     0.019394279990
  71    -0.020947036915
  72    -0.026736060255
  73    -0.006357926299
  74    -0.022306779546
  75     0.019061130744
  76    -0.000669346749
  77    -0.007305380763
  78    -0.002212235782
  79    -0.001850474565
  80     0.005731935277
  81    -0.096702911133
  82     0.532279141705
  83     0.205174575094
  84     0.015082810948
  85    -0.000617643713
  86    -0.000205080002
  87    -0.210836571657
  88    -0.045599775674
  89    -0.190992071256
  90    -0.126855517846
  91    -0.080608800234
  92     0.048821611445
  93    -0.004055902920
  94     0.002513963477
  95     0.001541939443
  96    -0.003446558036
  97     0.003147019441
  98    -0.001273163111
  99     0.061836872115
  100   -0.067620070864
  101    0.005783198749
  102    0.041349128400
  103    0.026909100150
  104    0.026976875135
  105   -0.003498634571
  106   -0.007974739629
  107    0.000495004538
  108    0.004105788705
  109    0.009199772242
  110   -0.002784528421
  111    0.000588122133
  112    0.001499463706
  113    0.002120410144
  114   -0.003137372366
  115   -0.004455113885
  116    0.007167987767
  117   -0.048782056676
  118   -0.004684004624
  119    0.033649099878
  120   -0.003334525765
  121   -0.001045419133
  122   -0.015317663441
  123   -0.136356866928
  124   -0.109312764612
  125   -0.000245146266
  126   -0.002221628519
  127    0.040615288088
  128    0.032901550063
  129    0.002996303256
  130   -0.000668510202
  131   -0.002327793054
  132    0.000302506016
  133   -0.001811040260
  134   -0.003477432939
  135    0.017157680689
  136   -0.037966634239
  137    0.020808953550
  138   -0.050621891691
  139    0.018479592814
  140   -0.032485740365
  141    0.002849307451
  142   -0.006557106144
  143    0.008702694910
  144    0.001846074173
  145    0.012029876949
  146    0.006555464197
  147   -0.005668821262
  148   -0.003232595906
  149   -0.018231354640
  150   -0.000674494180
  151    0.005768568212
  152   -0.053522983615
  153   -0.031199469184
  154    0.009965471719
  155    0.011216918608
  156    0.000218098146
  157    0.018566459284
  158   -0.050453683145
  159   -0.054853696441
  160    0.013299710216
  161   -0.000284327201
  162   -0.000501599993
  163   -0.003104056121
  164   -0.108164411836
  165    0.099236899811
  166    0.020147004193
  167    0.010668973712
  168   -0.009917502408
  169   -0.076972440906
  170   -0.086584368979
  171    0.116620679607
  172    0.005821770803
  173    0.004974328945
  174   -0.051686414834
  175    0.132221002716
  176    2.834132541505
  177   -0.471385473647
  178    0.446735345967
  179   -0.026911163970
  180    1.760225683926
  181   -0.047458235321
  182    0.125792117487
  183    0.072945180203
  184   -0.026505430012
  185    0.034308499631
  186   -0.058206392374
  187    0.012863468445
  188   -0.128864598734
  189    0.071395058673
  190   -0.013685172259
  191   -0.004280257180
  192   -0.010237407701
  193    0.009514853512
  194    0.074896736591
  195   -0.021095265749
  196   -0.011585885892
  197    0.000114293448
  198    0.014287462712
 Sym=     1a
 Ene= 2.29373021891498E+00
Spin= Alpha
 Occup= 0
  1     -0.028383924663
  2      0.062735590085
  3     -0.551678108474
  4      1.299217564636
  5      0.392964446186
  6      0.043965262535
  7     -0.000440525959
  8      0.044258058841
  9     -0.269038740143
  10     0.109629981519
  11    -0.199439974501
  12    -0.523794695968
  13    -0.058845014561
  14    -0.357764428151
  15    -0.027340958488
  16     0.042453084565
  17    -0.015112126077
  18    -0.029697281880
  19    -0.088704364003
  20    -0.005570072746
  21     0.212342215729
  22    -0.379351491944
  23     0.167009276215
  24     0.247848745773
  25     0.755123925939
  26     0.119749845299
  27     0.018388985562
  28     0.043508211046
  29    -0.039232868492
  30     0.029659251987
  31    -0.008479524810
  32    -0.002529086443
  33    -0.054330665039
  34    -0.049892865677
  35     0.055165502983
  36    -0.019119622814
  37     0.003075561291
  38     0.000475300659
  39     0.025449066893
  40    -0.085907088544
  41    -0.023576895455
  42     0.005970783979
  43     0.016939468963
  44     0.000645786692
  45     0.042052542225
  46     0.054719873216
  47     0.232682134468
  48     0.041322288743
  49    -0.113001770079
  50     0.081477228567
  51     0.007574454893
  52    -0.002297894525
  53    -0.005276560368
  54     0.001405822889
  55     0.001250297201
  56    -0.009389483998
  57     0.003311415181
  58     0.084221951745
  59    -0.087533366926
  60     0.013259353684
  61     0.025846877766
  62     0.081093859278
  63     0.006525461991
  64     0.000007140036
  65     0.015217556962
  66     0.018932449948
  67    -0.008800090945
  68    -0.022070068245
  69    -0.027687275905
  70     0.008790511581
  71     0.001653573154
  72    -0.008175357424
  73    -0.042403174715
  74    -0.271521127173
  75     0.027933243984
  76    -0.006055064415
  77    -0.020404405543
  78    -0.057435406799
  79    -0.012006643439
  80     0.030065548200
  81    -0.129447851553
  82    -0.316903660052
  83     0.077656223728
  84     0.024087136378
  85     0.005475797948
  86     0.027114540421
  87     0.361347600257
  88     0.149840647978
  89    -0.000880609713
  90    -0.044195287666
  91     0.002174699899
  92     0.007429535506
  93     0.000932597572
  94     0.000195718777
  95    -0.001128316349
  96    -0.000983024587
  97    -0.007685441974
  98    -0.006085638878
  99    -0.164161330703
  100    0.043971574224
  101    0.120189756479
  102   -0.059385703603
  103    0.003103160737
  104    0.064809300846
  105    0.009099623734
  106    0.007806234713
  107    0.001165333376
  108    0.000499675248
  109   -0.006232487235
  110   -0.006147975088
  111   -0.012708101592
  112   -0.004240675645
  113    0.004584516301
  114   -0.011203586430
  115    0.018129978580
  116    0.050338488136
  117    0.232458415624
  118   -2.409726677681
  119   -0.332837249642
  120   -0.005196456714
  121    0.030503667999
  122    0.074893482796
  123    2.236690675443
  124   -0.587303285696
  125    0.239797398998
  126    0.516102235497
  127   -0.182943408855
  128   -0.157314863131
  129   -0.002581469306
  130    0.022643520854
  131   -0.020062051548
  132   -0.010748628353
  133   -0.071263441532
  134    0.014962211167
  135   -1.240697498452
  136    0.604859867431
  137    0.635837631021
  138    0.427209113669
  139    0.090348085127
  140   -0.221595926473
  141    0.276974105245
  142    0.053382007843
  143   -0.119449573104
  144   -0.162785659469
  145   -0.102846162582
  146    0.183587728483
  147   -0.208814096932
  148    0.031226683595
  149   -0.023329309276
  150    0.041775389756
  151   -0.013800351940
  152   -0.045618545980
  153    0.029067624371
  154   -0.018248695381
  155    0.002310728485
  156    0.005457643870
  157   -0.012150840866
  158    0.099315780986
  159    0.007527421066
  160   -0.018146426978
  161    0.001318430383
  162    0.000984270972
  163   -0.009790702496
  164    0.008825472996
  165    0.028149050799
  166    0.013546937604
  167    0.009146096281
  168    0.010559160837
  169   -0.019042017522
  170   -0.154468281027
  171    0.058636662992
  172   -0.002860698461
  173    0.020346637337
  174    0.027760920738
  175   -0.006546820264
  176    0.077870091044
  177   -0.016859005752
  178    0.005396272550
  179    0.011838262292
  180   -0.010238403718
  181    0.019395488048
  182   -0.092858879635
  183   -0.051692704155
  184   -0.000228467956
  185    0.004714157806
  186    0.016796877300
  187    0.088606784382
  188    2.813399972633
  189   -0.142216861807
  190    0.446977120460
  191   -0.008261939093
  192    1.736262891946
  193    0.101607075763
  194   -0.107681725064
  195   -0.116804356586
  196    0.026772209431
  197   -0.079277066460
  198    0.050935470229
 Sym=     1a
 Ene= 2.33114454461877E+00
Spin= Alpha
 Occup= 0
  1      0.007374234272
  2     -0.023616403917
  3      0.195000833284
  4     -0.850706506884
  5      0.044737808438
  6      0.018278420915
  7      0.005159717636
  8      0.027194723676
  9     -0.152240635290
  10    -0.093344789584
  11    -0.069933650966
  12     0.226578618240
  13     0.059461394190
  14     0.014098068360
  15     0.031959931162
  16     0.003596486667
  17    -0.035556417829
  18     0.000891397843
  19    -0.009817231724
  20     0.007935746732
  21    -0.278493404149
  22    -0.008928990066
  23     0.287422394215
  24     0.002282439397
  25     0.192323219766
  26    -0.038224522888
  27     0.001766387687
  28     0.003341550734
  29    -0.032909909705
  30    -0.002029397686
  31    -0.005942310996
  32     0.028578312171
  33    -0.000340460079
  34     0.001459150242
  35     0.015574964970
  36     0.017168028236
  37    -0.003712461896
  38     0.010144396025
  39    -0.122296908614
  40     0.532460005085
  41     0.229023760090
  42    -0.018925429035
  43    -0.005414581482
  44     0.005086268779
  45     0.166446099508
  46     0.031992872079
  47    -0.201547615774
  48     0.151415140444
  49    -0.053617450130
  50     0.017816284710
  51    -0.006746662701
  52     0.004446564531
  53     0.002300098170
  54     0.001202053251
  55    -0.001497700525
  56    -0.001539205407
  57     0.072831221623
  58    -0.081266178164
  59     0.008434956541
  60     0.014978279725
  61    -0.024808235267
  62     0.011234047894
  63    -0.001127943819
  64    -0.009286802739
  65     0.001932264159
  66     0.002508372800
  67     0.012664596116
  68    -0.005984276262
  69    -0.000995077367
  70    -0.000205042785
  71     0.003391871856
  72    -0.001068122360
  73    -0.005056904230
  74    -0.034687363676
  75     0.015095148471
  76     0.000358753904
  77    -0.008658519945
  78    -0.004285603834
  79     0.018484019629
  80     0.091484611038
  81     0.034586985943
  82    -2.066825027133
  83    -0.124130021582
  84    -0.088835090066
  85    -0.034309289408
  86     0.159721465339
  87    -1.999003195745
  88    -0.615902805747
  89     1.117554404748
  90     0.121645377844
  91     0.067041034628
  92    -0.089093659787
  93     0.011163985349
  94     0.026721121291
  95    -0.037885106640
  96    -0.012263336561
  97     0.053061216352
  98     0.013954446252
  99    -0.778050950944
  100    0.465638901986
  101    0.312412048958
  102   -0.517163287395
  103    1.202793201719
  104    0.504856381993
  105   -0.019020239786
  106    0.142226529790
  107   -0.236303140894
  108    0.130016543906
  109   -0.172501234759
  110    0.347583120974
  111   -0.104498214440
  112   -0.018315678529
  113   -0.030549189172
  114    0.185796752249
  115   -0.003763431241
  116    0.006311910691
  117   -0.045798064648
  118    0.021677577369
  119    0.032401408806
  120    0.001247368262
  121    0.003157603374
  122   -0.015482156719
  123    0.129844736948
  124   -0.090245073697
  125    0.002631868841
  126   -0.016938948950
  127    0.025029104069
  128    0.046218884211
  129    0.002434405365
  130   -0.000053072349
  131   -0.002381333016
  132    0.000411396888
  133    0.000631113461
  134   -0.002745744586
  135   -0.007646875595
  136   -0.030728145597
  137    0.038375021192
  138    0.039387531174
  139   -0.007605248676
  140   -0.051210648179
  141   -0.005045949967
  142   -0.006211270351
  143    0.011280157098
  144    0.001562222009
  145    0.012710695401
  146    0.003839775683
  147    0.005207630273
  148   -0.004377401762
  149   -0.018973694524
  150    0.002063171249
  151   -0.073532345105
  152   -0.131821157240
  153    0.107967536601
  154   -0.009164167167
  155   -0.006210060039
  156   -0.044706448756
  157   -0.046273108923
  158    0.077706576412
  159    0.074769305234
  160    0.008244504590
  161    0.044594047219
  162   -0.054835339630
  163    0.155134087175
  164    3.459968216315
  165   -0.520314507560
  166   -0.466113901683
  167   -0.163931119265
  168    1.891859226563
  169    0.005744709338
  170   -0.052812795370
  171   -0.031165098555
  172   -0.016409801086
  173    0.009385895360
  174    0.002905520084
  175   -0.004933734984
  176   -0.122438913949
  177    0.106582559627
  178   -0.024530011578
  179    0.004389706435
  180   -0.009918727360
  181    0.017482624528
  182   -0.040580252096
  183   -0.054267066655
  184   -0.012599315098
  185   -0.005031239999
  186   -0.001113717614
  187    0.007659826695
  188    0.058823071289
  189   -0.016590185763
  190    0.010141544866
  191    0.002593391840
  192    0.010559437696
  193    0.012185757716
  194   -0.118943234396
  195    0.077427214017
  196    0.013482940769
  197    0.001346938296
  198   -0.011090137379
 Sym=     1a
 Ene= 2.34426530498927E+00
Spin= Alpha
 Occup= 0
  1     -0.070546370694
  2      0.111933424621
  3     -1.670541856612
  4      8.512331405215
  5      0.954208612731
  6      0.035700427098
  7      0.067290894293
  8      0.173233945508
  9     -1.664796735931
  10    -3.821630385024
  11    -8.250315232576
  12    -0.581582070270
  13    -1.193558230617
  14    -2.890526438060
  15    -0.289571755354
  16    -0.402641286905
  17     0.692213042259
  18     0.018117516998
  19     0.007970120177
  20    -0.040713246790
  21    -4.183882989440
  22    -0.839105717737
  23     5.022988707177
  24    -0.557552853693
  25    -0.429067956532
  26     2.333691849770
  27     0.013708034545
  28     0.289220448435
  29    -0.268915342671
  30     0.009403923084
  31    -0.044452169922
  32     0.205270934594
  33    -0.027795181332
  34    -0.343577779988
  35     0.155516857249
  36    -0.032188674043
  37     0.015205042201
  38    -0.018736000486
  39     0.061179238190
  40     0.689334640582
  41     0.126910594296
  42     0.042926195139
  43    -0.003075119317
  44     0.010772449277
  45    -0.147215345603
  46    -0.238260542267
  47    -1.073169720924
  48     0.503220285865
  49     0.068579457750
  50     0.130078185265
  51     0.034446306860
  52    -0.016253260816
  53    -0.018193046044
  54    -0.000830203220
  55     0.021808450594
  56    -0.005610048624
  57    -0.780749018267
  58     0.120611671538
  59     0.660137346729
  60    -0.110508945722
  61    -0.750190630626
  62     0.014537909254
  63    -0.237503381344
  64    -0.003256561482
  65    -0.029954671448
  66     0.023110981239
  67    -0.002938663838
  68    -0.046259365600
  69     0.295533242103
  70     0.007307799545
  71     0.086447774561
  72    -0.025412566858
  73     0.052878846365
  74     0.095234831356
  75    -0.118557353173
  76    -0.009730341428
  77     0.098096633721
  78     0.009945934058
  79     0.013828883788
  80    -0.028145500605
  81    -0.300697852929
  82     3.588836484956
  83     0.706456950829
  84    -0.011002467626
  85     0.010369976838
  86     0.016181090922
  87    -1.771678959245
  88    -0.873780987445
  89    -1.692759056172
  90    -0.868729766994
  91    -0.276220192599
  92     0.003597442945
  93     0.038603790879
  94    -0.027019497211
  95    -0.011584293668
  96     0.020647157842
  97    -0.009638464032
  98    -0.004404151268
  99     0.003610247312
  100   -0.072222435593
  101    0.068612188281
  102    0.243099161531
  103    1.370202025784
  104    0.287788385772
  105    0.110512366691
  106    0.026595433443
  107    0.128795199992
  108    0.046102629588
  109   -0.008855732405
  110   -0.277411389966
  111   -0.194370528153
  112   -0.026825785836
  113    0.104614496551
  114   -0.089673439931
  115    0.013149225967
  116    0.045218783462
  117    1.610654611902
  118   -12.627082335027
  119   -2.356053110177
  120    0.003493637119
  121    0.105198782218
  122    0.124450091541
  123   -0.247266170263
  124   -4.163873743604
  125   -7.964322412984
  126    0.017452939401
  127   -0.797743621961
  128   -1.643731004727
  129    0.048433120929
  130    0.051439946109
  131   -0.099873067038
  132   -0.002422030442
  133    0.000635430199
  134   -0.063126198157
  135    1.952486066729
  136    0.294162226732
  137   -2.246648293461
  138   -0.043201356895
  139   -0.144708785159
  140   -2.645687838957
  141    0.016773658377
  142    0.287654042419
  143   -0.132951547205
  144   -0.004449079834
  145    0.239442650830
  146    0.387650484225
  147   -0.018055144384
  148   -0.625371046541
  149   -0.209277265866
  150   -0.016744469467
  151   -0.014856755986
  152    0.070854287154
  153    0.240284083479
  154   -0.085220376133
  155   -0.007559595213
  156    0.020817439537
  157   -0.065456972947
  158   -0.225431691634
  159    0.102757343833
  160    0.019482089851
  161   -0.046545724224
  162    0.055567617495
  163    0.064997103963
  164    0.132287962644
  165    0.458548397983
  166    0.072069978674
  167   -0.005043608672
  168    0.045833057595
  169   -0.023756523265
  170    0.078816104966
  171    0.111624639878
  172    0.099284859008
  173    0.014210507724
  174   -0.020256483132
  175    0.062328353900
  176    0.067301738202
  177    0.351623568122
  178   -0.064383499438
  179   -0.011892878438
  180    0.074592287757
  181   -0.055230879607
  182   -0.059895189820
  183    0.064991781026
  184    0.037033655077
  185   -0.024595969924
  186    0.022562382513
  187   -0.047502678764
  188   -0.012988777140
  189   -0.310366304770
  190    0.041466932111
  191    0.018017718029
  192    0.048150448845
  193   -0.053484211592
  194    0.065744776675
  195   -0.330363764334
  196   -0.036869647167
  197    0.030798175437
  198    0.087270085178
 Sym=     1a
 Ene= 2.36125008850101E+00
Spin= Alpha
 Occup= 0
  1      0.015498980681
  2     -0.028982958607
  3      0.269193133062
  4     -0.469622216364
  5     -0.277079782166
  6     -0.028976135938
  7      0.021261948098
  8      0.023136955538
  9      0.296851375328
  10    -0.096366846663
  11    -0.031026426443
  12     0.011061586144
  13    -0.254551287987
  14    -0.391850704507
  15    -0.019931127805
  16    -0.005592707952
  17     0.025523835757
  18     0.007552422426
  19    -0.006583578865
  20     0.038206416489
  21     0.087442920080
  22     0.079228920062
  23    -0.166671840142
  24    -0.083835159508
  25     0.028718325129
  26    -0.316722431276
  27    -0.000792126796
  28     0.045975309488
  29     0.017193630595
  30    -0.002804007573
  31    -0.041083106304
  32    -0.024770630521
  33     0.003866757190
  34    -0.020599244077
  35     0.001702954446
  36    -0.034093831198
  37     0.002665065710
  38    -0.010683833241
  39     0.022490291886
  40     0.226077222876
  41    -0.001169191630
  42     0.021386466739
  43    -0.006406584094
  44     0.006968975109
  45     0.210018353540
  46     0.044321124636
  47    -0.099707762115
  48    -0.033229450454
  49     0.084862844402
  50    -0.035075006897
  51     0.009185550475
  52    -0.005701635381
  53    -0.003483915094
  54     0.000950772876
  55     0.002990838768
  56    -0.001736740021
  57     0.022249497372
  58    -0.007838722155
  59    -0.014410775217
  60     0.043933468201
  61    -0.092072047787
  62    -0.004036344031
  63     0.009586496731
  64    -0.000267894067
  65     0.002175434764
  66    -0.012500306408
  67     0.012571075035
  68     0.004217985528
  69    -0.000361328606
  70    -0.012211657428
  71    -0.007136637535
  72    -0.011019153367
  73    -0.003700065862
  74    -0.046646495398
  75     0.037667308246
  76     0.010711609407
  77    -0.003287652841
  78    -0.002207861227
  79    -0.023695553117
  80    -0.084209295026
  81    -0.171089311794
  82     2.681843914532
  83     0.288421884036
  84    -0.001879366116
  85     0.102734123501
  86     0.077307260364
  87    -0.361790218416
  88     1.720093375433
  89     2.062834541441
  90    -0.259777938304
  91     0.018586998412
  92     0.113872646918
  93    -0.043445804071
  94     0.042560950042
  95     0.000884854029
  96     0.001366633731
  97    -0.002293188205
  98     0.059612059669
  99    -0.523358902483
  100   -0.280664419818
  101    0.804023322301
  102   -0.293499953030
  103   -0.382728323347
  104    1.210197534823
  105    0.054973840037
  106   -0.213480442774
  107    0.082932862760
  108   -0.029283495700
  109   -0.124762593412
  110   -0.209855307010
  111   -0.044471650284
  112    0.411176662557
  113    0.098589195790
  114   -0.083024664257
  115    0.010576121788
  116   -0.028299168064
  117    0.158827163513
  118   -0.034630525421
  119   -0.191407330147
  120    0.021583927545
  121    0.022529491608
  122    0.027667770298
  123   -0.045520914082
  124   -0.023876335749
  125    0.156546764994
  126   -0.084262349683
  127   -0.012552241010
  128   -0.111773208254
  129    0.000323360847
  130   -0.004917889393
  131    0.004594528546
  132    0.003042173758
  133    0.009827743710
  134    0.005144470459
  135   -0.082373999989
  136    0.036229793943
  137    0.046144206046
  138   -0.036914094328
  139   -0.112794259469
  140    0.004003862474
  141    0.006976148171
  142    0.006158491307
  143   -0.004697084313
  144   -0.000663641559
  145   -0.006313852391
  146    0.005900682487
  147   -0.008695843360
  148   -0.001948630730
  149    0.000401117405
  150   -0.009388044432
  151   -0.146020706595
  152   -3.824148234513
  153    0.409745159766
  154   -0.035435167455
  155    1.936755305585
  156    0.537621847024
  157    0.108363805901
  158    0.063484239455
  159   -0.096017151166
  160   -0.016642760179
  161   -0.081778340464
  162   -0.073020560480
  163   -0.060552199414
  164    0.036779880089
  165    0.023758858255
  166    0.055615368351
  167    0.078995882010
  168   -0.006205637793
  169   -0.005810915264
  170    0.049781053383
  171   -0.014939504979
  172    0.002633662666
  173   -0.016580323672
  174   -0.004594381823
  175    0.009993354576
  176    0.084007793008
  177   -0.040207447860
  178    0.014300647872
  179    0.001107874996
  180    0.011210315388
  181   -0.015936632916
  182    0.098290097994
  183    0.036442097720
  184    0.011753699518
  185    0.009483945730
  186    0.002831258577
  187    0.014272232454
  188    0.099707079330
  189   -0.098021878470
  190    0.020517372993
  191   -0.007000837676
  192    0.002309143535
  193    0.007175330054
  194    0.039003971782
  195   -0.006684314486
  196    0.005845676433
  197    0.001368244701
  198    0.020032064978
 Sym=     1a
 Ene= 2.36226121801901E+00
Spin= Alpha
 Occup= 0
  1      0.009666345421
  2     -0.015018340272
  3      0.148416305684
  4     -0.128459942145
  5     -0.218342886319
  6      0.033479383112
  7      0.022855907212
  8      0.010748474600
  9     -0.297788215509
  10    -0.108056618959
  11     0.054383306509
  12     0.002517961232
  13    -0.202704837689
  14    -0.324324165764
  15    -0.006067506030
  16    -0.004915901496
  17     0.010983407526
  18     0.005043347982
  19     0.011045190726
  20     0.028469857246
  21    -0.028094887788
  22     0.072513123153
  23    -0.044418235365
  24    -0.049461238120
  25    -0.053903741602
  26    -0.213419594121
  27     0.013427842138
  28     0.031774291019
  29     0.012846196144
  30    -0.027661208716
  31    -0.026830316254
  32    -0.033575497723
  33     0.009645868029
  34    -0.015799368539
  35     0.016340517025
  36     0.012171274464
  37    -0.023331687576
  38    -0.088909719488
  39    -0.136923713130
  40     2.572802193969
  41     0.250364144322
  42     0.007254784506
  43     0.121778392273
  44     0.086784291054
  45    -0.012189046715
  46     1.722988220597
  47     2.060974034869
  48     0.196136619131
  49     0.007054758716
  50     0.027770083463
  51    -0.036801134238
  52     0.039637025907
  53    -0.002835891669
  54    -0.006856893981
  55     0.002221130726
  56     0.060758506973
  57    -0.708422272446
  58    -0.088016481658
  59     0.796438754104
  60     0.171891479745
  61     0.153037232655
  62     1.284835879406
  63    -0.014864284346
  64    -0.187874020491
  65     0.068286173344
  66     0.012500946382
  67    -0.163019580615
  68    -0.229591588501
  69     0.007441583758
  70     0.415079029230
  71     0.137976073189
  72     0.023760220808
  73    -0.008414873376
  74    -0.021189699601
  75     0.047372974292
  76    -0.009875116543
  77    -0.002923680401
  78     0.002634969664
  79     0.003752249291
  80    -0.011643589296
  81     0.033834836220
  82     0.209865709107
  83    -0.009769633237
  84    -0.019659271612
  85    -0.011380206261
  86     0.006797245789
  87    -0.191008319346
  88    -0.016258275888
  89    -0.112850619779
  90     0.018327438904
  91     0.067647153747
  92    -0.030690498915
  93     0.007304132065
  94    -0.004781059759
  95    -0.002523072306
  96     0.002425789131
  97    -0.002304476001
  98    -0.002080169950
  99     0.048076195234
  100   -0.031029142413
  101   -0.017047052821
  102   -0.016612859643
  103    0.077031497882
  104    0.007676949843
  105   -0.008911786449
  106    0.004573327091
  107    0.003649518601
  108    0.012674219046
  109    0.005006866251
  110   -0.002282857475
  111   -0.000717802866
  112   -0.011142628407
  113   -0.002613485531
  114    0.009899335935
  115    0.009079440697
  116   -0.024635021929
  117    0.153976019220
  118   -0.162063195933
  119   -0.210971593322
  120   -0.021333198488
  121    0.015050936139
  122    0.028233076525
  123    0.038452997674
  124   -0.045692945209
  125    0.063748953504
  126    0.082436345321
  127    0.016101225146
  128   -0.139535473626
  129   -0.000620701413
  130   -0.006289228169
  131    0.006909929582
  132   -0.000974296160
  133   -0.009193458981
  134    0.002455787944
  135   -0.049135250314
  136    0.051853139828
  137   -0.002717889514
  138   -0.000600383936
  139    0.106020639931
  140    0.011566419510
  141   -0.000627989106
  142    0.004827330798
  143   -0.004912190006
  144   -0.003613189511
  145   -0.004718054497
  146    0.003997428052
  147    0.004455725310
  148   -0.001758489392
  149    0.002592966411
  150    0.010244111051
  151   -0.008092148222
  152    0.080208599314
  153   -0.028103203984
  154   -0.001001978290
  155   -0.016583201304
  156   -0.008108580713
  157   -0.012313293590
  158    0.084948168851
  159    0.026383175792
  160   -0.011281462938
  161    0.005878545636
  162    0.002901489785
  163    0.005930933142
  164    0.049774190035
  165   -0.028444974274
  166   -0.005524506576
  167   -0.001064109835
  168    0.009380839397
  169   -0.153559395354
  170   -3.849855379383
  171    0.459758438134
  172   -0.002567841783
  173    1.951186197658
  174    0.534228977145
  175   -0.033627150274
  176    0.036174593607
  177   -0.010956723687
  178   -0.076493375760
  179    0.044039840160
  180    0.004972263459
  181    0.108704890167
  182    0.003627403508
  183   -0.102942901240
  184    0.015626814262
  185   -0.086150467928
  186   -0.071829577165
  187    0.004422726379
  188    0.048382306513
  189    0.003172813707
  190   -0.002581483921
  191   -0.000996034785
  192    0.020336210275
  193    0.012640606241
  194    0.110497796977
  195   -0.109129089812
  196   -0.018046007530
  197   -0.010931557687
  198    0.009663041137
 Sym=     1a
 Ene= 2.37622483186145E+00
Spin= Alpha
 Occup= 0
  1     -0.028569092725
  2      0.062355577291
  3     -0.548509350844
  4      1.226453926325
  5      0.418894510179
  6     -0.039392979259
  7     -0.012853603050
  8      0.052399087419
  9      0.216326654151
  10     0.168123053374
  11    -0.243803576371
  12     0.503262789943
  13     0.051920923435
  14    -0.500740537030
  15    -0.013157911185
  16     0.049840410028
  17    -0.036682498843
  18     0.006711469037
  19     0.090972413715
  20     0.014927161948
  21     0.075590999107
  22    -0.434678369460
  23     0.359087370353
  24    -0.047554871146
  25    -0.770863074375
  26    -0.044360297271
  27    -0.016088637117
  28     0.027440423921
  29    -0.059728133769
  30    -0.033351016307
  31     0.006475604459
  32     0.014485134640
  33     0.054936188063
  34    -0.043290796390
  35     0.065648565726
  36    -0.001714321535
  37    -0.013105487653
  38     0.032785179205
  39    -0.153986521874
  40    -0.245608568589
  41     0.114003764897
  42    -0.023756716932
  43    -0.000802822880
  44     0.033433183791
  45    -0.365467186326
  46     0.075326257218
  47     0.031597376202
  48     0.058662964955
  49     0.003364519045
  50    -0.005961270981
  51     0.002620943945
  52     0.000597914017
  53    -0.003218857962
  54     0.000786728566
  55     0.009018819586
  56    -0.005011832549
  57    -0.178626443442
  58     0.052250112498
  59     0.126376330944
  60     0.010243214934
  61     0.019035091960
  62     0.071869775166
  63    -0.008199380353
  64     0.005823359838
  65    -0.004810927176
  66    -0.006420372109
  67    -0.004802480430
  68    -0.005055892311
  69     0.017420995214
  70    -0.003010376644
  71     0.011510428431
  72     0.007047796890
  73    -0.042459415661
  74    -0.284772656863
  75     0.034375491261
  76    -0.000701050235
  77    -0.012126253274
  78    -0.058894488603
  79     0.003112218429
  80     0.000216188727
  81     0.023420591829
  82    -0.063268833147
  83    -0.021473565784
  84    -0.009429126346
  85     0.016851287036
  86    -0.000526191509
  87    -0.027419269478
  88     0.021593643107
  89     0.243207167240
  90    -0.013375064889
  91    -0.121379750355
  92     0.092677245959
  93     0.007436230137
  94    -0.002639143682
  95    -0.004797086455
  96     0.000136688561
  97    -0.000985046147
  98    -0.009805746899
  99     0.005168986833
  100    0.081690252520
  101   -0.086859239353
  102   -0.012670175653
  103   -0.064797749967
  104    0.074076976682
  105   -0.010729397474
  106   -0.010407515553
  107    0.005343568452
  108   -0.020810991385
  109   -0.001652839880
  110   -0.013414329288
  111    0.035205988651
  112    0.015615987231
  113    0.006245179907
  114    0.002252361221
  115    0.021400939725
  116    0.065741279139
  117    0.248303941783
  118   -2.824720306537
  119   -0.365823686249
  120   -0.013009501870
  121    0.025401001189
  122    0.085986145370
  123   -2.296606801730
  124   -1.221773425483
  125    0.794767198339
  126   -0.488056609690
  127   -0.320383114497
  128   -0.106206269056
  129    0.003114247894
  130    0.031649263049
  131   -0.034763510943
  132    0.004602698917
  133    0.068576519836
  134    0.032812917165
  135   -0.976529032269
  136    0.395086826533
  137    0.581442205736
  138   -0.996522623030
  139    0.435451731350
  140   -0.024811906928
  141   -0.094951818945
  142    0.138349762753
  143   -0.185681524980
  144    0.064143829641
  145   -0.236633770463
  146    0.298671058201
  147    0.063247403408
  148    0.051018085951
  149   -0.049553150989
  150    0.107695934402
  151   -0.018323762756
  152   -0.151570974436
  153    0.056619896467
  154    0.001514027887
  155    0.020047804730
  156    0.027237242891
  157    0.018498449399
  158   -0.103522894563
  159   -0.049699934312
  160    0.003365278000
  161    0.004263641483
  162    0.018718681537
  163   -0.004864615339
  164    0.069633902722
  165   -0.004469322062
  166   -0.008827619141
  167    0.010117013700
  168   -0.011090947605
  169   -0.014982072691
  170   -0.064615894405
  171    0.043564815815
  172    0.017637724809
  173    0.009668955542
  174    0.005549122182
  175   -0.009117145039
  176    0.003388997430
  177    0.023958010106
  178   -0.016818023230
  179    0.007663501687
  180    0.014290271362
  181   -0.010614061806
  182    0.101143914699
  183    0.002610910674
  184    0.018057485970
  185    0.006354629674
  186   -0.000193083878
  187    0.090377727022
  188   -0.148237358933
  189   -0.105583134785
  190    0.004456005310
  191   -0.083685908279
  192    0.050940527098
  193    0.114519905140
  194    3.433094054825
  195   -0.219998913071
  196   -0.476206610105
  197   -0.141881984536
  198    1.867206157242
 Sym=     1a
 Ene= 2.38185039791354E+00
Spin= Alpha
 Occup= 0
  1      0.009464432478
  2     -0.017931407429
  3      0.153229317360
  4      0.006665556927
  5     -0.264788157475
  6      0.020182307906
  7      0.046231429471
  8      0.028891383276
  9     -0.236562645434
  10    -0.217856151883
  11    -0.182623400977
  12    -0.371602560942
  13    -0.406723022991
  14    -0.445976312372
  15    -0.033122308404
  16     0.036389997332
  17    -0.003267688928
  18    -0.004564234988
  19     0.029446330702
  20     0.054054345482
  21     0.184695031236
  22    -0.237063318358
  23     0.052368287122
  24     0.010448812069
  25    -0.340791499583
  26    -0.411823949894
  27     0.006041712705
  28     0.033216207066
  29     0.022652588133
  30     0.003234471194
  31    -0.020144059790
  32    -0.017908784515
  33    -0.011340279379
  34    -0.024420158382
  35    -0.012482851644
  36    -0.034939037886
  37    -0.004001281406
  38     0.008307815250
  39    -0.010312870622
  40    -0.296051931417
  41    -0.009620992796
  42    -0.013645969358
  43    -0.021959404293
  44     0.004026181172
  45    -0.138504500277
  46     0.213014573524
  47     0.119133539928
  48     0.000906761466
  49     0.108418233814
  50     0.100358123459
  51    -0.000137000933
  52    -0.000724838514
  53     0.000861839447
  54    -0.001401891332
  55     0.004219959499
  56     0.000384391633
  57    -0.017890237465
  58     0.029408760201
  59    -0.011518522736
  60     0.141032758779
  61     0.040971680534
  62    -0.046721883442
  63     0.002270156430
  64    -0.012903381102
  65     0.006274138370
  66    -0.002989190620
  67     0.030094474541
  68     0.001786065541
  69    -0.000056543838
  70    -0.012782772171
  71    -0.010203705479
  72    -0.019855856316
  73    -0.001594089847
  74    -0.028890286512
  75     0.010098781004
  76     0.013161536334
  77     0.002904511497
  78    -0.007181153235
  79    -0.020567054046
  80    -0.093075786101
  81    -0.158951836460
  82     2.938065183581
  83     0.275448874349
  84     0.012092034522
  85     0.064828654490
  86     0.111336705799
  87    -0.755613660524
  88     2.091114867148
  89     1.804011705159
  90    -0.336724198595
  91     0.169014514388
  92     0.089227940372
  93    -0.046369298053
  94     0.000201428500
  95     0.046167869553
  96     0.007264329983
  97    -0.006473701263
  98     0.058624844714
  99    -0.471409412169
  100    0.707898857495
  101   -0.236489445326
  102   -0.416005196613
  103   -0.160572780205
  104    1.348532014617
  105    0.057159133433
  106    0.028363068300
  107   -0.223368057415
  108   -0.053563771042
  109   -0.200486783392
  110   -0.115858748278
  111   -0.023123253693
  112    0.162433734130
  113    0.415538444507
  114   -0.076131208806
  115    0.008487905306
  116   -0.019492861398
  117    0.153272621162
  118   -0.299667275036
  119   -0.184572040178
  120   -0.005491028194
  121    0.019918377411
  122    0.022073285504
  123   -0.011690580763
  124   -0.168204992176
  125    0.031089648368
  126    0.064645166341
  127    0.017346260610
  128   -0.092429647225
  129   -0.000620728871
  130   -0.002080761488
  131    0.002701490359
  132   -0.003880683282
  133    0.004109354778
  134    0.002833964183
  135   -0.036991118609
  136   -0.017991506878
  137    0.054982625487
  138   -0.008777879529
  139   -0.083353709881
  140   -0.081960670979
  141    0.006401410984
  142    0.010340220903
  143    0.010879635983
  144   -0.010190163988
  145    0.005742128768
  146    0.001704229668
  147    0.001601769920
  148   -0.019614990873
  149   -0.016300793045
  150   -0.015280635834
  151   -0.157438487027
  152   -3.961016658734
  153    0.400720949379
  154   -0.028035470773
  155    0.537621847024
  156    1.978119451980
  157   -0.046730481975
  158    0.243655605233
  159   -0.000059734580
  160   -0.010491098094
  161    0.000690261028
  162    0.077192600600
  163    0.060421682490
  164    0.357464468520
  165   -0.023556851861
  166   -0.041613526450
  167    0.002198828592
  168   -0.044674612841
  169   -0.000096719601
  170   -0.024001988775
  171   -0.076766826870
  172   -0.013217778314
  173   -0.008107173656
  174    0.000725843942
  175    0.001640536343
  176    0.018468081685
  177   -0.000042948852
  178    0.004229861889
  179    0.001596255553
  180    0.000217969755
  181    0.004202672057
  182    0.050436767820
  183   -0.002541341342
  184    0.015137905700
  185    0.005037532561
  186   -0.006524336800
  187    0.007120557263
  188    0.108646658805
  189   -0.056698101141
  190    0.021319095943
  191   -0.001012773400
  192    0.005453900423
  193   -0.004988540726
  194    0.004083089828
  195    0.014699631474
  196    0.005859503080
  197    0.003650414227
  198    0.027215858631
 Sym=     1a
 Ene= 2.38765015637851E+00
Spin= Alpha
 Occup= 0
  1      0.012578666393
  2     -0.025472105546
  3      0.218311567906
  4     -0.174313044653
  5     -0.298747963722
  6     -0.031877228091
  7      0.043618424138
  8      0.036811519350
  9      0.283153301347
  10    -0.189501346984
  11    -0.241289354151
  12     0.398039452460
  13    -0.340512261606
  14    -0.531787949535
  15    -0.045726656521
  16     0.034136627806
  17     0.011590028715
  18    -0.015313986105
  19    -0.040049610432
  20     0.052796059430
  21     0.314773660217
  22    -0.212784799376
  23    -0.101988860841
  24     0.117757793097
  25     0.437410592612
  26    -0.385927356161
  27    -0.007314697538
  28     0.029649510027
  29     0.018354946379
  30    -0.020327534498
  31    -0.006274995081
  32    -0.027091097467
  33     0.030141231056
  34    -0.033503996870
  35     0.002465352771
  36     0.035400290108
  37    -0.020680663178
  38    -0.090224967951
  39    -0.178103077498
  40     2.996713711459
  41     0.296972447754
  42    -0.023126328550
  43     0.050760081261
  44     0.107589669633
  45     0.591762683381
  46     2.295223681010
  47     1.668187732250
  48     0.329489954966
  49     0.292922420782
  50     0.070029248863
  51    -0.042401274901
  52    -0.003693378690
  53     0.046094653591
  54    -0.016458416272
  55     0.001730620702
  56     0.061589732952
  57    -0.537286377063
  58     0.844034946187
  59    -0.306748569124
  60     0.335572005000
  61    -0.048071584798
  62     1.277680703028
  63     0.000891013329
  64     0.048034001925
  65    -0.226210566021
  66     0.016489085797
  67    -0.201949095274
  68    -0.120082763234
  69    -0.017684505621
  70     0.137504719153
  71     0.423576084945
  72     0.009190287915
  73     0.001240386381
  74    -0.039631903112
  75     0.003723365435
  76    -0.014675701282
  77    -0.001259794623
  78    -0.006906225520
  79    -0.004686324642
  80     0.009012429758
  81    -0.015999345425
  82    -0.298899434261
  83    -0.005651443667
  84     0.020012931420
  85    -0.017661991005
  86     0.003345525438
  87     0.087383767206
  88     0.246707314003
  89     0.131099437216
  90    -0.019369890773
  91     0.119173584093
  92     0.099607867222
  93    -0.001534101721
  94    -0.000364515495
  95     0.001898617216
  96     0.001327100398
  97    -0.005014483261
  98    -0.001172665227
  99     0.038243541757
  100   -0.026330415507
  101   -0.011913126250
  102   -0.150889568581
  103   -0.033521052365
  104   -0.028366395480
  105   -0.020752766740
  106   -0.004946955361
  107    0.004200364990
  108    0.020665676285
  109    0.025145789259
  110   -0.000267879878
  111    0.007177082006
  112   -0.018508752178
  113   -0.005367501110
  114    0.014410312792
  115    0.009171002603
  116   -0.021044609592
  117    0.153360702016
  118   -0.227958105028
  119   -0.170602003631
  120    0.003720652818
  121    0.021674905147
  122    0.022394211760
  123    0.072564319015
  124   -0.137698618624
  125    0.071811188103
  126   -0.091005030536
  127   -0.005534051635
  128   -0.069780944369
  129   -0.003732242359
  130    0.000010448466
  131    0.003721793893
  132    0.004122659644
  133   -0.003982199353
  134    0.001420289681
  135   -0.019011590577
  136   -0.022961791710
  137    0.041973382287
  138   -0.000020281294
  139    0.122767625452
  140   -0.047252776841
  141   -0.010038407837
  142    0.015166129731
  143    0.009291243450
  144    0.006311103412
  145    0.002969948527
  146   -0.002476065457
  147    0.007156833973
  148   -0.023317446747
  149   -0.009989445713
  150    0.014840024290
  151    0.001865558439
  152   -0.042501149678
  153   -0.070920371560
  154    0.015793843674
  155   -0.004595179211
  156    0.000725969917
  157    0.002182450031
  158    0.053409576618
  159    0.003160115708
  160   -0.017324306759
  161    0.000775955722
  162   -0.003008038351
  163    0.004088274318
  164    0.036989931740
  165   -0.006691806949
  166   -0.008019206229
  167   -0.000380872220
  168    0.002903954949
  169   -0.153066841646
  170   -3.936134620288
  171    0.369753716432
  172   -0.035911774420
  173    0.534228977145
  174    1.973307035267
  175    0.045295043149
  176    0.357937174200
  177   -0.003810161702
  178    0.035056503908
  179    0.021681891468
  180   -0.051664953135
  181   -0.047652545038
  182    0.278807285822
  183    0.004557528782
  184    0.026537378556
  185    0.010678816735
  186    0.073075699491
  187   -0.003958813639
  188   -0.003235447773
  189    0.009467875737
  190   -0.003183764748
  191    0.003249584659
  192    0.027746694070
  193    0.007706442174
  194    0.102477589785
  195   -0.047393331921
  196   -0.019415474659
  197   -0.006009951164
  198    0.005545727839
 Sym=     1a
 Ene= 2.39520535679579E+00
Spin= Alpha
 Occup= 0
  1      0.023034807093
  2     -0.036519905428
  3      0.545165845399
  4     -2.777644561551
  5     -0.311352985999
  6     -0.249209687519
  7     -0.019822454108
  8      0.036070665830
  9      12.269888618121
  10     1.164467342229
  11    -1.821992253455
  12     4.113053921397
  13     0.342998560399
  14    -0.611835285869
  15     0.001248080465
  16    -0.008843316439
  17     0.007595235974
  18    -0.037527829882
  19     0.632000854718
  20    -0.019411834634
  21    -0.296499580693
  22     0.723293098405
  23    -0.426793517712
  24     1.833131418974
  25     7.228431451091
  26     0.578571233272
  27     0.220380363922
  28    -0.081357528442
  29     0.003553830857
  30    -0.431264082535
  31     0.100190692355
  32    -0.106893543583
  33     0.135592797754
  34     0.008961886092
  35     0.102125579157
  36     0.089117544071
  37    -0.009349491675
  38    -0.041998493382
  39    -1.666288953407
  40     13.165312068477
  41     2.584658047811
  42    -0.151101336346
  43     0.055573581282
  44     0.032996310919
  45     8.219806140071
  46    -0.829200244741
  47    -4.151441756676
  48     1.780407416515
  49    -0.445736657157
  50    -1.061589103979
  51     0.053098307898
  52    -0.070388892409
  53     0.017290584511
  54    -0.002554054531
  55    -0.091438165572
  56     0.016220804508
  57     2.335606434536
  58    -1.378615613871
  59    -0.956990820665
  60    -0.440067190849
  61    -2.793443695197
  62    -0.063028910011
  63     0.221261605066
  64     0.023908958629
  65     0.351150814846
  66    -0.298983641816
  67    -0.089025147716
  68    -0.667527942795
  69     0.002130047973
  70     0.056947913656
  71     0.196409687385
  72     0.054684106934
  73     0.018765575266
  74     0.011964356148
  75    -0.021975035652
  76    -0.012545503626
  77     0.005699044136
  78    -0.012881798510
  79     0.000516217939
  80     0.036537122033
  81     1.244069563768
  82    -10.257664667098
  83    -2.052639832204
  84    -0.091421795019
  85    -0.093436747937
  86     0.017404241630
  87     6.514906123129
  88     2.411010970456
  89     1.911203685251
  90     1.408304523517
  91     0.899009915668
  92     0.750771794881
  93    -0.042313098020
  94     0.049837056312
  95    -0.007523958292
  96    -0.024207870284
  97    -0.064909188066
  98    -0.033863438943
  99    -2.139751364920
  100    0.608156654876
  101    1.531594710044
  102   -1.297586254816
  103   -1.474888945755
  104   -0.126780381450
  105    0.279499425842
  106   -0.122112656230
  107   -0.253662926161
  108   -0.106446179640
  109    0.311695600094
  110    0.390686305367
  111   -0.268541649872
  112   -0.147864279948
  113   -0.050361777606
  114    0.161558504019
  115   -0.005041338827
  116    0.006137978683
  117   -0.026355505728
  118   -0.182322530327
  119   -0.034236951516
  120   -0.063150740353
  121   -0.005693599887
  122   -0.008296595967
  123    1.567379711160
  124    0.060537875774
  125   -0.182456071182
  126   -0.273886865729
  127   -0.064964784237
  128   -0.082558542025
  129   -0.003044088188
  130    0.000823460277
  131    0.002220627911
  132   -0.021126269311
  133   -0.040415293472
  134   -0.001862421530
  135    0.066944900016
  136    0.028345703646
  137   -0.095290603662
  138    0.750752571217
  139    1.006464583556
  140   -0.026147945018
  141   -0.174104012794
  142    0.005327906601
  143   -0.004970763517
  144    0.012709443727
  145    0.022411990042
  146    0.009369367419
  147    0.220875600930
  148   -0.029560126844
  149   -0.002700388344
  150    0.247064835992
  151   -0.036941428789
  152    0.005837569554
  153   -0.547995671480
  154   -0.069957701300
  155   -0.007180208888
  156   -0.103718703183
  157    0.041478395346
  158    0.659036510502
  159   -0.144678015062
  160   -0.176465510950
  161    0.052538537226
  162   -0.106027884668
  163    0.000890487134
  164   -0.283694757248
  165   -0.432060072554
  166    0.030434173972
  167    0.048434794884
  168    0.084865655169
  169    0.032317404148
  170   -0.093103775034
  171    0.496509956190
  172   -0.054651585650
  173    0.008383529201
  174    0.124351731904
  175    0.021641844248
  176    0.280972694353
  177    0.456659415877
  178    0.001520056564
  179   -0.031197169744
  180   -0.065469448886
  181   -0.038194325402
  182   -0.610980216618
  183    0.150932417207
  184   -0.139976385062
  185   -0.094095653367
  186    0.141507472651
  187   -0.031474256635
  188    0.310386299249
  189   -0.149143548297
  190   -0.001834764475
  191    0.095965445146
  192    0.138685717609
  193    0.017562880747
  194   -0.351154554407
  195    0.005036299709
  196   -0.005209315738
  197   -0.090107310516
  198   -0.139936767357
 Sym=     1a
 Ene= 2.39965599585474E+00
Spin= Alpha
 Occup= 0
  1     -0.000283882230
  2      0.006171648019
  3     -0.051614149273
  4      0.564287254795
  5     -0.158322304661
  6      0.017990577705
  7      0.017328615300
  8     -0.020347229569
  9     -0.038790466955
  10     0.024306797949
  11     0.136881827088
  12    -0.167716780957
  13     0.081843331978
  14     0.507608294227
  15    -0.013088548350
  16     0.011481987667
  17     0.001606560683
  18     0.031504842904
  19    -0.024933375573
  20    -0.012763494346
  21     0.192371650032
  22    -0.124942435421
  23    -0.067429214611
  24    -0.233885960743
  25     0.143121962887
  26     0.016584207200
  27     0.004785146198
  28    -0.008604563169
  29     0.019816820393
  30    -0.003022550058
  31    -0.016733231119
  32    -0.010488656909
  33    -0.003397397251
  34     0.028277464017
  35    -0.016098397589
  36    -0.008174734176
  37     0.006263923164
  38    -0.014865750487
  39     0.149971271319
  40    -0.501436109667
  41    -0.229052486109
  42     0.019899308739
  43     0.005911371256
  44    -0.015192370748
  45    -0.145983864403
  46    -0.122827320466
  47     0.137589712081
  48    -0.109591218892
  49     0.064886649586
  50     0.019942428444
  51     0.000144248142
  52     0.000447257835
  53    -0.000591505977
  54    -0.000490892820
  55    -0.004109353236
  56     0.005031300362
  57     0.020420227556
  58     0.035283729177
  59    -0.055703956733
  60    -0.048859395944
  61     0.074116117769
  62    -0.042566707474
  63     0.003587651227
  64     0.005480337045
  65     0.010983534350
  66     0.011909247475
  67    -0.005018783415
  68     0.001853469166
  69    -0.016722586689
  70    -0.002333860287
  71    -0.016589426830
  72     0.008653318793
  73    -0.016087549511
  74     0.103121280314
  75    -0.032440229985
  76     0.037723827447
  77    -0.048016147376
  78    -0.006423632985
  79    -0.000672847873
  80     0.002928828496
  81     0.017201464342
  82    -0.227703346183
  83    -0.024928908700
  84    -0.001715544453
  85    -0.011091377868
  86     0.016331438673
  87     0.091136255931
  88     0.190283398588
  89     0.000601905350
  90     0.096966657038
  91     0.016874454411
  92    -0.054393444242
  93     0.000813945878
  94     0.000327970827
  95    -0.001141916705
  96    -0.000119536082
  97    -0.000876484638
  98     0.000552934113
  99    -0.037124369263
  100   -0.030188995084
  101    0.067313364347
  102   -0.101883887743
  103    0.027916676767
  104   -0.012250830178
  105    0.002708883609
  106   -0.005351236051
  107    0.001045629404
  108    0.016940365394
  109    0.009953838934
  110   -0.008501950952
  111   -0.020574714131
  112   -0.002774402389
  113    0.007099091896
  114    0.016257279550
  115   -0.020966618243
  116   -0.102517130875
  117   -0.099655278872
  118    2.747570777819
  119    0.211670944161
  120    0.144063172655
  121    0.041298656629
  122   -0.078487687895
  123    2.062438877644
  124    0.874162500444
  125   -1.686801206206
  126    0.075761856752
  127    0.127496179855
  128    0.120469219787
  129    0.048329382785
  130   -0.036269635461
  131   -0.012059747324
  132    0.021264531618
  133   -0.051321929783
  134   -0.017718568418
  135    0.119950513507
  136   -0.418894118567
  137    0.298943605060
  138    0.727788074911
  139   -1.342616435220
  140   -0.614230254686
  141   -0.141195976772
  142   -0.180850536514
  143    0.096951435817
  144   -0.092836304179
  145    0.120832274698
  146   -0.213903127952
  147    0.282270585505
  148    0.121804181350
  149    0.083829127350
  150   -0.284485896315
  151   -0.004744579781
  152   -0.033911573620
  153    0.014642959774
  154    0.001163305694
  155    0.005850269544
  156    0.005864107055
  157    0.007673380809
  158    0.040403338890
  159   -0.014943211608
  160   -0.011648927785
  161    0.001179996787
  162   -0.009088799586
  163   -0.006486683203
  164    0.048067888681
  165   -0.092377705562
  166   -0.003808896428
  167    0.000539883291
  168    0.013483925810
  169    0.005653338672
  170    0.128777476579
  171   -0.086729357713
  172    0.001096205892
  173   -0.018057052852
  174   -0.019427358184
  175   -0.007332359875
  176    0.028838189574
  177    0.028056633937
  178    0.020035670172
  179   -0.012524752956
  180   -0.011588163462
  181   -0.010876409556
  182    0.010767719077
  183    0.033882236634
  184   -0.004925599935
  185   -0.001713077431
  186   -0.012780052198
  187    0.089763351170
  188    0.298731042830
  189   -0.082059484147
  190   -0.029462657057
  191    0.006538140827
  192    0.026774867373
  193   -0.173025817062
  194   -4.075669260347
  195    0.511185012806
  196    2.024817903068
  197    0.220962699791
  198   -0.476206610105
 Sym=     1a
 Ene= 2.43824993117539E+00
Spin= Alpha
 Occup= 0
  1      0.303516810478
  2     -0.389080414282
  3      2.491419907661
  4     -11.745110294925
  5      10.592938533738
  6     -0.004314118474
  7     -0.049375970189
  8     -0.144756666502
  9      0.031243853353
  10     1.358274560371
  11     2.651729766537
  12    -0.273751538328
  13    -4.600043530510
  14    -12.060094463045
  15     0.023442625642
  16     0.006712393809
  17    -0.030155019451
  18    -0.001430219961
  19     0.002520162302
  20    -0.055294750355
  21     0.541777530926
  22     1.103822635086
  23    -1.645600166012
  24    -0.186922651929
  25     0.006923809877
  26    -1.470848315979
  27    -0.020703327773
  28    -0.059832124540
  29     0.181987155691
  30    -0.008768325724
  31    -0.082932123059
  32    -0.270142817005
  33     0.036544754681
  34     0.163205341686
  35     0.025981426311
  36    -0.022698854409
  37    -0.071449292859
  38     0.113341702270
  39    -0.740618873159
  40     2.368237796188
  41     5.729474620289
  42    -0.165859764737
  43    -0.047784403187
  44     0.007110876824
  45     1.707812636357
  46     0.309967641190
  47    -0.400869292099
  48     2.130528815070
  49    -0.495103440637
  50    -0.176304585562
  51    -0.054866799792
  52     0.000602163248
  53     0.054264636544
  54    -0.028693196178
  55    -0.042522552962
  56    -0.016756994217
  57     0.748975679236
  58    -0.421525053947
  59    -0.327450625289
  60     0.124553511411
  61    -0.196342549634
  62     0.306176596034
  63     0.059232662956
  64    -0.003403311779
  65     0.004163141926
  66    -0.046391560508
  67    -0.002324417953
  68    -0.050828459741
  69    -0.033077396006
  70     0.006890439844
  71     0.045243018733
  72     0.017952484628
  73    -0.377681232296
  74    -0.586319301695
  75     4.942759271692
  76     0.056867863778
  77    -0.474540648652
  78    -0.005663507607
  79    -0.071332140948
  80     0.112956684818
  81    -0.736648022483
  82     2.350473568952
  83     5.714883572802
  84     0.171462443685
  85    -0.005441905695
  86    -0.018311087245
  87    -1.761234375094
  88    -0.124227205864
  89    -0.138546213395
  90    -1.935086902881
  91    -0.983618617060
  92     0.105843091691
  93    -0.050368348629
  94     0.008821075438
  95     0.041547273191
  96     0.009827133745
  97     0.062283753586
  98    -0.006802637962
  99     0.731404883902
  100   -0.388906703355
  101   -0.342498180547
  102    0.252675618068
  103   -0.063491122442
  104    0.311532776279
  105   -0.055564737441
  106    0.020316300083
  107   -0.008270511606
  108    0.035901026545
  109   -0.049720475005
  110   -0.016683306441
  111    0.038646891496
  112    0.022463298182
  113    0.027779362137
  114   -0.031658073845
  115    0.037001573897
  116    0.223190777435
  117   -4.160085313940
  118    16.996136252750
  119   -35.955610123455
  120   -0.001903069081
  121   -0.003557041872
  122   -0.039029553505
  123    0.051403833850
  124    1.344198631341
  125    3.082246074920
  126   -0.181954495874
  127   -1.861398806413
  128   -5.792404918014
  129   -0.036713834768
  130   -0.063412460021
  131    0.100126294789
  132    0.009869161952
  133    0.000753123800
  134    0.085164348035
  135   -0.388411147358
  136   -0.273181925404
  137    0.661593072762
  138    0.022515207293
  139    0.015776084405
  140    0.565430456158
  141   -0.125151824999
  142   -0.389070682827
  143    0.235734390365
  144    0.118385802025
  145    0.149919829639
  146   -0.498801503943
  147    0.049522990898
  148    0.372073267273
  149    0.182530631049
  150   -0.081329967784
  151   -0.056420224035
  152   -0.271322697187
  153    0.139755961726
  154   -0.000551468640
  155    0.077082002331
  156    0.022147935110
  157    0.073824000887
  158   -0.074435046258
  159   -0.861729353303
  160    0.018058123395
  161    0.058521388235
  162    0.055733474270
  163    0.019752375046
  164   -0.275957406495
  165   -0.123368353586
  166   -0.031427302804
  167    0.043287165787
  168    0.004653516625
  169   -0.056013196021
  170   -0.270482591606
  171    0.148289267982
  172   -0.015398887596
  173    0.075576201748
  174    0.021839664006
  175    0.018434754316
  176   -0.280480208684
  177   -0.103377457145
  178    0.019546010067
  179    0.049179267999
  180   -0.000475209909
  181    0.073978601166
  182   -0.063236625335
  183   -0.878981019693
  184   -0.024095750686
  185    0.055430305115
  186    0.057310383185
  187   -0.289349834605
  188   -0.995492841964
  189    4.538120939772
  190   -0.415898217435
  191   -0.016276236094
  192   -0.278582803196
  193   -0.288483544881
  194   -0.996255002591
  195    4.539104911511
  196    0.365190676876
  197    0.078043790995
  198   -0.333142016099
 Sym=     1a
 Ene= 2.43928290730794E+00
Spin= Alpha
 Occup= 0
  1      0.303523392151
  2     -0.389077880775
  3      2.491119297437
  4     -11.743096059907
  5      10.592744910460
  6     -0.131097483953
  7      0.023206174164
  8      0.075685860870
  9      2.486310021742
  10    -0.056577745582
  11    -1.644295094858
  12    -11.003511741385
  13     1.516152851992
  14     6.552541165036
  15    -0.030751978991
  16     0.036118048055
  17    -0.005366069064
  18    -0.013529149478
  19     0.048549377303
  20     0.001249939919
  21    -1.397554927583
  22     1.406264100813
  23    -0.008709173230
  24     0.142452916261
  25     1.402996861477
  26    -0.627276815302
  27     0.015456246123
  28     0.009666354815
  29     0.152913595501
  30    -0.064364017972
  31    -0.089124656264
  32    -0.298087714136
  33     0.043627287767
  34     0.076155880387
  35     0.092932597601
  36     0.000887195516
  37     0.037216407340
  38     0.223718542038
  39    -4.165354286628
  40     17.002912114042
  41    -35.934544249124
  42    -0.033875800732
  43     0.013945896277
  44     0.014904103404
  45     2.847962290833
  46    -0.249757775300
  47    -1.771504985718
  48    -5.218199365904
  49     1.012830168702
  50     2.964115056720
  51     0.082632040782
  52    -0.080613205844
  53    -0.002018834938
  54    -0.011602191486
  55    -0.085392050888
  56     0.035038274418
  57     0.514695227019
  58    -0.458995832851
  59    -0.055699394168
  60    -0.083853093163
  61    -0.651249143122
  62     0.101346495728
  63     0.032957608391
  64    -0.102592662593
  65     0.059477704815
  66    -0.052395587650
  67     0.022804858174
  68    -0.573400685453
  69     0.008178316007
  70     0.114837642356
  71     0.493602970786
  72     0.059782925429
  73     0.074182012255
  74    -0.071495606492
  75    -0.865942703314
  76     0.047736460645
  77     0.013064263404
  78    -0.066429237477
  79    -0.071339424871
  80     0.113161988808
  81    -0.738753352310
  82     2.361645501607
  83     5.718978067808
  84     0.077665588704
  85     0.047337358675
  86     0.146511764839
  87    -1.110400712057
  88    -0.493173106661
  89    -1.299358504584
  90    -1.219546789926
  91    -1.415803108595
  92    -1.147055168934
  93     0.058916744958
  94     0.006963198571
  95    -0.065879943529
  96    -0.023799246902
  97    -0.011785997244
  98    -0.030285360475
  99     0.098788904298
  100   -0.403687211618
  101    0.304898307320
  102    0.477129735556
  103    0.362343741254
  104    0.419473036311
  105    0.001259736172
  106    0.027915495116
  107    0.010732662638
  108    0.004706493160
  109   -0.021157941894
  110   -0.037892142557
  111   -0.006396606588
  112   -0.016294624930
  113    0.023492764614
  114   -0.069103213181
  115   -0.071315170273
  116    0.112881990817
  117   -0.735700081918
  118    2.347782686150
  119    5.712269718049
  120   -0.097076180970
  121   -0.086438323352
  122   -0.112999285114
  123    0.689113578865
  124    0.883799816219
  125    1.369629175025
  126    0.872470122839
  127    0.224085410180
  128    1.980776212159
  129   -0.026216541394
  130    0.017390642464
  131    0.008825898930
  132   -0.054871719147
  133   -0.056340176907
  134    0.003579859427
  135   -0.023087183488
  136   -0.435588173621
  137    0.458675357109
  138    0.395900779639
  139    0.314030183733
  140    0.422758814570
  141   -0.028469606049
  142   -0.059764221551
  143    0.033968488864
  144   -0.003797837879
  145    0.022948539530
  146   -0.029737548776
  147    0.041993822530
  148    0.057233577676
  149   -0.015835961339
  150    0.015971749667
  151    0.018074935678
  152   -0.280951290483
  153   -0.101829047470
  154   -0.003006397877
  155    0.027014008177
  156   -0.045170422490
  157    0.074285552616
  158   -0.058980115026
  159   -0.880753875088
  160    0.068284753895
  161    0.032315775714
  162   -0.034881930329
  163   -0.055730352824
  164   -0.270097940833
  165    0.148123729226
  166    0.036402118916
  167    0.056388305660
  168   -0.043651651981
  169   -0.289528956450
  170   -0.999285897401
  171    4.537469749321
  172   -0.049248042852
  173    0.316859400439
  174    0.385252451893
  175   -0.288713213440
  176   -0.998038318449
  177    4.537803002986
  178   -0.451420607145
  179    0.002097739278
  180   -0.216329042582
  181   -0.377716457729
  182   -0.588728907931
  183    4.939245085556
  184   -0.097180350389
  185   -0.384951211908
  186    0.266311555412
  187    0.019430931127
  188   -0.275962726498
  189   -0.118346920014
  190    0.024623498104
  191    0.047173191083
  192   -0.006752233101
  193   -0.056030974946
  194   -0.274589406717
  195    0.139313217177
  196    0.030295385041
  197    0.049331139780
  198   -0.056102231322
 Sym=     1a
 Ene= 2.43940403198333E+00
Spin= Alpha
 Occup= 0
  1      0.001784954595
  2     -0.011696256891
  3      0.088646562995
  4     -0.796951252279
  5      0.240108870124
  6     -0.034571105031
  7      0.005406983776
  8     -0.024962920733
  9      0.283722378721
  10     0.153482816199
  11     0.091346913401
  12     0.547481984653
  13     0.181639842358
  14     0.225822886750
  15     0.011103491766
  16    -0.009873895702
  17    -0.001229596064
  18     0.006832742568
  19    -0.007450445652
  20     0.022224160045
  21    -0.050492180582
  22     0.125362814662
  23    -0.074870634080
  24     0.044379540107
  25     0.138132987006
  26    -0.174706274329
  27     0.005260756325
  28    -0.022197872264
  29    -0.009406723104
  30    -0.008818643126
  31     0.028233460770
  32     0.001946933318
  33     0.001760597873
  34     0.001548110034
  35     0.010673510065
  36     0.011872977739
  37     0.000303750853
  38    -0.002784872867
  39    -0.056441338769
  40     0.511901089890
  41     0.103111809861
  42     0.011253415922
  43     0.013561793177
  44     0.011486054782
  45     0.196001855980
  46    -0.056294202788
  47    -0.179657004555
  48     0.051692974241
  49    -0.069639367114
  50    -0.063363639290
  51     0.007729226420
  52    -0.001648203019
  53    -0.006081023401
  54     0.008955918587
  55    -0.000158996400
  56    -0.000025333796
  57    -0.001989682371
  58    -0.039708001429
  59     0.041697683800
  60    -0.052144189866
  61    -0.084201146954
  62    -0.003118710660
  63    -0.006999211257
  64     0.006604500358
  65    -0.001278252142
  66    -0.002320043315
  67     0.000141472344
  68    -0.009467200781
  69     0.011710470611
  70    -0.009002339399
  71     0.011182155990
  72     0.004816526109
  73    -0.005612566438
  74    -0.039405690824
  75     0.038173812465
  76    -0.004165992081
  77    -0.013651237897
  78    -0.005986339995
  79     0.031249500559
  80     0.090893613469
  81     0.247963609338
  82    -3.140871538523
  83    -0.360307670730
  84    -0.026449328102
  85     0.145722686865
  86    -0.039600455114
  87    -1.016338440999
  88     2.194476141976
  89    -1.453172860045
  90     0.098752428532
  91     0.130598069927
  92    -0.045193879995
  93     0.031708030526
  94    -0.052042518034
  95     0.020334487508
  96     0.041458996533
  97    -0.012842474083
  98     0.046307404757
  99     0.472974567274
  100   -0.605131176353
  101    0.132156609079
  102    0.850381063568
  103   -0.606453880687
  104    1.248017955342
  105    0.231294108059
  106   -0.043645141388
  107    0.211488274638
  108   -0.264217947908
  109   -0.075405499714
  110    0.050458468890
  111   -0.046095661141
  112    0.133961601533
  113   -0.334199764011
  114    0.291171953733
  115    0.001524635069
  116   -0.006106528115
  117   -0.026347193732
  118    0.406768719631
  119    0.034516526113
  120    0.023544388821
  121    0.013097094633
  122    0.001277246804
  123   -0.043205585249
  124    0.029887579629
  125    0.252495077899
  126   -0.101234115333
  127   -0.008903734209
  128    0.053836408397
  129    0.000549226577
  130    0.002235545937
  131   -0.002784772514
  132    0.007533499402
  133    0.006801877876
  134    0.006263840049
  135   -0.059416049582
  136   -0.036410624418
  137    0.095826674000
  138   -0.054077650928
  139   -0.049753448997
  140    0.009519468755
  141    0.003529517289
  142   -0.006238046755
  143    0.008787796144
  144    0.003356554971
  145    0.001921329774
  146    0.000637387226
  147   -0.008091899322
  148    0.006447888181
  149   -0.012427452956
  150   -0.010587017800
  151   -0.070590869077
  152   -0.012791897135
  153    0.050990908660
  154    0.038707401843
  155   -0.092531317106
  156    0.000781022967
  157    0.213174626589
  158    4.104547889182
  159   -0.299566102223
  160   -0.295892484734
  161    2.104278045503
  162   -0.394820925287
  163   -0.018701010643
  164   -0.087381228316
  165    0.025333960909
  166   -0.036888614304
  167   -0.017709375548
  168    0.050421755787
  169    0.015826084504
  170   -0.038089712059
  171    0.017775229346
  172   -0.000463804788
  173    0.006650357263
  174    0.000877833242
  175   -0.004934803691
  176   -0.001285281965
  177    0.050688175305
  178   -0.008398130061
  179   -0.005515559713
  180   -0.000321523798
  181    0.000590203854
  182   -0.072840776530
  183    0.024151660697
  184   -0.012384197166
  185   -0.015695548932
  186    0.003763375433
  187   -0.000367606657
  188    0.028755651266
  189    0.003661387055
  190    0.002001614700
  191   -0.005628465335
  192    0.001490766638
  193    0.010249222949
  194   -0.002076119208
  195    0.020711374940
  196    0.001334105493
  197    0.003754351829
  198    0.004820477128
 Sym=     1a
 Ene= 2.44023607149797E+00
Spin= Alpha
 Occup= 0
  1      0.303698959318
  2     -0.389351579651
  3      2.492216679720
  4     -11.745357231399
  5      10.600599983943
  6      0.131035164493
  7      0.055484197397
  8      0.056925113942
  9     -2.613429692126
  10    -0.680465009455
  11    -1.265361306051
  12     11.105892073678
  13     4.259372520564
  14     5.003283142756
  15    -0.042821484392
  16     0.037438775225
  17     0.005382709167
  18    -0.008625887631
  19    -0.041098246364
  20    -0.010162293835
  21    -1.432556722209
  22     1.153513748400
  23     0.279042973809
  24    -1.036759814834
  25    -0.962978247508
  26    -0.839354536266
  27    -0.047632606564
  28     0.032305457602
  29     0.152002568881
  30     0.015049309316
  31    -0.130950785771
  32    -0.273155595970
  33     0.048856538417
  34     0.087608466226
  35     0.069222749906
  36    -0.076682463107
  37    -0.071271202014
  38     0.112821175191
  39    -0.734592213062
  40     2.341910851727
  41     5.716348078722
  42    -0.064630018106
  43     0.030998016602
  44     0.156699277061
  45     0.989427141841
  46    -0.243969394621
  47    -1.445004840755
  48     1.345831287957
  49    -1.077601999231
  50    -1.323439737133
  51     0.048244891639
  52     0.019106459012
  53    -0.067351350651
  54     0.031700328472
  55    -0.000208356984
  56    -0.033097061775
  57     0.153588399286
  58    -0.554863357039
  59     0.401274957753
  60    -0.242180795046
  61    -0.420665742223
  62     0.369394744541
  63    -0.010282472280
  64     0.022032617410
  65     0.004812955736
  66    -0.013421099307
  67    -0.002655351517
  68    -0.056152628300
  69     0.027216483504
  70    -0.026904506634
  71     0.049695370581
  72     0.042787872982
  73     0.074100778391
  74    -0.061961394696
  75    -0.879680934104
  76    -0.058406750522
  77     0.001752685571
  78    -0.059461614593
  79     0.037014572177
  80     0.223707087163
  81    -4.164524080350
  82     17.005237920360
  83    -35.946488696740
  84     0.030688977753
  85     0.022204609497
  86     0.011105197866
  87    -2.921157929275
  88    -0.963707688552
  89    -1.365565221219
  90     5.174361480039
  91     2.304270010057
  92     2.240439508540
  93     0.084647530629
  94    -0.064788883788
  95    -0.019858646841
  96     0.063074667179
  97     0.058948635434
  98     0.047546656455
  99     0.554748145351
  100   -0.359745231068
  101   -0.195002914283
  102    0.382818067177
  103    0.502266704192
  104    0.213069913785
  105   -0.183133345911
  106   -0.052921837042
  107    0.042415685499
  108    0.130639795040
  109   -0.111553074158
  110   -0.450355429147
  111    0.115059371203
  112    0.182555169229
  113    0.393448815494
  114   -0.313111576096
  115   -0.071382995472
  116    0.113258177246
  117   -0.740679096595
  118    2.370591629364
  119    5.716917195610
  120    0.097658902288
  121   -0.063522679042
  122   -0.127229848501
  123   -0.679506404616
  124    0.727976881992
  125    1.476905174727
  126   -0.620648561366
  127    0.031909651250
  128    2.103040229403
  129   -0.032215328532
  130    0.037215967131
  131   -0.005000638599
  132    0.039347768034
  133    0.059707041622
  134    0.010975082198
  135    0.021979202883
  136   -0.565526297651
  137    0.543547094768
  138   -0.192139938548
  139   -0.336819313921
  140    0.389098638064
  141    0.006334832170
  142   -0.050102136652
  143    0.047505437699
  144    0.029477896953
  145    0.015916251076
  146   -0.038647775454
  147   -0.037976966168
  148    0.051302818948
  149   -0.025087457344
  150   -0.014699458557
  151   -0.288670928086
  152   -1.005046493822
  153    4.534984981422
  154    0.023984071092
  155    0.324478794040
  156    0.382061042594
  157   -0.377570714276
  158   -0.587181347931
  159    4.938315259888
  160    0.225512875988
  161   -0.345965935922
  162    0.240460900908
  163   -0.289750695710
  164   -0.993588312026
  165    4.542922030751
  166    0.401972904377
  167    0.110212226585
  168   -0.277221579110
  169    0.019546504223
  170   -0.274975435307
  171   -0.124215281169
  172   -0.010969031609
  173    0.025110376338
  174   -0.046121892242
  175   -0.055968296923
  176   -0.272212292021
  177    0.138198126226
  178   -0.055814690905
  179    0.043760365508
  180   -0.037349134987
  181    0.074044709147
  182   -0.071293158779
  183   -0.863889452918
  184   -0.078385855690
  185    0.011588990879
  186   -0.023624402974
  187   -0.055885941931
  188   -0.271922720021
  189    0.148423757362
  190   -0.047831383768
  191    0.040713228948
  192   -0.050261351165
  193    0.018174878755
  194   -0.280766592834
  195   -0.099396215193
  196   -0.034377978680
  197    0.040092621857
  198   -0.002588414592
 Sym=     1a
 Ene= 2.45846865946833E+00
Spin= Alpha
 Occup= 0
  1      0.023558744674
  2     -0.050868905468
  3      0.441982689341
  4     -0.813844383639
  5     -0.408754323805
  6      0.066465217985
  7      0.037739503857
  8     -0.021951039455
  9     -0.394607695841
  10    -0.238709103265
  11     0.088584787157
  12    -0.763508317471
  13    -0.241319479434
  14     0.221354329737
  15     0.066426525055
  16    -0.031373013213
  17    -0.035053511842
  18     0.041101367254
  19    -0.063362605571
  20    -0.043111187722
  21    -0.646511370941
  22     0.321095765309
  23     0.325415605632
  24    -0.351727995317
  25     0.432034131570
  26     0.342225220374
  27    -0.051682255004
  28     0.049805265892
  29    -0.004940149762
  30     0.036628209346
  31    -0.079232823290
  32     0.010590622022
  33     0.032710811906
  34     0.012412047187
  35    -0.003962715610
  36    -0.008925050427
  37     0.012324651496
  38    -0.029322214302
  39     0.167468417561
  40     0.020166475196
  41    -0.147161008493
  42     0.029984821059
  43     0.008419477929
  44    -0.022305273789
  45     0.137680129711
  46    -0.204740955729
  47    -0.124140793941
  48    -0.008221418007
  49     0.054195974426
  50     0.087991015800
  51     0.007270592648
  52    -0.006481809931
  53    -0.000788782717
  54    -0.001421719414
  55    -0.000894819708
  56    -0.004550753686
  57    -0.073207015156
  58     0.034836395163
  59     0.038370619993
  60    -0.096889924297
  61    -0.113884190216
  62     0.069818757846
  63    -0.014175919598
  64     0.009128263938
  65    -0.009913848308
  66     0.010998717020
  67    -0.020323180795
  68     0.016017938372
  69     0.008020274899
  70     0.008076329585
  71    -0.002717115131
  72     0.006108097728
  73    -0.007880572118
  74     0.081675356251
  75     0.027945001913
  76     0.011068081614
  77     0.010991351747
  78     0.012530235821
  79    -0.022817022333
  80    -0.084959987513
  81    -0.242859810474
  82     3.251750817825
  83     0.373885420611
  84     0.109252284678
  85     0.014984692911
  86    -0.004363532718
  87     1.403936632711
  88     0.660896996580
  89    -2.713662856940
  90    -0.014552169436
  91     0.005294241796
  92    -0.611757069253
  93     0.049881216411
  94    -0.018401955674
  95    -0.031479260737
  96     0.024503788932
  97    -0.070914260798
  98    -0.012934083001
  99    -0.264350284779
  100   -0.834017028002
  101    1.098367312781
  102    0.484055994073
  103   -0.867495791422
  104   -0.523008339033
  105   -0.162679448949
  106   -0.157850448818
  107   -0.036474663767
  108   -0.084902287367
  109    0.066002836245
  110   -0.108313552629
  111    0.303159671202
  112    0.145775764057
  113    0.157249449213
  114   -0.219748271964
  115   -0.005354346290
  116    0.007203853604
  117   -0.027844949501
  118   -0.188523384135
  119    0.008666963116
  120   -0.001041276045
  121   -0.025112158344
  122   -0.003369716680
  123    0.193364356800
  124    0.106970544890
  125   -0.174334715642
  126    0.093265936425
  127    0.109841506811
  128   -0.093964753578
  129    0.006448225652
  130   -0.004013049435
  131   -0.002435176217
  132   -0.000501692928
  133    0.006712133304
  134   -0.002496863593
  135    0.000986492744
  136    0.100327131720
  137   -0.101313624464
  138    0.103588823245
  139    0.008434156989
  140    0.052802885962
  141   -0.011951943828
  142    0.000882111587
  143   -0.028820285551
  144    0.013589776207
  145   -0.013249345268
  146    0.026560159632
  147    0.002445439110
  148    0.012065868385
  149    0.012106310942
  150    0.023020657378
  151   -0.019426331323
  152    0.313358973783
  153    0.060572706169
  154   -0.042023924192
  155    0.055655000841
  156   -0.041643180981
  157   -0.019658566856
  158    0.347371814431
  159   -0.004058769686
  160    0.015007980287
  161   -0.032625056039
  162   -0.048850303477
  163   -0.145759855011
  164   -4.043933067880
  165    0.306623878646
  166    2.021463251434
  167    0.209199340342
  168   -0.466113901683
  169    0.002057508811
  170   -0.010750193723
  171   -0.008518718963
  172    0.027403701343
  173   -0.005527484103
  174   -0.008023528316
  175    0.012031174231
  176    0.089671185228
  177   -0.040956426468
  178    0.006396768862
  179    0.004947376606
  180    0.020149492633
  181    0.008024745746
  182   -0.081040623727
  183   -0.005074910070
  184   -0.003890144671
  185    0.007714267093
  186    0.017916661777
  187    0.012737218921
  188    0.106060049249
  189   -0.034255812847
  190    0.019327150734
  191    0.003729340102
  192    0.013547292801
  193    0.005588492302
  194   -0.079620798839
  195   -0.040222518743
  196   -0.003808618177
  197   -0.016682296626
  198   -0.008826974258
 Sym=     1a
 Ene= 2.49101633196963E+00
Spin= Alpha
 Occup= 0
  1     -0.150755537991
  2      0.239250036027
  3     -3.568821415621
  4      18.177121363766
  5      2.038596944794
  6     -0.019849100001
  7      0.021097250626
  8      0.111120863742
  9      1.165054234499
  10    -2.204621057411
  11    -5.066041499410
  12     0.342970183520
  13    -0.463197708359
  14    -1.752782701063
  15     0.053299963424
  16    -0.020194581797
  17    -0.033105381627
  18     0.005683503196
  19    -0.017697038424
  20     0.741120572244
  21    -1.234454474786
  22    -1.053080125024
  23     2.287534599810
  24     0.332806585837
  25     0.568167489831
  26     3.893846245057
  27    -0.009756507572
  28     0.043339618503
  29    -0.213195430529
  30     0.017719675052
  31     0.359746618774
  32     0.421650741625
  33    -0.004629946560
  34    -0.417892818628
  35    -0.135619056532
  36     0.011551411715
  37     0.026499722360
  38    -0.010625100629
  39     0.429656296784
  40    -1.746841168167
  41    -0.216415839176
  42     0.073299736227
  43     0.085143425031
  44    -0.055306870867
  45    -1.362041867083
  46    -0.868496281934
  47     0.598575697104
  48     0.266948606871
  49    -0.404355002303
  50     0.014310775608
  51    -0.008045356607
  52     0.006437478641
  53     0.001607877966
  54     0.032011847770
  55     0.022964166893
  56     0.001435506566
  57    -0.506258070223
  58     0.476938577057
  59     0.029319493166
  60    -0.669258619623
  61     0.285747833465
  62    -0.232110955076
  63    -0.075152185037
  64     0.095267567744
  65    -0.017192392510
  66     0.112939844831
  67    -0.186260982345
  68     0.042776194764
  69    -0.012112608191
  70     0.058446127829
  71    -0.019710179755
  72     0.066542556881
  73    -0.053094311525
  74     0.424045234626
  75    -0.035678312680
  76    -0.003024427354
  77     0.125834359096
  78     0.163142291429
  79     0.028175809219
  80    -0.004535903133
  81     0.731407644571
  82    -4.097271233958
  83    -0.695359727145
  84    -0.122193906502
  85     0.032606903512
  86    -0.036446431578
  87     3.065531652035
  88     0.152894479497
  89     0.806953749561
  90     0.172041762442
  91    -0.247288459382
  92     0.166497872058
  93    -0.011018584766
  94     0.006292432042
  95     0.004726152724
  96    -0.036299600683
  97    -0.037287476516
  98    -0.003674956291
  99    -1.186823729896
  100    0.759664322432
  101    0.427159407464
  102   -0.088409043334
  103   -0.423555831555
  104   -0.452816127643
  105    0.208030012082
  106   -0.036253068106
  107   -0.072129521436
  108   -0.196332701586
  109    0.016902437733
  110    0.109495212163
  111   -0.082768847440
  112    0.031736157074
  113   -0.012723304294
  114    0.041707257895
  115    0.035637096862
  116    0.011336704496
  117    1.769241741491
  118   -11.987374503613
  119   -2.342374084612
  120    0.005056293796
  121    0.019843355335
  122    0.213450563641
  123   -0.057241402237
  124   -2.784095355940
  125   -8.004649556974
  126   -0.048614513103
  127   -0.481797056451
  128   -1.394512047319
  129    0.055454054507
  130    0.011712284601
  131   -0.067166339108
  132   -0.003469654724
  133   -0.002104553433
  134   -0.089563023070
  135    1.618323314311
  136    1.205835559366
  137   -2.824158873677
  138    0.033950015544
  139   -0.084147486582
  140   -1.675794750950
  141    0.029827995509
  142    0.247185483335
  143   -0.480499424531
  144   -0.004259703529
  145    0.066434467250
  146    0.387288788755
  147   -0.035758751825
  148   -0.398068593522
  149    0.257368837085
  150    0.005951431574
  151   -0.000790557739
  152    0.468855203659
  153    0.271886231224
  154   -0.113208994243
  155   -0.054323926504
  156   -0.053653175617
  157   -0.044396987466
  158   -0.322351524580
  159    0.056760683586
  160    0.030299537915
  161   -0.022541298841
  162    0.015257998320
  163   -0.014484513736
  164   -0.120714549795
  165    0.249997807905
  166    0.051565514175
  167   -0.038730443002
  168    0.006342471307
  169   -0.001034813407
  170    0.442429857397
  171    0.369364331980
  172    0.108178243311
  173   -0.026025523632
  174   -0.041963565619
  175   -0.013589206408
  176   -0.027192644385
  177    0.348711677263
  178   -0.029413956618
  179   -0.058744861228
  180   -0.004301354097
  181   -0.046840507223
  182   -0.503642630055
  183    0.083719876598
  184   -0.062970447287
  185   -0.045859304776
  186    0.057312195884
  187    0.001945281420
  188    0.102734429424
  189   -0.063764442712
  190    0.046805599276
  191    0.027569132140
  192    0.054947352966
  193    0.001498060580
  194   -0.006079370071
  195   -0.061777874100
  196   -0.038896078853
  197   -0.003317602267
  198    0.029532619910
 Sym=     1a
 Ene= 2.49404272707437E+00
Spin= Alpha
 Occup= 0
  1     -0.004079779666
  2     -0.003399053253
  3     -0.006996306733
  4     -0.374048964324
  5      0.222871604473
  6      0.034905852157
  7      0.014814702523
  8     -0.035848502502
  9     -0.467830243807
  10    -0.003187394681
  11     0.265553068803
  12    -0.588658320443
  13     0.032062224950
  14     0.307884384080
  15     0.012402169299
  16    -0.003747654231
  17    -0.008654515068
  18    -0.003816692947
  19     0.006450189639
  20     0.031949767531
  21    -0.023115734790
  22     0.014103631877
  23     0.009012102913
  24    -0.047516431850
  25    -0.205531204890
  26    -0.274937677495
  27    -0.004350774413
  28     0.002647490800
  29    -0.015795569756
  30     0.023696979897
  31     0.008090064253
  32     0.019012734772
  33    -0.017859803492
  34    -0.011642045892
  35     0.002179245859
  36     0.003499418492
  37     0.034502290074
  38     0.091075498639
  39     0.326510617110
  40    -3.603183948872
  41    -0.458372452595
  42     0.014787824800
  43     0.136342995301
  44    -0.044865983132
  45    -0.103049538393
  46     2.627969339752
  47    -1.570430035175
  48    -0.233975727976
  49     0.187792025706
  50    -0.038573856542
  51     0.047232357535
  52    -0.063580558767
  53     0.016348201232
  54    -0.019310304197
  55     0.000965108514
  56     0.055850747356
  57     0.807387424725
  58    -0.893237678090
  59     0.085850253365
  60    -0.000255252053
  61     0.172106121676
  62     1.513071701874
  63    -0.046865942363
  64     0.067693115785
  65     0.206718303734
  66     0.043004462414
  67    -0.292063059394
  68     0.198172290634
  69     0.019872797359
  70     0.201243214291
  71    -0.475513998239
  72    -0.047233866760
  73    -0.008672697367
  74    -0.061786285945
  75     0.043301244087
  76     0.005516812026
  77    -0.017303448627
  78    -0.010246221376
  79    -0.000049363835
  80    -0.000217346631
  81    -0.073241646819
  82     0.566651982284
  83     0.147858267281
  84    -0.008779373517
  85     0.013352045570
  86     0.010181087993
  87    -0.204779649849
  88    -0.109067164471
  89    -0.124577270074
  90    -0.092004516927
  91    -0.106720029079
  92    -0.018667163179
  93     0.010598286552
  94    -0.005842349225
  95    -0.004755937327
  96    -0.006372572267
  97    -0.002209179075
  98     0.000548784289
  99    -0.005989063450
  100    0.003215928878
  101    0.002773134572
  102    0.054308282121
  103    0.080517651447
  104    0.012794487273
  105    0.002637086652
  106    0.003917501700
  107    0.004340077530
  108    0.000639201642
  109    0.003090513237
  110   -0.013048253885
  111   -0.004177224652
  112   -0.008346393299
  113    0.007225428854
  114   -0.013830405865
  115    0.002079662635
  116   -0.005763522221
  117   -0.021499208572
  118    0.383010533099
  119    0.030675192680
  120   -0.025604302574
  121    0.011153972335
  122    0.003337149781
  123    0.052103385230
  124   -0.009206408367
  125    0.239539614036
  126    0.092078686411
  127    0.006045672075
  128    0.050342070866
  129    0.002265714598
  130    0.000231192048
  131   -0.002496906646
  132   -0.005936429988
  133   -0.009677407792
  134    0.006105178585
  135   -0.067820495266
  136   -0.020533906113
  137    0.088354401379
  138    0.026390738498
  139    0.083256832936
  140   -0.011621776361
  141   -0.006592860642
  142   -0.006176040828
  143    0.007550734254
  144   -0.001353532516
  145    0.005828174728
  146   -0.001504030636
  147    0.010198783253
  148    0.002457853547
  149   -0.008626342407
  150    0.012318293229
  151    0.018513970433
  152   -0.076644989113
  153    0.022702881168
  154    0.001212745002
  155    0.010728409202
  156    0.005698547020
  157    0.001386415297
  158   -0.110373431445
  159    0.020646568479
  160    0.022361830095
  161   -0.015691784243
  162    0.004521310814
  163   -0.006335100455
  164    0.003129599818
  165    0.096276504785
  166    0.008720302803
  167   -0.003604128154
  168   -0.005687375837
  169   -0.077560218403
  170   -0.054943219156
  171    0.042407270571
  172   -0.027157522984
  173   -0.097438040613
  174    0.012077972457
  175   -0.000817343919
  176   -0.171458537999
  177    0.005029536829
  178    0.042780448607
  179    0.024019250700
  180    0.038787541957
  181    0.224048085381
  182    4.430902499284
  183   -0.288028050064
  184    0.075474248540
  185    2.194307276710
  186   -0.462730872016
  187    0.010402707605
  188   -0.018531389553
  189    0.022017987658
  190   -0.003966951687
  191    0.001740674229
  192    0.005329081934
  193    0.001033267449
  194    0.053604974895
  195    0.018118521111
  196   -0.001936342421
  197   -0.004292802822
  198    0.007182827107
 Sym=     1a
 Ene= 2.52883779947123E+00
Spin= Alpha
 Occup= 0
  1     -0.002637761379
  2     -0.000831624900
  3      0.000282564804
  4     -0.458449529098
  5      0.207258698661
  6      0.031677692017
  7     -0.014914352486
  8      0.011642688469
  9     -0.088516225683
  10     0.012572787400
  11    -0.058187830402
  12    -0.283058361188
  13    -0.131768018541
  14    -0.483729644344
  15    -0.015249597574
  16     0.009317477483
  17     0.005932120091
  18     0.029678036411
  19    -0.027486971665
  20     0.001140891655
  21     0.018783920068
  22    -0.047661588989
  23     0.028877668921
  24    -0.250565849041
  25     0.163894473583
  26     0.066297715455
  27    -0.001177662222
  28     0.014215453633
  29    -0.027574931274
  30     0.006156423097
  31     0.013677077831
  32     0.019713656977
  33    -0.004576423427
  34    -0.032749110223
  35     0.017281995505
  36    -0.019780552706
  37    -0.000400742477
  38     0.000588233665
  39    -0.025120291928
  40     0.149823514975
  41     0.025289990193
  42    -0.008685216809
  43     0.013408168372
  44    -0.010006392980
  45     0.072954040265
  46    -0.153355109615
  47     0.020620512070
  48     0.101249587629
  49    -0.013169184053
  50     0.037392146653
  51     0.000040061083
  52    -0.000130883539
  53     0.000090822456
  54    -0.000129328448
  55     0.001163116563
  56    -0.002040350078
  57     0.063478388125
  58     0.002849026577
  59    -0.066327414702
  60    -0.080952726509
  61     0.018301408483
  62     0.038932729496
  63     0.008963793558
  64     0.012360749429
  65     0.005131555191
  66     0.010318737578
  67    -0.011096165605
  68    -0.007380812636
  69    -0.022344928618
  70    -0.005487519980
  71     0.000496108894
  72     0.018170026872
  73    -0.016217050852
  74    -0.095769740221
  75     0.057116534430
  76    -0.001999535705
  77     0.053867802781
  78    -0.018029958061
  79    -0.008138871321
  80     0.020123266166
  81    -0.176261435370
  82     0.488254926318
  83     0.261773291875
  84     0.025264569667
  85     0.002207500950
  86     0.019596861440
  87    -0.154652035946
  88     0.091490495066
  89    -0.108859832043
  90    -0.096744744548
  91    -0.109447978003
  92    -0.032207880099
  93     0.000129526503
  94    -0.000372758383
  95     0.000243231880
  96    -0.002343805031
  97    -0.003961964653
  98    -0.007547812266
  99    -0.007696723461
  100   -0.046174552561
  101    0.053871276022
  102   -0.026343446819
  103    0.064224036505
  104    0.083240987703
  105    0.002137849818
  106    0.002883386722
  107   -0.006059995471
  108    0.013320194322
  109   -0.000914224129
  110   -0.009218619545
  111   -0.016188420833
  112   -0.002954245101
  113    0.017348956635
  114   -0.000565195614
  115    0.025327308874
  116    0.116389137452
  117    0.129647228709
  118   -3.186899208198
  119   -0.262193626557
  120    0.177368092507
  121   -0.014146552223
  122    0.070241442010
  123    2.833107302175
  124   -0.294543958448
  125    1.577648660163
  126    0.114936969898
  127   -0.102483997145
  128   -0.163321548893
  129   -0.067311463512
  130    0.044855461498
  131    0.022456002014
  132    0.003651662501
  133   -0.052799324424
  134    0.010905748137
  135   -0.992972975180
  136    0.840028293415
  137    0.152944681765
  138    0.397626375201
  139   -1.496230094752
  140    0.120283569429
  141    0.082985844085
  142    0.064765917175
  143   -0.207907400312
  144   -0.270756909332
  145   -0.082910240595
  146    0.451305958655
  147    0.159419716205
  148   -0.003982355461
  149   -0.172368910581
  150   -0.113097013671
  151   -0.008503720268
  152   -0.145215122624
  153    0.105917812493
  154   -0.002790353369
  155    0.020531455705
  156    0.021333728941
  157    0.011652662102
  158   -0.004658644306
  159   -0.042187514046
  160   -0.004048037038
  161    0.001770223165
  162    0.014620421900
  163    0.005446843805
  164   -0.037993308860
  165   -0.025978542018
  166    0.019326643995
  167    0.019260575730
  168    0.010141278965
  169    0.002346984465
  170    0.014918308030
  171   -0.004660853172
  172    0.002518320291
  173   -0.002582807535
  174   -0.003185397172
  175    0.007845882766
  176   -0.064159802904
  177    0.091090598897
  178   -0.008974321544
  179    0.000599545331
  180   -0.013686503715
  181   -0.003307493264
  182   -0.059343635617
  183    0.005767069039
  184   -0.008560655317
  185   -0.003509204117
  186    0.013204364284
  187    0.197641130360
  188    4.723579604132
  189   -0.582873328147
  190    2.229211844758
  191   -0.072270156565
  192    0.446977120460
  193   -0.069170115427
  194   -0.276987013656
  195    0.074442876254
  196   -0.029459732298
  197   -0.018387938293
  198    0.004455562963
 Sym=     1a
 Ene= 2.58531636209415E+00
Spin= Alpha
 Occup= 0
  1     -0.025294820534
  2      0.053316333171
  3     -0.467906065449
  4      0.849164036211
  5      0.441997528545
  6      0.071010913141
  7     -0.016449557511
  8      0.022805076793
  9     -0.371695057927
  10     0.116834133154
  11    -0.120890153311
  12    -0.847874740453
  13     0.016727762584
  14    -0.167201747159
  15    -0.090480449823
  16     0.044999680583
  17     0.045480769240
  18     0.008634192465
  19    -0.055004671950
  20     0.017737871026
  21     0.809359699953
  22    -0.432718437692
  23    -0.376641262261
  24    -0.050748898468
  25     0.336093388858
  26    -0.153625191482
  27    -0.082291364608
  28    -0.016939152133
  29    -0.012750506962
  30     0.078392137403
  31     0.023397856290
  32     0.027274892580
  33     0.032013313731
  34    -0.000671598900
  35    -0.010168292391
  36    -0.023694934408
  37     0.027229901803
  38     0.100346926808
  39     0.263999649144
  40    -3.665269275995
  41    -0.413898213298
  42     0.128531808993
  43     0.002813096859
  44     0.010017391621
  45     2.331846756732
  46    -0.184611028865
  47     2.655082056706
  48     0.054880982150
  49     0.033200168025
  50     0.613115164967
  51    -0.074846206139
  52     0.029220707007
  53     0.045625499132
  54     0.008767857483
  55    -0.065966865755
  56     0.000321351804
  57    -0.339737403051
  58     1.141804826047
  59    -0.802067422996
  60     0.133190550140
  61    -1.344463596251
  62     0.093945050172
  63    -0.015960582837
  64     0.038381604854
  65    -0.094676680551
  66    -0.243992367715
  67    -0.029189363021
  68     0.361485634676
  69     0.265405736625
  70    -0.022304963502
  71    -0.234463538518
  72    -0.061062555355
  73     0.011608495871
  74    -0.103662212404
  75    -0.035097567153
  76     0.013920714908
  77    -0.009815088170
  78    -0.014250419708
  79    -0.014098500608
  80     0.034533070666
  81    -0.196974803155
  82    -0.002006100292
  83     0.189938753509
  84     0.042831412490
  85    -0.001354911765
  86     0.015042637189
  87     0.108246356102
  88     0.245829398245
  89     0.115377819272
  90    -0.046810767803
  91    -0.064545373722
  92    -0.063817630128
  93    -0.008965674063
  94     0.006468847356
  95     0.002496826707
  96    -0.005110329971
  97     0.000416444948
  98     0.004493835949
  99     0.091658879869
  100   -0.077057768103
  101   -0.014601111766
  102   -0.063630379251
  103   -0.135677178901
  104   -0.083842919826
  105   -0.026661293218
  106   -0.001133129928
  107    0.005296106444
  108    0.018541261322
  109    0.004257972404
  110   -0.008091316811
  111    0.017228617080
  112   -0.002737719076
  113    0.000985844396
  114   -0.002851181830
  115    0.003896812437
  116   -0.003176363172
  117    0.018410357216
  118    0.093651816925
  119   -0.008574696073
  120   -0.002519203029
  121    0.023371329097
  122   -0.002302330737
  123    0.223803514467
  124   -0.089579099971
  125    0.066580024541
  126    0.114605492528
  127   -0.097035318931
  128    0.083190204782
  129   -0.003457001784
  130    0.003928495998
  131   -0.000471494214
  132   -0.002471882883
  133    0.008825373367
  134    0.003495416959
  135   -0.023438603169
  136   -0.051826029040
  137    0.075264632209
  138    0.110631901086
  139    0.034089404010
  140   -0.081216679479
  141   -0.027419031480
  142    0.007272096114
  143    0.025643638559
  144    0.016073960340
  145    0.005824323369
  146   -0.028334354614
  147    0.020712530619
  148   -0.015580864119
  149   -0.006070196791
  150    0.012825948198
  151   -0.004116726068
  152   -0.004058625616
  153    0.008605923776
  154    0.028468544945
  155    0.014309071392
  156    0.004232353407
  157   -0.005671177244
  158    0.087233800293
  159   -0.007385215102
  160   -0.003768826610
  161   -0.007426563227
  162   -0.018816929162
  163   -0.015035636390
  164   -0.109436620664
  165    0.067915960496
  166    0.006395978868
  167   -0.001622215035
  168   -0.024526982149
  169    0.033780666461
  170   -0.288791496888
  171   -0.059298702718
  172   -0.000165772286
  173   -0.076525151222
  174    0.035071066432
  175    0.172343220951
  176    4.714912946502
  177   -0.395109164816
  178    2.222663116259
  179   -0.051182403564
  180    0.446735345967
  181   -0.014173187972
  182   -0.322827791714
  183    0.032273133684
  184   -0.018224818271
  185    0.037840320144
  186    0.029257092482
  187   -0.002772939720
  188    0.054030935589
  189    0.039041879869
  190   -0.008973448500
  191    0.016296533399
  192    0.005395747587
  193   -0.013928605290
  194   -0.118104912636
  195    0.041176137599
  196    0.020031732305
  197    0.001799384137
  198   -0.016814717769
 Sym=     1a
 Ene= 2.58947132365218E+00
Spin= Alpha
 Occup= 0
  1      0.021799471987
  2     -0.073566416941
  3      0.568014184827
  4     -1.319873074186
  5     -0.437033074960
  6      0.047793844362
  7      0.023327403793
  8      0.010984880129
  9      0.097226176434
  10    -0.052173781155
  11    -0.099944826772
  12    -0.252838797626
  13    -0.152492363860
  14    -0.137265129165
  15     0.048993552398
  16    -0.008829892103
  17    -0.040163660295
  18     1.105012003719
  19     0.107421526021
  20     0.001237883308
  21    -0.210148904371
  22    -0.036012293226
  23     0.246161197597
  24    -3.011209468842
  25    -0.561244244797
  26     0.064861134858
  27    -0.010117348214
  28    -0.016186063839
  29     0.001118624869
  30    -0.046991121465
  31    -0.002181016530
  32     0.016586329521
  33     0.060564968480
  34     0.023896899950
  35    -0.018087122270
  36    -0.079193603244
  37    -0.018616238736
  38     0.028515346328
  39    -0.231730321341
  40     0.249974356397
  41     0.229436869542
  42    -0.060688638137
  43     0.063005656215
  44     0.007835881959
  45     0.060350064510
  46    -1.238082969589
  47     0.032403397541
  48     0.175662838624
  49    -0.300327014950
  50     0.119936153756
  51     0.004845631933
  52    -0.011315021957
  53     0.006469390024
  54     0.020899429614
  55     0.003138119266
  56    -0.026330130738
  57    -0.204591058389
  58     0.229318929522
  59    -0.024727871133
  60    -0.624240481077
  61    -0.134948152225
  62     0.536083237221
  63    -0.006512001473
  64     0.022014247422
  65    -0.012417781729
  66    -0.013666094446
  67     0.006827931424
  68    -0.008532603405
  69     0.022402861224
  70    -0.036363143649
  71     0.025192805850
  72     0.056021608425
  73     0.037179359372
  74     0.082445168541
  75    -0.006142057076
  76     0.064102428044
  77     0.021380124283
  78    -0.004024048694
  79     0.034447707773
  80    -0.067562418729
  81     0.308065375082
  82     1.014118059422
  83     0.114344836707
  84    -0.154733001764
  85    -0.116947352095
  86    -0.035576587480
  87    -0.596287509347
  88     0.983954905615
  89    -0.697636572300
  90    -0.040979492628
  91     0.324079719295
  92    -0.227551224877
  93    -0.021507661518
  94     0.033714427167
  95    -0.012206765649
  96     0.008015915641
  97    -0.012035337639
  98     0.014289535370
  99     0.329445130897
  100   -0.633300777849
  101    0.303855646952
  102   -0.377556145442
  103    0.002597122334
  104   -0.355772504756
  105    0.038555003259
  106   -0.053432989486
  107   -0.044443266729
  108   -0.046201137957
  109    0.056886324419
  110    0.070553844583
  111   -0.005525826939
  112    0.014801553621
  113   -0.010926945254
  114    0.087298819365
  115   -0.005401199141
  116    0.002261368306
  117   -0.055100212118
  118    0.164294701408
  119    0.090832294527
  120   -0.010448700975
  121   -0.019646553671
  122    0.002359972576
  123   -0.424474466620
  124    0.119593576675
  125    0.020582952323
  126    0.131834655866
  127    0.081797787051
  128   -0.060954401153
  129    0.003145451677
  130    0.001474246819
  131   -0.004619698496
  132   -0.021074588809
  133    0.033455354692
  134   -0.001387286396
  135   -0.000403461119
  136   -0.074039019866
  137    0.074442480985
  138    0.218267551954
  139   -0.895861759761
  140   -0.031772549224
  141    0.042649009149
  142   -0.002946165544
  143    0.006682120410
  144    0.019181062708
  145    0.011312551475
  146    0.003319905978
  147   -0.076400712886
  148   -0.007359855617
  149   -0.012284911260
  150   -0.004882526970
  151    0.012979058268
  152    0.017655260249
  153   -0.036890338076
  154    0.073775639445
  155    0.014065582690
  156   -0.012127946744
  157    0.072287569623
  158    0.443878133636
  159    0.054364128758
  160   -0.047282664026
  161    0.020830752631
  162   -0.074640929429
  163   -0.055546554350
  164   -0.448340968283
  165   -0.016242776071
  166    0.085913068781
  167   -0.002013053394
  168    0.002756579389
  169   -0.012867392538
  170    0.013751323119
  171    0.046510701186
  172    0.083645662323
  173    0.009979268381
  174   -0.033226476459
  175    0.027346220442
  176    0.185654972620
  177    0.026526151811
  178    0.020135968143
  179    0.037197545291
  180    0.012149201847
  181   -0.040588122984
  182   -0.414242589274
  183   -0.063406777932
  184   -0.043009738431
  185   -0.013450784402
  186    0.077846380858
  187    0.044374355178
  188    0.220902983284
  189   -0.063946861515
  190    0.062343845492
  191    0.020492599513
  192   -0.062643838005
  193   -0.064742080116
  194   -0.420188875969
  195   -0.022723114872
  196    0.069068275738
  197    0.011704305030
  198    0.014918175690
 Sym=     1a
 Ene= 2.65702408641903E+00
Spin= Alpha
 Occup= 0
  1     -0.176489881221
  2      0.280073229972
  3     -4.176851121684
  4      21.269039424796
  5      2.385646080730
  6      0.004113358183
  7     -0.081712555533
  8     -0.135239511064
  9      0.019918286569
  10     2.703701875618
  11     7.239125905522
  12    -0.062394439059
  13     1.197147043465
  14     2.289656426224
  15     0.595034395303
  16    -0.653568590389
  17     0.058534195086
  18    -0.006062481333
  19     0.007348330702
  20     0.045392297484
  21     5.593531479888
  22    -3.703354909934
  23    -1.890176569954
  24     0.915880155167
  25    -0.598011982135
  26    -0.122676204484
  27     0.058649544664
  28    -0.161400450612
  29    -0.418137345763
  30     0.031840755306
  31     0.165584879557
  32     0.713677607303
  33    -0.110527376537
  34     0.050956547943
  35    -0.152687489868
  36     0.060617633015
  37     0.036205737606
  38     0.015271494375
  39     1.669872231304
  40    -11.291668381051
  41    -2.109108234498
  42     0.146865464430
  43    -0.010382852273
  44    -0.142676484833
  45    -6.345985906056
  46     0.717292074520
  47     5.011281406164
  48    -1.076101713184
  49    -0.089838257067
  50     0.655885048277
  51    -0.078669226050
  52     0.048506096310
  53     0.030163129740
  54     0.005417895241
  55     0.078756906579
  56    -0.003171118874
  57    -1.380758148433
  58     1.771623983289
  59    -0.390865834856
  60     0.436712964082
  61     2.530890894350
  62    -0.291612064044
  63    -0.018362233747
  64    -0.084244322783
  65    -0.138710372805
  66     0.300158533314
  67     0.080056611693
  68     0.448482689003
  69    -0.275523011587
  70     0.032969007784
  71    -0.262383195337
  72    -0.079239418526
  73    -0.079033494336
  74    -0.668915153007
  75     0.146137521972
  76     0.017529607868
  77    -0.131728734936
  78    -0.066444296049
  79     0.038701039791
  80     0.007897228680
  81     1.673848023697
  82    -11.038198290192
  83    -2.112949170439
  84    -0.156833001728
  85    -0.089553554651
  86    -0.101418397598
  87     6.365715667918
  88     2.687972145321
  89     3.805108748866
  90     1.135655007894
  91     0.267147100746
  92     0.381102769655
  93    -0.086699313015
  94     0.046746188865
  95     0.039953124150
  96    -0.031397675537
  97    -0.058820756718
  98    -0.007023510322
  99    -1.371888305856
  100    1.077572861947
  101    0.294315443909
  102   -1.639040901772
  103   -2.001731129208
  104   -0.905097544192
  105    0.012112732316
  106   -0.263735858180
  107   -0.189151688080
  108   -0.073705162048
  109    0.343585227928
  110    0.353164122123
  111    0.057454226337
  112    0.010253556268
  113   -0.099390502559
  114    0.307690251504
  115    0.030996686125
  116   -0.027874851024
  117    0.087195439788
  118    1.462683327527
  119    0.412319601842
  120   -0.016133453206
  121    0.112778417647
  122    0.022168809048
  123    0.142360498453
  124   -0.422378519434
  125    1.085722863742
  126    0.147080952080
  127   -0.106407641063
  128    0.989033043566
  129    0.021876949468
  130   -0.006437448585
  131   -0.015439500883
  132    0.001461011008
  133   -0.001783657965
  134    0.021840488830
  135   -0.841816800591
  136    0.241638960773
  137    0.600177839818
  138   -0.116770705546
  139    0.048778617585
  140   -0.265542815285
  141   -0.014191549033
  142    0.035140139645
  143    0.181221305040
  144   -0.009845720197
  145   -0.025222645104
  146   -0.200721615814
  147    0.028885681203
  148   -0.021922799486
  149   -0.042412278411
  150   -0.024608706557
  151    0.010384781280
  152   -0.065810179352
  153    0.094501545699
  154    0.048519129534
  155   -0.029094576487
  156    0.000008921813
  157   -0.056297025793
  158    0.190948966020
  159   -0.008628078983
  160   -0.122959557364
  161   -0.015858179073
  162   -0.073018375378
  163   -0.017206139834
  164    0.283833612813
  165    0.007510309113
  166   -0.138122389268
  167   -0.035550758230
  168   -0.035976909059
  169   -0.014076579898
  170   -0.113611419211
  171    0.057783375751
  172   -0.022369034057
  173   -0.039730514261
  174    0.015887216970
  175   -0.023638315759
  176    0.381387564537
  177    0.017513530670
  178    0.155067143590
  179   -0.005621427966
  180   -0.061876585259
  181   -0.033905450962
  182    0.010914571237
  183   -0.015773035865
  184    0.065820887851
  185    0.019837920551
  186   -0.054300662888
  187    0.015598069226
  188    0.328555997927
  189    0.586337029879
  190   -0.030486756028
  191   -0.026741726991
  192    0.062096295781
  193   -0.002008821183
  194    0.192040444852
  195    0.542933478635
  196    0.062087684246
  197   -0.020443097005
  198    0.047257011359
 Sym=     1a
 Ene= 2.66655541635556E+00
Spin= Alpha
 Occup= 0
  1     -0.017085529645
  2      0.014905501007
  3     -0.218799128284
  4      0.560536748169
  5      0.187051793040
  6     -0.004319780596
  7      0.052617191712
  8      0.051057094793
  9      0.015193889157
  10    -0.638763423663
  11    -0.826211847480
  12    -0.016877777277
  13    -0.323173992269
  14    -0.701615643549
  15     0.025103677037
  16    -0.046870299697
  17     0.021766622660
  18     0.012309128245
  19     0.002767403562
  20    -0.032539727351
  21    -0.440835915027
  22     0.399388444962
  23     0.041447470065
  24    -0.122603300892
  25    -0.006709884323
  26     0.419987029723
  27    -0.010643476038
  28    -0.019585264277
  29     0.012191224804
  30     0.016434676926
  31     0.055400008252
  32     0.044390431738
  33    -0.002154955363
  34    -0.029123618883
  35    -0.060746676173
  36     0.008649453605
  37     0.001512133267
  38    -0.000492888369
  39    -0.055784664429
  40     0.499874564068
  41     0.123099870637
  42    -0.010458498459
  43     0.011306204187
  44    -0.021373553568
  45     0.187558368813
  46    -0.155786304391
  47    -0.067917667140
  48     0.111116445273
  49    -0.101568563437
  50    -0.042251019284
  51    -0.008094589386
  52    -0.005170972549
  53     0.013265561935
  54     0.005688781514
  55    -0.004785889794
  56     0.000125084425
  57     0.080929728155
  58     0.004949033827
  59    -0.085878761982
  60    -0.090226095002
  61    -0.005409024537
  62    -0.033390659251
  63     0.015702739917
  64    -0.002258368513
  65    -0.001457466623
  66    -0.007462225788
  67    -0.005407981598
  68    -0.005373823564
  69    -0.013605210544
  70     0.008437900906
  71     0.007329220230
  72     0.001813949225
  73     0.249978789781
  74     5.188410972095
  75    -0.264360809930
  76    -0.134142411078
  77     2.455754189996
  78    -0.102423366008
  79     0.001024192451
  80     0.000846537364
  81    -0.067120662775
  82     0.536733287279
  83     0.149988924250
  84     0.004851718255
  85     0.013494220225
  86    -0.019748281738
  87    -0.159657086698
  88    -0.178954242695
  89    -0.054019189585
  90    -0.086550413641
  91    -0.149204355704
  92    -0.049326176042
  93    -0.003780742013
  94    -0.008026544592
  95     0.011807286605
  96    -0.005068901391
  97     0.007385938546
  98     0.002426997306
  99     0.040195290211
  100    0.039537845187
  101   -0.079733135398
  102    0.082380333664
  103   -0.001666090600
  104   -0.047687366754
  105   -0.011742087676
  106    0.000179387254
  107   -0.006115275966
  108    0.007186991617
  109   -0.013277769835
  110   -0.001067640987
  111    0.008566672128
  112    0.013037096578
  113    0.009272144643
  114    0.000298473370
  115    0.042046410347
  116    0.091992409489
  117    0.505375970987
  118   -4.664531770422
  119   -0.682805823216
  120   -0.005325008965
  121    0.138072703500
  122    0.038648590564
  123   -0.577990363652
  124    3.342627738199
  125   -1.575799960815
  126   -0.089636868257
  127    0.243571495742
  128   -0.527797778828
  129    0.033117043664
  130   -0.102895247776
  131    0.069778204112
  132    0.015358411652
  133    0.003440542858
  134    0.004539764006
  135    1.304811027536
  136   -1.703653429968
  137    0.398842402432
  138    0.572891938371
  139   -0.193217432675
  140    0.763457352289
  141    0.140444716471
  142    0.466226211872
  143    0.139179430543
  144   -0.228599075864
  145   -0.349356766763
  146    0.087364522681
  147    0.040172715998
  148   -0.276151334820
  149   -0.274093323339
  150    0.066289924542
  151   -0.003367749101
  152    0.057577925136
  153    0.133712616134
  154   -0.009758700742
  155   -0.003719772337
  156    0.003286272012
  157   -0.005485470087
  158   -0.163345957810
  159    0.032883414987
  160    0.024223271549
  161   -0.013650607910
  162    0.028653390160
  163    0.019157695088
  164   -0.115231650965
  165    0.025983320073
  166    0.012427167130
  167    0.003290095528
  168   -0.009789594304
  169   -0.001589973556
  170    0.068657281839
  171    0.114455229993
  172    0.011214970259
  173   -0.003307386401
  174   -0.001425131010
  175    0.016696547633
  176   -0.100569535616
  177    0.029728729675
  178   -0.011098617293
  179   -0.001696722423
  180   -0.008260712880
  181   -0.007996301028
  182   -0.147581465141
  183    0.038047570090
  184   -0.016963953516
  185   -0.017306801253
  186    0.029546210951
  187   -0.015734405921
  188   -0.273873810403
  189   -0.013872072919
  190    0.060906224785
  191    0.004753042842
  192   -0.023070465964
  193   -0.038669437568
  194   -0.237417642188
  195   -0.002861759149
  196   -0.054284596752
  197   -0.038856526310
  198   -0.013709320824
 Sym=     1a
 Ene= 2.79994693914159E+00
Spin= Alpha
 Occup= 0
  1      0.059251230715
  2     -0.199967446005
  3      1.543931162545
  4     -3.586973306184
  5     -1.188223451869
  6      0.010988932538
  7     -0.000871936456
  8     -0.080559041801
  9     -0.100242835055
  10     0.167513874946
  11     0.605663344375
  12    -0.137481839212
  13     0.170221510098
  14     0.827078071938
  15    -0.112607541169
  16    -0.000596508078
  17     0.113204049247
  18     0.001335874099
  19     0.041169570830
  20     1.147332993844
  21     0.770790423386
  22    -0.230786308706
  23    -0.540004114680
  24     0.061750167482
  25    -0.255094556258
  26    -3.094115832346
  27     0.023890820493
  28     0.049574519948
  29    -0.033197193433
  30    -0.021797187262
  31    -0.076576018030
  32    -0.015701022392
  33    -0.010255711934
  34     0.010064820097
  35     0.060239731099
  36     0.009902142934
  37    -0.010278493718
  38    -0.003044203435
  39    -0.084584210421
  40     0.380420872179
  41     0.186873989966
  42    -0.003143176481
  43    -0.088625932645
  44     0.004460264314
  45     0.380059228589
  46     1.234571405521
  47     0.217401422414
  48    -0.105405915519
  49     0.413701977911
  50    -0.007499395727
  51    -0.007719334223
  52     0.009940243889
  53    -0.002220909666
  54    -0.031619264569
  55     0.009456285969
  56    -0.019670260854
  57     0.099488270370
  58    -0.092758095028
  59    -0.006730175342
  60     0.745367470617
  61     0.015497744905
  62     0.447493217038
  63     0.014456780741
  64    -0.009354993578
  65    -0.008348319344
  66     0.001230781962
  67     0.037890016800
  68     0.030950630801
  69    -0.020626588646
  70    -0.025338975859
  71    -0.019750185070
  72     0.015614682003
  73    -0.051484563720
  74    -0.416647154385
  75    -0.045684234309
  76    -0.006195018601
  77    -0.048875521144
  78    -0.076915045573
  79     0.001164821224
  80    -0.020973234625
  81    -0.017916200188
  82     0.868506578797
  83     0.290179119526
  84    -0.025327704551
  85    -0.079978700575
  86    -0.038973885794
  87    -0.949227699786
  88     0.780990777665
  89     0.507018788390
  90    -0.096563162690
  91     0.279678232505
  92     0.009541883731
  93    -0.022912605084
  94     0.015133653579
  95     0.007778951505
  96     0.014621314756
  97    -0.003351159200
  98    -0.027264785302
  99     0.384617028682
  100   -0.190309718721
  101   -0.194307309961
  102   -0.465067736292
  103   -0.182367208186
  104    0.540304696933
  105   -0.010006524869
  106   -0.025441740583
  107   -0.026882068718
  108   -0.004860795419
  109    0.046584362677
  110    0.071053924714
  111    0.018285957315
  112   -0.012450685832
  113   -0.034987844896
  114    0.007241557017
  115    0.037475336104
  116   -0.075920618272
  117    0.160020256626
  118    2.633481630443
  119    0.704079755059
  120    0.003251776726
  121    0.159757461732
  122    0.206771998131
  123   -0.075381410679
  124   -0.345526575440
  125    1.685107660754
  126    0.031665175047
  127   -0.125725420308
  128    0.542932659239
  129    0.012083556367
  130    0.026182628842
  131   -0.038266185209
  132    0.002394884067
  133   -0.003576072118
  134   -0.005622822481
  135   -0.117919177907
  136   -0.384364952356
  137    0.502284130263
  138   -0.115435024323
  139    0.069030501028
  140   -0.296738696227
  141   -0.000347340292
  142    0.070864343043
  143   -0.082228684629
  144    0.005483419723
  145    0.076201854600
  146    0.117688120225
  147   -0.005017413821
  148   -0.171276347535
  149   -0.007366763107
  150   -0.010753205534
  151   -0.097476238491
  152   -0.860527904256
  153   -0.079014708037
  154    0.103923044091
  155    0.080841663849
  156    0.117646562746
  157    0.100499497869
  158    0.283357957047
  159   -0.001013152465
  160   -0.047595036308
  161    0.042319313525
  162    0.008954986975
  163    0.038920750342
  164    0.296612610521
  165   -0.103390225256
  166   -0.092520974335
  167    0.048499046455
  168    0.019263699420
  169   -0.091928143597
  170   -0.826649952845
  171   -0.143045702292
  172   -0.100988901064
  173    0.062266644309
  174    0.116358960171
  175    0.018586265216
  176    0.103513122023
  177   -0.164564555387
  178    0.036916412958
  179    0.070992866298
  180    0.010249984920
  181    0.137552233657
  182    0.437207543348
  183    0.005789009226
  184    0.051892442945
  185    0.058957471976
  186   -0.020343939372
  187   -0.012087643506
  188   -0.050146276835
  189    0.156236683543
  190    0.009240919258
  191    0.001552730787
  192   -0.005145718737
  193    0.012521192906
  194    0.166460925540
  195    0.152927385988
  196   -0.035026940353
  197    0.020010846346
  198    0.038714627533
 Sym=     1a
 Ene= 2.86002293725015E+00
Spin= Alpha
 Occup= 0
  1      0.013012278888
  2     -0.022486493104
  3      0.201239657736
  4     -0.516199964998
  5     -0.037430250323
  6      0.008339760918
  7      0.009806879314
  8      0.029958539918
  9     -0.226235244882
  10    -0.556232887923
  11    -0.176181060802
  12    -0.379343983504
  13    -1.025553857502
  14    -0.610386880681
  15     0.006878483946
  16     0.006406433173
  17    -0.013284917119
  18    -0.022886119147
  19     0.007995742770
  20     0.043479687097
  21    -0.139195878725
  22     0.037297313554
  23     0.101898565171
  24     0.214573685359
  25     0.030646580462
  26    -0.413456495127
  27     0.038649997708
  28    -0.026626599135
  29     0.031980693558
  30    -0.057894827879
  31     0.051888372969
  32    -0.059870837105
  33     0.006040414556
  34    -0.016165041563
  35     0.016964234247
  36    -0.063641194955
  37     0.003738393235
  38    -0.010828106927
  39     0.028109850305
  40     0.208226721543
  41    -0.042202156463
  42     0.001691480203
  43    -0.103596882865
  44    -0.034064263104
  45     0.102203657395
  46     0.709990812026
  47    -0.058544583741
  48     0.211076436445
  49     0.864861822997
  50     0.408794775518
  51     0.012919437862
  52    -0.016575437816
  53     0.003655999954
  54    -1.200897947261
  55    -0.008186430180
  56     0.018694477226
  57     0.101106085504
  58    -0.142648653206
  59     0.041542567702
  60     1.502201544028
  61     0.043100094006
  62     0.129734423218
  63    -0.001487058099
  64     0.004105012065
  65     0.020057591674
  66    -0.009181991028
  67    -0.001752611101
  68    -0.017425763029
  69     0.011177088826
  70    -0.003754840515
  71    -0.009484320039
  72     0.004291630045
  73     0.036610246415
  74    -0.099671311111
  75    -0.046143986350
  76     0.001428590219
  77    -0.017247809352
  78    -0.020051736039
  79    -0.003469577496
  80     0.003270673173
  81    -0.121880976899
  82     0.787626135689
  83     0.355480599006
  84    -0.014300863513
  85    -0.007564299354
  86     0.015247626398
  87    -0.249085853310
  88    -0.087483041090
  89    -0.138865851078
  90    -0.153522901116
  91     0.186903106363
  92    -0.036597979478
  93     0.017846371553
  94    -0.006854692769
  95    -0.010991678784
  96     0.000598561772
  97    -0.006445079113
  98     0.003011554457
  99     0.026900001431
  100    0.003176557421
  101   -0.030076558852
  102   -0.054816442988
  103    0.106989467051
  104   -0.075452019859
  105   -0.028223338298
  106   -0.008527309982
  107    0.018373197882
  108    0.017262811117
  109    0.038807573541
  110   -0.017935256245
  111    0.020602770674
  112   -0.027366986671
  113   -0.006714975412
  114   -0.004282184442
  115    0.004365584117
  116   -0.010132877314
  117    0.077045804417
  118   -0.204724800424
  119   -0.216416355771
  120   -0.006132994343
  121   -0.008478601167
  122    0.009259447877
  123    0.132095999569
  124   -0.034561906257
  125   -0.053948365367
  126   -0.160850227650
  127    0.032429546522
  128   -0.171032822066
  129   -0.008686135879
  130    0.005021491062
  131    0.003664644817
  132    0.000615594116
  133    0.005132281375
  134   -0.000603587140
  135    0.059423943146
  136   -0.052836093209
  137   -0.006587849937
  138    0.016609552424
  139    0.054566934574
  140    0.002376722659
  141   -0.018165892577
  142   -0.005891013577
  143   -0.002980096766
  144   -0.017973092945
  145    0.001455038149
  146    0.014765492783
  147    0.042345195350
  148    0.006448585939
  149   -0.010767273414
  150    0.002516921127
  151    0.027101677971
  152    0.029575614547
  153   -0.105919285855
  154   -0.004439026863
  155   -0.008403579846
  156   -0.005542319837
  157   -0.015195201286
  158   -0.157033470619
  159    0.105295533353
  160    0.028648709784
  161   -0.034075217322
  162    0.023496519663
  163    0.003772655471
  164   -0.036479981345
  165    0.050479589644
  166    0.015273378576
  167   -0.009510831885
  168   -0.007084805297
  169   -0.002463677642
  170   -0.476488710708
  171   -0.328634852813
  172   -0.123081069252
  173    0.018017250213
  174    0.049955730303
  175   -0.012680150216
  176   -0.041265140107
  177    0.220156102799
  178   -0.053768014198
  179    0.085137807400
  180   -0.028283692109
  181    0.022564394543
  182    0.495922251899
  183    0.103596350384
  184    0.135023204283
  185    0.082168739514
  186   -0.079681020499
  187    0.017313492269
  188   -0.077687474547
  189   -0.164783916463
  190    0.007670849739
  191    0.003512133123
  192   -0.007915261010
  193   -0.000212806790
  194   -0.065022277230
  195    0.061740919134
  196    0.006614481337
  197    0.013879367436
  198   -0.004674895661
 Sym=     1a
 Ene= 2.89398639596181E+00
Spin= Alpha
 Occup= 0
  1      0.000983623193
  2     -0.003202213394
  3      0.015831044925
  4     -0.024793866219
  5      0.023064995864
  6      0.049399987861
  7      0.013778889576
  8      0.008286277798
  9     -0.707662680935
  10    -0.133476213416
  11    -0.069387145385
  12    -1.727050296352
  13    -0.296791195363
  14     0.066585903493
  15    -0.001318502396
  16    -0.000101192802
  17     0.001419695198
  18     0.038486450216
  19    -0.021702964275
  20    -0.001465455122
  21     0.000212335701
  22    -0.015711236266
  23     0.015498900565
  24    -0.308478387723
  25     0.188251952460
  26     0.030365631446
  27    -0.063638842687
  28     0.006486521926
  29    -0.006110315270
  30     0.026097963575
  31    -0.008057004216
  32     0.009735002789
  33     0.059282503380
  34    -0.000645578162
  35    -0.001537154605
  36     0.033038941834
  37     0.007935828157
  38    -0.015124382993
  39     0.179620805346
  40    -0.771596005386
  41    -0.489473057371
  42     0.003821301543
  43     0.002995504661
  44    -0.003383733757
  45    -0.142511727793
  46    -0.028321334246
  47     0.216268876745
  48    -0.173089341025
  49    -0.050020055338
  50     0.099384330514
  51     0.004537561834
  52     0.008399926237
  53    -0.012937488071
  54     0.001757120642
  55     0.000127216505
  56    -0.007418602814
  57     0.069175507509
  58    -0.039743742033
  59    -0.029431765476
  60    -0.046418480301
  61     0.106514503073
  62     0.093652841461
  63     0.027195497549
  64     0.015416662702
  65     0.013595310724
  66     0.007769251151
  67    -0.006491286231
  68     0.001651214886
  69    -0.044255839872
  70    -0.014192337242
  71    -0.019891238258
  72     0.010912725260
  73     0.008421844429
  74     0.057111732039
  75     0.142003368089
  76     0.100931042203
  77    -0.109490492053
  78     0.016866858688
  79    -0.004079176997
  80     0.005338678167
  81    -0.142783876331
  82     0.891053723800
  83     0.432592409046
  84    -0.000861736562
  85    -0.009951950897
  86    -0.016730563921
  87    -0.269714265340
  88    -0.045662024355
  89    -0.206162543989
  90    -0.210488394017
  91     0.035138888216
  92    -0.013996087670
  93    -0.008668458144
  94    -0.009861785459
  95     0.018530243603
  96     0.007998795605
  97     0.005536382629
  98     0.010571160484
  99     0.027198779949
  100    0.024036776899
  101   -0.051235556848
  102   -0.094129277606
  103    0.151307480975
  104   -0.069532528472
  105    0.014271927488
  106   -0.009019640766
  107    0.000314622901
  108    0.025196717570
  109    0.013929418255
  110   -0.017592471781
  111   -0.044344517590
  112   -0.001828300324
  113    0.017170360865
  114   -0.000173087152
  115   -0.000802572751
  116    0.005253031988
  117   -0.003325335308
  118   -0.130382864741
  119    0.026785146947
  120   -0.133400359553
  121   -0.052765101853
  122    0.028519738194
  123    0.355346366338
  124   -0.027774720336
  125   -0.041040128206
  126    1.483549503588
  127    0.380801136161
  128   -0.246057521787
  129   -0.019091672154
  130    0.034717148358
  131   -0.015625476204
  132   -1.210689158099
  133    0.029756960737
  134    0.003753462882
  135   -0.016225238776
  136    0.043503170164
  137   -0.027277931388
  138    1.401065863683
  139    0.061927327493
  140   -0.012508662019
  141    0.006380343590
  142   -0.004689469247
  143   -0.013523531240
  144    0.029186604613
  145    0.003288556665
  146    0.018887577464
  147   -0.037746733806
  148    0.003003026544
  149   -0.000743856375
  150    0.022003402874
  151    0.003120880447
  152    0.009705351384
  153   -0.017453808008
  154    0.010060483189
  155   -0.011421258118
  156    0.019441915191
  157   -0.041067965026
  158   -0.050353406435
  159    0.116806638063
  160    0.000432783689
  161   -0.027874220473
  162    0.014619354678
  163    0.013294406226
  164    0.089175716383
  165    0.068569458673
  166   -0.006615751192
  167   -0.009832174688
  168   -0.005411394940
  169   -0.001415402086
  170    0.018714000005
  171    0.007906358965
  172    0.000894593850
  173    0.004740474961
  174   -0.019835648430
  175   -0.008891592140
  176   -0.040876464764
  177   -0.042951679977
  178    0.002245727088
  179    0.004255090746
  180    0.002957605897
  181    0.031265171728
  182    0.042953827527
  183   -0.100137665528
  184   -0.007917550521
  185    0.023221076992
  186   -0.010472832545
  187   -0.009666144477
  188    0.372636525302
  189    0.523628790368
  190   -0.052218922303
  191    0.109387833902
  192    0.014458487087
  193    0.014436959433
  194   -0.421768706352
  195   -0.715673958490
  196   -0.165685336803
  197   -0.146608542979
  198    0.064713913602
 Sym=     1a
 Ene= 2.92625573058964E+00
Spin= Alpha
 Occup= 0
  1      0.010678190705
  2     -0.018652879308
  3      0.163050423375
  4     -0.416802090102
  5     -0.015410718635
  6     -0.038100262677
  7     -0.023512297026
  8     -0.042433321155
  9      0.483585930051
  10     0.222693047975
  11     0.855669595216
  12     1.071174536592
  13     0.488309540395
  14     1.738065747413
  15     0.024742927038
  16    -0.021057310578
  17    -0.003685616460
  18    -0.013378971981
  19     0.023724170116
  20     0.005493672067
  21    -0.323997866440
  22     0.254690160004
  23     0.069307706436
  24     0.103484036167
  25    -0.143657915196
  26    -0.049420117148
  27    -0.078582369483
  28    -0.011412187771
  29    -0.003201876386
  30    -0.026731731925
  31    -0.000405595923
  32    -0.024607446021
  33     0.132161043922
  34     0.015716652500
  35     0.028903213974
  36     0.041301614955
  37     0.002318559174
  38    -0.003872202157
  39     0.011893695543
  40     0.103746896550
  41    -0.001646623666
  42     0.077523064091
  43    -0.035576696248
  44     0.080395666143
  45    -0.331955255658
  46    -0.049466915081
  47    -0.695536839013
  48    -0.758312648499
  49     0.030051183648
  50    -0.968032402784
  51     0.639238346483
  52     0.580195800122
  53    -1.219434146605
  54     0.005003947048
  55     0.007596055027
  56    -0.046567181129
  57    -0.747422638465
  58    -0.805893570508
  59     1.553316208973
  60    -0.032904036890
  61    -0.029372749554
  62     0.024632878554
  63     0.009545085070
  64     0.008930383109
  65     0.001650928647
  66    -0.011732068335
  67     0.017030064946
  68     0.001854341765
  69    -0.001074007106
  70    -0.029011431164
  71    -0.004069294974
  72    -0.003458037086
  73    -0.058580490138
  74    -0.109078945020
  75     0.199056947477
  76     0.007691093590
  77    -0.049809179704
  78     0.006623059154
  79     0.009430644265
  80    -0.018815403444
  81     0.188647504241
  82    -0.710072851026
  83    -0.542426746449
  84    -0.005618473318
  85    -0.008161751769
  86     0.005202452912
  87     0.308731064193
  88     0.045896481470
  89    -0.075414510172
  90     0.205189918764
  91     0.066679215775
  92     0.145329262993
  93    -0.015468720788
  94     0.011544044387
  95     0.003924676401
  96     0.003517324068
  97     0.015565389213
  98    -0.002981192043
  99    -0.078313094273
  100   -0.038266001144
  101    0.116579095417
  102    0.039013819528
  103   -0.058713650600
  104    0.140106593799
  105    0.047698511821
  106    0.006962425961
  107    0.008124656822
  108   -0.022898145947
  109   -0.001596358968
  110    0.004447168169
  111   -0.041096122968
  112   -0.007744715675
  113   -0.015347539138
  114   -0.031576825250
  115   -0.006525806264
  116    0.008803314837
  117   -0.197688419868
  118    1.152329169193
  119    0.573780309800
  120   -0.021717157517
  121    0.000250283520
  122    0.013586481593
  123   -0.063100099501
  124    0.141106666792
  125    0.463602508172
  126   -0.041587114112
  127    0.263110234258
  128    0.138752830389
  129    0.007561467626
  130   -0.017393521423
  131    0.009832053797
  132   -0.012765012410
  133   -0.025404302671
  134    0.009569059102
  135   -0.198534286659
  136    0.182343214423
  137    0.016191072236
  138   -0.038881940621
  139   -0.032427746415
  140    0.056260114823
  141    0.042212706886
  142   -0.019675571366
  143   -0.018672615079
  144   -0.023668946878
  145    0.001523738732
  146    0.005493323086
  147   -0.032965342389
  148    0.024873810310
  149    0.019558618894
  150   -0.034002176219
  151    0.006540754608
  152   -0.128194809249
  153   -0.093609191227
  154    0.014460640967
  155    0.018021589781
  156   -0.003143843002
  157    0.060859108684
  158   -0.008163029457
  159   -0.149485509676
  160    0.008480201584
  161    0.022652360822
  162   -0.004136094165
  163   -0.005358811875
  164   -0.087612915400
  165    0.034387031219
  166    0.000452212602
  167    0.021151163627
  168   -0.011795510875
  169   -0.006873983860
  170    0.218421766790
  171    0.184592815014
  172    0.035967054013
  173   -0.055739858007
  174   -0.195062862877
  175    0.004223731896
  176   -0.509896569102
  177   -0.434957393803
  178   -0.149591726158
  179    0.009615153459
  180    0.084042813203
  181    0.017320068551
  182    0.290068453949
  183    0.171467360058
  184    0.022853700502
  185   -0.076160590657
  186   -0.046384513988
  187    0.016997227427
  188    0.148319653566
  189   -0.010220376158
  190    0.005338638510
  191   -0.003305567219
  192    0.032997296210
  193    0.005031426485
  194    0.052059114379
  195    0.016655787771
  196    0.007694215800
  197   -0.025168136532
  198    0.004475170112
 Sym=     1a
 Ene= 2.95020862570805E+00
Spin= Alpha
 Occup= 0
  1      0.026648073437
  2     -0.041928208702
  3      0.399693528470
  4     -1.076051408420
  5     -0.086671013266
  6      0.089678471787
  7      0.006687289150
  8     -0.015836362728
  9     -0.624264903665
  10     0.025181525018
  11     0.665065112710
  12    -0.731326969310
  13     0.203758940196
  14     1.730709868582
  15     0.007050892137
  16    -0.015461853144
  17     0.008410961007
  18     0.022729847835
  19    -0.024826989739
  20    -0.005141559642
  21    -0.376854855571
  22     0.350146738781
  23     0.026708116790
  24    -0.365747866480
  25    -0.002679367541
  26    -0.062899457307
  27     0.024414562283
  28     0.036732696226
  29     0.077434526190
  30     0.057565070231
  31    -0.054870532006
  32    -0.125978796293
  33    -0.090320642775
  34     0.005588448551
  35     0.022089477673
  36    -0.085809758073
  37     0.007095516342
  38    -0.014625525148
  39     0.130871490347
  40    -0.478488252194
  41    -0.463593543064
  42     0.009606798928
  43    -0.003689822162
  44     0.010560764529
  45    -0.231843155910
  46    -0.062897455661
  47    -0.125169502849
  48    -0.143172746302
  49     0.039045832244
  50     0.134318680121
  51    -0.009064086489
  52     0.005182588061
  53     0.003881498428
  54    -0.010847974372
  55    -0.015045051356
  56    -0.005347076943
  57    -0.037542363786
  58    -0.082117828921
  59     0.119660192707
  60    -0.038144664701
  61     0.030751455736
  62     0.161417252805
  63    -0.031767780037
  64     0.017549261306
  65    -0.003831454936
  66     0.006786703290
  67    -0.018711904207
  68     0.004455094377
  69     0.035834246104
  70    -0.004832900534
  71     0.000685341837
  72     0.034792056202
  73    -0.050271107716
  74    -0.074705219191
  75     0.187248127378
  76     0.004028327987
  77    -0.044037852606
  78     0.003475199283
  79     0.007268730439
  80    -0.015312305073
  81     0.012160590442
  82     0.575084528853
  83    -0.004759512370
  84    -0.096024146428
  85    -0.073487272808
  86     0.077979905733
  87    -0.188218418137
  88    -0.130661113214
  89    -0.776801531726
  90     0.749651142645
  91     0.351642341063
  92    -1.018151250758
  93     0.647463500064
  94     0.580034848765
  95    -1.227498348829
  96     0.007541051296
  97     0.037951091719
  98    -0.039375261751
  99    -0.654554821854
  100   -0.812069057954
  101    1.466623879808
  102    0.089349924399
  103    0.151382510831
  104    0.041379866970
  105   -0.019665437155
  106    0.028701720403
  107   -0.006228227758
  108    0.028207741483
  109   -0.004530229819
  110    0.016633606048
  111   -0.001823788911
  112   -0.033977168917
  113   -0.008277561660
  114    0.000149867196
  115   -0.006976467558
  116    0.009643055797
  117   -0.215564890324
  118    1.211094133586
  119    0.534116598509
  120    0.028110669817
  121    0.002089581876
  122    0.008288103064
  123   -0.003040360274
  124    0.208138121832
  125    0.474562088470
  126   -0.019488618560
  127    0.258168261522
  128    0.145286392344
  129    0.000723868365
  130   -0.009492484651
  131    0.008768616286
  132    0.018962804036
  133    0.019670136560
  134    0.014491769107
  135   -0.143556862036
  136    0.127222231358
  137    0.016334630678
  138   -0.075511868548
  139    0.018808309514
  140    0.095087807430
  141   -0.030021961076
  142   -0.008534044327
  143   -0.021726537085
  144    0.025304137192
  145   -0.015575325368
  146   -0.000026735590
  147    0.014974550278
  148    0.027024947310
  149    0.029175943892
  150    0.027906387815
  151   -0.004798046028
  152    0.210879065452
  153    0.112392674583
  154   -0.020851593662
  155   -0.074745583266
  156   -0.201425100056
  157    0.014983266105
  158    0.285445101915
  159    0.221280460821
  160    0.013900927044
  161   -0.096717391137
  162   -0.028415664392
  163    0.007698259758
  164   -0.479142295286
  165   -0.585058144947
  166    0.055145102635
  167    0.015104441512
  168    0.154802443225
  169    0.002615670780
  170   -0.087736577026
  171   -0.076008390001
  172   -0.009716293497
  173    0.013633044230
  174   -0.008090252717
  175   -0.013063419140
  176   -0.089906804410
  177    0.044397751149
  178   -0.010728243986
  179    0.019431325860
  180   -0.007922086508
  181    0.050330627720
  182    0.019898018203
  183   -0.106104113621
  184   -0.014882229502
  185    0.020015817791
  186   -0.000579465375
  187   -0.004705405974
  188    0.007209428496
  189    0.028036534204
  190   -0.005889205583
  191   -0.024369071622
  192   -0.005103969603
  193    0.014661015966
  194    0.136869681849
  195    0.009448915419
  196   -0.000406103322
  197    0.004479280242
  198    0.030674114132
 Sym=     1a
 Ene= 2.96574081416953E+00
Spin= Alpha
 Occup= 0
  1      0.027750942189
  2     -0.093642964001
  3      0.722960177932
  4     -1.679483179628
  5     -0.556119984094
  6     -0.023679316682
  7     -0.034054900721
  8     -0.107826846301
  9      0.123575921344
  10     0.108709314169
  11     0.293302399944
  12     0.215922526452
  13     0.310601670976
  14     0.838597279833
  15    -0.740305622031
  16    -0.504327244939
  17     1.244632866970
  18    -0.040213744480
  19    -0.022227896539
  20     0.112131280373
  21     2.584036270468
  22     1.160126263805
  23    -3.744162534273
  24     0.247751247704
  25     0.108677618016
  26    -0.505946332957
  27    -0.021904037505
  28    -0.013536517846
  29     0.053404709435
  30     0.012862316411
  31     0.044591317163
  32    -0.033005802431
  33     0.016525033695
  34    -0.026430172714
  35    -0.038644133938
  36    -0.012579133239
  37    -0.016739519406
  38     0.021325148684
  39    -0.181137947497
  40     0.136594322999
  41     0.164406780517
  42    -0.053723492622
  43     0.010833688974
  44     0.008995270920
  45     0.736236837193
  46     0.113548715940
  47     1.082056608000
  48    -0.008360882865
  49    -0.112478809063
  50    -0.023290081605
  51    -0.029627092479
  52     0.016608727852
  53     0.013018364627
  54     0.005308127315
  55    -0.019762266865
  56     0.005533083980
  57     0.874889276049
  58    -0.205270633407
  59    -0.669618642642
  60     0.037958386580
  61     0.515120367505
  62    -0.102826093099
  63     0.091708680625
  64    -0.003202973794
  65    -0.007191924828
  66    -0.048717162067
  67     0.012243231288
  68    -0.002658111130
  69    -0.074322944336
  70    -0.007945991007
  71     0.012307090813
  72    -0.005849599861
  73     0.029437494331
  74     0.295022766014
  75     0.055304083027
  76    -0.003990247183
  77     0.058395587053
  78     0.017179370792
  79    -0.031841909259
  80     0.045798477937
  81    -0.284560140363
  82    -0.404686348231
  83     0.069834713125
  84     0.114949519199
  85     0.032157188454
  86     0.044224623121
  87    -0.214160394318
  88     0.119074901930
  89     1.021718038545
  90     0.120448528613
  91    -0.007854783943
  92    -0.018487207641
  93    -0.014780644747
  94     0.014240001759
  95     0.000540642988
  96    -0.012165486288
  97     0.026128860189
  98     0.012097185597
  99     0.599866725097
  100   -0.267971513275
  101   -0.331895211822
  102    0.205256201978
  103   -0.687060849811
  104   -0.226131315321
  105   -0.091000326733
  106    0.048361072337
  107   -0.013946200089
  108    0.062327255398
  109   -0.064599327496
  110    0.001098363090
  111    0.059762494532
  112   -0.000283859630
  113    0.017612427766
  114   -0.015262447844
  115    0.061923687132
  116   -0.113997049697
  117    0.493261448942
  118    2.085603559538
  119    0.318390481178
  120    0.004888500167
  121    0.085834511976
  122    0.318078853295
  123    0.141678065609
  124    1.363368634968
  125    0.618586029501
  126   -0.022475037083
  127    0.335468477405
  128    0.111536807077
  129    0.012525551703
  130   -0.007212027996
  131   -0.005313523707
  132   -0.002971550768
  133    0.000698390904
  134   -0.035831665086
  135   -0.005216925648
  136    0.324347130125
  137   -0.319130204477
  138    0.101324531008
  139    0.001680413637
  140    0.452897826316
  141    0.001559605960
  142    0.132896915283
  143   -0.112567658323
  144   -0.010863273890
  145    0.029812918671
  146    0.095083265620
  147    0.008770842922
  148   -0.208112840616
  149    0.055942096027
  150   -0.005708637786
  151    0.008263085211
  152   -0.081444696166
  153   -0.099595347742
  154    0.083744236704
  155    0.058057732598
  156   -0.004633887880
  157    0.043959763496
  158   -0.029326760005
  159   -0.037953941307
  160    0.035028930058
  161   -0.009080570985
  162   -0.030786345726
  163   -0.029522274174
  164   -0.113962561336
  165   -0.070142347130
  166   -0.070978085498
  167   -0.017404246440
  168   -0.075841805314
  169    0.005447512016
  170   -0.105537517504
  171   -0.041476958786
  172   -0.108208789467
  173    0.027441465052
  174    0.023986288217
  175   -0.016455717254
  176    0.025640902083
  177   -0.014482640849
  178    0.096211556809
  179   -0.006856911514
  180   -0.089364938536
  181    0.014709810950
  182   -0.122096920952
  183   -0.036507967217
  184   -0.046741461664
  185   -0.021190199383
  186   -0.014579953480
  187   -0.006438898975
  188   -0.052288883860
  189    0.069440397550
  190    0.019578967096
  191   -0.027226459848
  192   -0.028192292572
  193   -0.022927782965
  194   -0.221735530613
  195    0.071562988480
  196   -0.001480377319
  197   -0.052598978184
  198   -0.072599264218
 Sym=     1a
 Ene= 3.01745118394374E+00
Spin= Alpha
 Occup= 0
  1      0.069306657467
  2     -0.233944945497
  3      1.806076061230
  4     -4.194710623275
  5     -1.390281370519
  6     -0.003389329144
  7      0.069361515527
  8      0.080367389299
  9     -0.092403552995
  10    -0.320053976431
  11    -0.538704916166
  12    -0.042657440460
  13    -0.541539961236
  14    -0.851247361530
  15     1.120378043872
  16    -0.983184550584
  17    -0.137193493288
  18     0.033508921529
  19    -0.024649769480
  20    -0.064252188321
  21    -3.357102386988
  22     2.504805682037
  23     0.852296704951
  24    -0.104491667924
  25     0.092611153520
  26     0.565008795021
  27    -0.006815986083
  28    -0.024406407383
  29     0.056421894271
  30     0.017227401381
  31     0.016353879484
  32    -0.046238143160
  33    -0.008082796453
  34     0.016390752113
  35    -0.029459771445
  36     0.023133340327
  37     0.034791647958
  38    -0.078493860203
  39     0.202066360825
  40     2.258188683843
  41     0.569436409361
  42     0.226734900771
  43    -0.021910892249
  44    -0.088823311940
  45     0.321615207322
  46    -0.318148128566
  47    -1.643498205899
  48     0.156519533162
  49     0.034694345029
  50    -0.244604165428
  51    -0.013898094658
  52     0.035149650069
  53    -0.021251555411
  54     0.005358161620
  55     0.019320759092
  56    -0.003423229619
  57    -0.146841402062
  58    -0.503696517890
  59     0.650537919952
  60    -0.199401007681
  61    -0.029744986699
  62     0.009137470684
  63    -0.064745742128
  64     0.004415771071
  65    -0.100859535384
  66     0.101666632400
  67    -0.004670831601
  68     0.180939432027
  69    -0.014801104008
  70    -0.001253546971
  71    -0.045622165648
  72    -0.009369479169
  73     0.166595738266
  74     0.456589034300
  75    -0.011803971804
  76    -0.023886338933
  77     0.066499845644
  78     0.025749660743
  79     0.030448990428
  80    -0.068936386516
  81     0.127969022645
  82     2.389440917464
  83     0.654933198991
  84    -0.213048410957
  85    -0.035006567383
  86    -0.073299259904
  87    -0.472232630625
  88    -1.061908009551
  89    -1.313189124446
  90    -0.255829278241
  91    -0.230402030245
  92    -0.130227106531
  93    -0.007455420213
  94     0.015098548943
  95    -0.007643128730
  96    -0.027805444084
  97    -0.016773838676
  98    -0.015716872977
  99    -0.369103728638
  100   -0.057704954433
  101    0.426808683071
  102    0.505367772279
  103    0.172199543447
  104    0.185484662466
  105    0.096735554965
  106   -0.043479568940
  107   -0.095064043668
  108   -0.081147309958
  109    0.078005395454
  110    0.147236411394
  111   -0.048637056088
  112   -0.019671432384
  113   -0.019694613080
  114    0.035300687389
  115   -0.032142270929
  116    0.030564390964
  117   -0.263180804089
  118   -0.105976635255
  119    0.158787294972
  120    0.018051639989
  121   -0.117898196012
  122   -0.053079380368
  123   -0.185825084504
  124    0.774146866524
  125   -0.521586011248
  126   -0.102337337955
  127    0.289056515385
  128   -0.357009618655
  129   -0.026271786461
  130    0.016720364688
  131    0.009551421773
  132   -0.000892336413
  133   -0.000816191358
  134   -0.026824028465
  135    0.675112675029
  136   -0.374976907206
  137   -0.300135767823
  138    0.062805598461
  139    0.036210052997
  140    0.471330403675
  141   -0.006143786194
  142   -0.051402376002
  143    0.001778203272
  144    0.005235434371
  145    0.013943648824
  146    0.034690184637
  147    0.003007319771
  148    0.055019875342
  149   -0.037075894674
  150    0.010225648879
  151    0.023118405833
  152    0.291998455917
  153    0.078439052816
  154   -0.070031490566
  155   -0.023278487988
  156   -0.092963146918
  157    0.004008620640
  158   -0.185011458879
  159   -0.032976326894
  160    0.050386733997
  161    0.022558405821
  162    0.013887243561
  163   -0.048226136141
  164   -0.444463739360
  165    0.081283086386
  166    0.111225714561
  167    0.041513200705
  168    0.032832679061
  169    0.032602784887
  170    0.314866072272
  171    0.023021853104
  172    0.027927646364
  173   -0.007142181492
  174   -0.104548845645
  175   -0.076710687668
  176   -0.690609362266
  177    0.038089053592
  178   -0.159216139302
  179    0.001007719783
  180    0.051938008023
  181    0.048439471940
  182    0.083715053040
  183   -0.003656914847
  184   -0.027044909365
  185    0.021890405749
  186   -0.025456654610
  187   -0.060783415857
  188   -0.550890782202
  189   -0.210701156188
  190   -0.037131864772
  191    0.017515675030
  192   -0.084521104892
  193   -0.023836056452
  194   -0.291432521455
  195   -0.222665187740
  196   -0.024079505642
  197    0.034944186456
  198   -0.077522970491
 Sym=     1a
 Ene= 3.04870553387844E+00
Spin= Alpha
 Occup= 0
  1     -0.039017989827
  2      0.056660143905
  3     -0.582111732868
  4      1.614914132511
  5      0.203758405939
  6     -0.122769688889
  7     -0.040888695454
  8     -0.079879639390
  9      0.495861503446
  10     0.608365244018
  11     0.373945320411
  12    -0.308876721636
  13     0.718956065909
  14     0.400854413171
  15     0.005494136283
  16    -0.030342934451
  17     0.024848798168
  18    -0.017273605564
  19     0.013553865640
  20    -0.023876723466
  21     0.460058375924
  22    -0.120668143518
  23    -0.339390232406
  24     0.487726018692
  25     0.277700936148
  26     0.430035508757
  27     0.106037801478
  28    -0.062909029622
  29    -0.115361307707
  30    -0.131629885935
  31     0.072661888507
  32     0.211905205980
  33    -0.010634753440
  34     0.011739431472
  35    -0.057131770376
  36     0.040793721723
  37     0.007784407030
  38    -0.014013101460
  39     0.184965548056
  40    -0.756594366707
  41    -0.331105887836
  42     0.002015820149
  43     0.010501022880
  44    -0.021206775868
  45    -0.136184703366
  46    -0.011991576655
  47     0.288800127500
  48    -0.131116381981
  49    -0.211233782301
  50     0.035293313757
  51    -0.008616176590
  52     0.003302793785
  53     0.005313382805
  54     0.000567229198
  55     0.010878349541
  56    -0.000524560763
  57     0.005815076668
  58     0.054144358473
  59    -0.059959435141
  60    -0.053425235927
  61     0.058669958709
  62     0.008518149096
  63     0.014414038950
  64     0.010562812275
  65    -0.028377578652
  66    -0.009287043342
  67    -0.036020505292
  68     0.035442233180
  69    -0.010051419211
  70     0.021849005524
  71     0.002630283762
  72     0.001958661807
  73    -0.028014714058
  74     0.046785085067
  75    -0.010642083094
  76    -0.004521963129
  77     0.015174647788
  78     0.023655320095
  79    -0.014091647496
  80     0.042144795274
  81    -0.038405829217
  82    -1.293497471308
  83     0.107329971823
  84     0.051992828630
  85     0.061917554262
  86     0.098288397710
  87     0.884106415834
  88    -0.387779549629
  89     0.560809510603
  90     0.091400544139
  91    -0.565393188311
  92    -0.679978671002
  93    -0.079292345781
  94     0.069335084335
  95     0.009957261446
  96    -1.266567560888
  97    -0.000257353364
  98    -0.036798212726
  99    -0.260863072132
  100    0.304133989532
  101   -0.043270917400
  102    1.249187405045
  103   -0.087877524451
  104   -0.178945524585
  105   -0.002335763016
  106   -0.013751217576
  107   -0.056976793035
  108    0.021384185363
  109    0.017309718438
  110    0.048518252245
  111   -0.018250430433
  112    0.001139475926
  113    0.027924137174
  114    0.012733160949
  115    0.003615598042
  116   -0.007001874575
  117    0.062110579667
  118   -0.090068114584
  119    0.016341813046
  120   -0.005089665940
  121    0.015698750702
  122    0.008918029688
  123    0.164215225201
  124    0.017343972374
  125   -0.080804170760
  126   -0.183365685594
  127   -0.157130057445
  128    0.092257344752
  129    0.014454201449
  130   -0.004173122352
  131   -0.010281079097
  132    0.006741002379
  133    0.002670877901
  134   -0.004252239835
  135   -0.068090434730
  136    0.108498627245
  137   -0.040408192515
  138   -0.025273336946
  139    0.052753582473
  140   -0.011976204101
  141   -0.010365682478
  142    0.000739829345
  143   -0.020310839994
  144   -0.016164909098
  145    0.002286299334
  146    0.014709459808
  147    0.030071931490
  148   -0.003278884559
  149    0.012540391536
  150   -0.008940936493
  151    0.001267610035
  152    0.376998711613
  153    0.387131992200
  154   -0.114000063795
  155    0.019154584493
  156    0.001514999450
  157   -0.002249671121
  158   -0.379771836746
  159    0.118126121176
  160    0.212946835620
  161   -0.242203580652
  162    0.146746747374
  163    0.014879062470
  164    0.019740678228
  165   -0.301386711135
  166   -0.160233581373
  167   -0.116083714150
  168    0.104275395086
  169   -0.017814906533
  170    0.034366282365
  171    0.096866534134
  172    0.003461611004
  173   -0.010214593254
  174    0.006841158648
  175    0.013603430251
  176    0.132845761132
  177   -0.072330505882
  178    0.030151325436
  179   -0.000623925119
  180    0.012952036321
  181   -0.008046095533
  182    0.084078687473
  183   -0.073869819953
  184    0.016550949661
  185    0.022898691028
  186   -0.022059552691
  187    0.014139638948
  188    0.094044187680
  189   -0.085429726817
  190    0.013578466887
  191   -0.014534173549
  192    0.009929726226
  193   -0.005185403317
  194    0.056577889574
  195    0.151526247791
  196    0.009499769322
  197   -0.009945326164
  198    0.000452682962
 Sym=     1a
 Ene= 3.14044529952358E+00
Spin= Alpha
 Occup= 0
  1      0.006219102533
  2     -0.006931730359
  3      0.165485034049
  4     -0.878810270286
  5     -0.206347441531
  6      0.024209485432
  7      0.027366330271
  8     -0.023525642235
  9      0.400335837341
  10     0.582503082839
  11     0.190099335361
  12     0.387934625637
  13     0.264590975226
  14     0.301061372912
  15     0.001232984645
  16    -0.000196297321
  17    -0.001036687324
  18     0.040127468933
  19     0.016143260643
  20     0.002850675583
  21    -0.100107123033
  22     0.135913381696
  23    -0.035806258663
  24    -0.615831418192
  25    -0.007357710621
  26     0.092932490862
  27     0.053097401972
  28    -0.140713340352
  29     0.020111248426
  30    -0.067991790064
  31     0.219873741694
  32    -0.051517100715
  33    -0.003245850079
  34    -0.031086985073
  35     0.024535029559
  36    -0.155027665514
  37    -0.011709859686
  38     0.010978499695
  39    -0.211307290654
  40     0.823122626548
  41     0.236728521656
  42    -0.013341881609
  43     0.059988351247
  44     0.024273678509
  45     0.110374792040
  46    -0.539034372548
  47    -0.247271114982
  48     0.059160155561
  49    -0.144855456945
  50    -0.107264009986
  51     0.002580382604
  52    -0.002870720813
  53     0.000290338209
  54     0.005606228940
  55    -0.002424773734
  56    -0.007588481784
  57    -0.026792962868
  58     0.000774776894
  59     0.026018185974
  60    -0.361820731544
  61     0.010529124638
  62     0.225027402092
  63    -0.036190051392
  64     0.050834330347
  65     0.001443555315
  66     0.017534835577
  67    -0.048029877577
  68    -0.034414137220
  69     0.031019213436
  70    -0.020171533371
  71     0.032477404532
  72     1.300527684280
  73    -0.007674130092
  74     0.040608616767
  75     0.026498955952
  76     0.009667784785
  77     0.001698848111
  78    -0.006153765196
  79     0.010261733764
  80    -0.025658205309
  81     0.182020235168
  82    -0.286129673975
  83    -0.224658499284
  84    -0.037641576055
  85    -0.000787084106
  86     0.006153384516
  87     0.075861896085
  88     0.040429541702
  89    -0.096037256461
  90     0.163477116549
  91    -0.000301353813
  92     0.004645557096
  93     0.007389700524
  94     0.000964290358
  95    -0.008353990882
  96    -0.000297978085
  97    -0.003252693663
  98     0.002634351859
  99     0.012952813341
  100   -0.050958026561
  101    0.038005213220
  102   -0.007318751126
  103   -0.009431602355
  104   -0.092770947077
  105   -0.016333989508
  106   -0.006449169510
  107    0.005754355789
  108   -0.003277245034
  109    0.012551461686
  110    0.014469411913
  111    0.025191591565
  112   -0.003898992833
  113   -0.022189690340
  114    0.017128625176
  115   -0.006659357427
  116    0.013614726853
  117   -0.166138660833
  118    0.619438584062
  119    0.214215410308
  120    0.009530035460
  121   -0.006175025938
  122   -0.034582845561
  123   -0.102232889042
  124    0.151048802628
  125    0.386717455012
  126   -0.019452684753
  127    0.054236717998
  128    0.091290737384
  129    0.002708142287
  130    0.002841644014
  131   -0.005549786301
  132   -0.002935053339
  133    0.009504399388
  134    0.002421496083
  135   -0.083654059140
  136   -0.048669337175
  137    0.132323396315
  138    0.029371333689
  139   -0.165137828955
  140    0.065171951059
  141    0.008983042618
  142   -0.007692573503
  143    0.004410948369
  144    0.000322841816
  145   -0.002723520844
  146    0.005734592571
  147   -0.012374858179
  148    0.013044191209
  149   -0.011652500810
  150    0.002628991491
  151    0.024208609478
  152    0.119865654962
  153   -0.026661818364
  154    0.001337806014
  155   -0.011676375723
  156   -0.021040131754
  157    0.017337097332
  158    0.010843698264
  159   -0.034057555750
  160   -0.002341793377
  161    0.004510693330
  162   -0.010507029391
  163   -0.011988675222
  164   -0.040684708437
  165   -0.059128347643
  166    0.006467797810
  167   -0.006693001191
  168   -0.001131023073
  169   -0.039050224090
  170   -0.033091784193
  171    0.020322915329
  172   -0.227228537108
  173    0.025172997783
  174    0.009736740209
  175   -0.066764801102
  176   -0.188457195910
  177    0.028608188150
  178   -0.064666457566
  179   -0.213627224669
  180   -0.028314018237
  181   -0.046359254524
  182   -0.206417724620
  183    0.006197196218
  184    0.138166268244
  185   -0.044245291835
  186    0.042514976609
  187    0.007499920432
  188    0.087567058446
  189   -0.007170333148
  190    0.019240546991
  191    0.002380178763
  192   -0.008657023448
  193   -0.005970465447
  194   -0.044798698124
  195    0.006045218833
  196    0.009162235153
  197   -0.003667574820
  198    0.007462289783
 Sym=     1a
 Ene= 3.14545185225453E+00
Spin= Alpha
 Occup= 0
  1     -0.053313270058
  2      0.071499774672
  3     -0.778300118836
  4      2.229422594931
  5      0.300617425789
  6      0.007216325463
  7      0.114602292599
  8      0.256954488065
  9     -0.043978956947
  10    -1.001298822671
  11    -1.280098721499
  12    -0.010826604920
  13    -0.394258112301
  14     0.386150476729
  15     0.024789051988
  16    -0.049640637129
  17     0.024851585141
  18     0.002030330293
  19     0.000628016695
  20    -0.012280734887
  21    -0.679168643603
  22    -0.005709143818
  23     0.684877787421
  24     0.040282116431
  25     0.013766716581
  26     0.976814771730
  27     0.009765978714
  28     0.133450172642
  29    -0.233638350589
  30     0.002808332985
  31     0.076628565283
  32     0.254169853508
  33    -0.015910768347
  34    -0.255670759865
  35     0.059288886933
  36     0.006646439914
  37     0.010139078944
  38    -0.022901485324
  39     0.179746351908
  40    -0.289355553956
  41    -0.114889186664
  42     0.025701481442
  43    -0.003470715026
  44    -0.016215376360
  45    -0.214932916077
  46    -0.113512641434
  47    -0.000805084599
  48    -0.173580858398
  49     0.058883077910
  50     0.050611420309
  51    -0.013323626319
  52     0.003068099795
  53     0.010255526524
  54    -0.000076324575
  55     0.013398524407
  56     0.006175161429
  57    -0.108826542472
  58     0.090396605010
  59     0.018429937462
  60    -0.026743243485
  61    -0.014221947371
  62    -0.148526925337
  63     0.010415151074
  64    -0.009720734683
  65    -0.027107354468
  66    -0.015377781716
  67     0.002655579791
  68     0.038656493199
  69     0.001404390237
  70     0.010386154335
  71    -0.002288160831
  72    -0.016362125850
  73     0.039836373942
  74     0.436334631920
  75     0.197433097310
  76     0.011229531754
  77    -0.078162850474
  78     0.155264497859
  79     0.009055967057
  80    -0.020968618607
  81     0.162757328219
  82    -0.238052393550
  83    -0.062736589019
  84    -0.026958440803
  85    -0.006732493047
  86    -0.014044220746
  87     0.223548041429
  88    -0.143286977652
  89    -0.062248278748
  90     0.145415907997
  91     0.108601142688
  92    -0.022799588698
  93    -0.017635353683
  94     0.001400740706
  95     0.016234612977
  96    -0.003990649774
  97    -0.007358220476
  98     0.007019724618
  99    -0.111575023799
  100    0.112523827151
  101   -0.000948803352
  102   -0.026305838538
  103    0.088892753293
  104   -0.142516717322
  105    0.009283458729
  106    0.001073211204
  107   -0.022118174432
  108    0.012902155930
  109   -0.001243844693
  110    0.029270960410
  111   -0.025357222800
  112   -0.000196019230
  113    0.000403684531
  114    0.018539956018
  115   -0.019196816334
  116    0.051023344499
  117    0.003789035774
  118   -2.013465010876
  119    0.052444381202
  120    0.026733274080
  121   -0.157205996322
  122   -0.109693659721
  123    0.001276385702
  124   -0.200867477919
  125   -1.789819753455
  126   -0.179656170483
  127    0.709310469541
  128    0.398647985077
  129    0.067174270366
  130    0.032795360584
  131   -0.099969630950
  132    0.002326776231
  133   -0.026282595373
  134   -1.292594636877
  135    0.421490641299
  136    0.031723026966
  137   -0.453213668265
  138    0.066213980129
  139   -0.031147027003
  140    1.103234325603
  141   -0.002467941859
  142   -0.004717108191
  143   -0.021626471971
  144   -0.005487920195
  145    0.018623894950
  146    0.000820080576
  147    0.008799011652
  148   -0.012295230206
  149    0.028194876288
  150   -0.013205459203
  151    0.036641333985
  152    0.104080893184
  153   -0.009603006753
  154   -0.015207963552
  155   -0.025107676974
  156   -0.006490296240
  157   -0.005238749565
  158   -0.214685524548
  159   -0.009214724177
  160    0.013430827411
  161   -0.027376186345
  162    0.023088058138
  163    0.030241631085
  164   -0.004464629051
  165   -0.143596499919
  166    0.007405794114
  167   -0.019500477516
  168    0.017668228574
  169    0.034737305329
  170    0.058854685489
  171   -0.009866902372
  172    0.017422917239
  173   -0.012825400882
  174   -0.002713518270
  175    0.033947820090
  176   -0.043505803553
  177   -0.133112077483
  178   -0.009732785054
  179   -0.013980336662
  180    0.019557478071
  181    0.008383971690
  182   -0.213579074974
  183   -0.048209207197
  184   -0.000738495986
  185   -0.025077715015
  186    0.024164561850
  187   -0.007988552433
  188   -0.254181965362
  189    0.099805967447
  190   -0.062933232322
  191    0.050542604929
  192   -0.052644128693
  193   -0.011592705594
  194   -0.233276012355
  195    0.276423603322
  196    0.138736662449
  197    0.104369860665
  198   -0.155630267450
 Sym=     1a
 Ene= 3.15850671027433E+00
Spin= Alpha
 Occup= 0
  1     -0.006780468123
  2      0.018348483269
  3     -0.140549426759
  4      0.164878616796
  5      0.155085281558
  6      0.020166565717
  7      0.014038654595
  8      0.021684769036
  9      0.395231311655
  10    -0.000754943467
  11    -0.093053555596
  12     0.265562819999
  13    -0.060468851564
  14    -0.241993923788
  15    -0.003970436668
  16     0.000777029912
  17     0.003193406756
  18     0.001001502249
  19     0.011656251491
  20    -0.002625822617
  21     0.020640426334
  22    -0.015259235909
  23    -0.005381190425
  24    -0.032690805054
  25    -0.176772668985
  26     0.036538638308
  27    -0.065874039685
  28    -0.000533225459
  29    -0.013927684740
  30    -0.015972526493
  31     0.010162770675
  32     0.011709904231
  33     0.104351824907
  34    -0.009447373651
  35     0.006976045678
  36    -0.004296514931
  37    -0.006688185802
  38     0.018326739032
  39    -0.140276952476
  40     0.294794318564
  41     0.161054483841
  42    -0.014671920700
  43     0.002699159187
  44     0.030141450614
  45     0.054049880185
  46    -0.025383449620
  47    -0.147307990323
  48     0.067610374007
  49    -0.008567247797
  50    -0.117865463451
  51     0.003339280780
  52     0.003916362775
  53    -0.007255643555
  54    -0.001246514324
  55     0.003275078635
  56     0.001368636936
  57     0.048913916693
  58    -0.083888701905
  59     0.034974785212
  60    -0.015821993756
  61    -0.007663433180
  62    -0.007649054023
  63     0.021694650315
  64     0.002551165790
  65     0.007324896823
  66    -0.008501407325
  67    -0.007015764171
  68    -0.016751109235
  69    -0.020605020386
  70     0.003593016094
  71     0.006923728900
  72     0.002611561064
  73     0.199903886576
  74     0.499391019290
  75    -0.059678874038
  76     0.229433576721
  77     0.192919248201
  78    -0.034002262568
  79     0.004414904646
  80    -0.010044907247
  81     0.094283654148
  82    -0.253365220183
  83    -0.094055932400
  84    -0.010467879080
  85    -0.006993730810
  86    -0.028780476505
  87     0.086488125736
  88     0.052253427461
  89     0.200422971511
  90     0.018094257817
  91    -0.020996966768
  92     0.096651153892
  93    -0.003245519415
  94    -0.003881267366
  95     0.007126786781
  96    -0.001152736584
  97     0.005175418080
  98     0.000294121103
  99    -0.008967602643
  100    0.069231079470
  101   -0.060263476827
  102   -0.035234142778
  103   -0.053025516688
  104   -0.010135926241
  105    0.006208443789
  106   -0.004950800922
  107    0.002720492164
  108   -0.003451071011
  109    0.009021316179
  110    0.000677124926
  111   -0.004878430398
  112   -0.002379119737
  113   -0.004327048173
  114    0.001355835833
  115    0.015593383064
  116   -0.000396708763
  117    0.221122281602
  118   -1.018972423554
  119   -0.212596390986
  120   -0.025803722954
  121   -0.020272794592
  122    0.001586879953
  123    0.776430122049
  124    0.369954617010
  125    0.003624735070
  126    0.028993484553
  127   -0.005684511624
  128   -0.092849717792
  129   -0.000187643354
  130    0.000140641424
  131    0.000047001930
  132    0.000278168454
  133    0.000166576580
  134   -0.001994266798
  135   -0.167232156839
  136   -0.091659923572
  137    0.258892080411
  138    0.210801180441
  139   -0.802010481146
  140    0.072389177809
  141    1.026565529264
  142    0.055858386046
  143   -0.017243435731
  144   -1.367988047089
  145   -0.036742871880
  146    0.070218017919
  147   -0.009294136986
  148   -0.038199017107
  149   -0.047083521243
  150   -0.053387692445
  151   -0.002800931467
  152   -0.041505734347
  153    0.017512393255
  154    0.001950430554
  155    0.002833968268
  156    0.009777183763
  157    0.000440870264
  158   -0.044598467835
  159   -0.029127843655
  160    0.002610831684
  161   -0.001177096609
  162    0.010148837408
  163    0.012048885052
  164    0.046356584390
  165   -0.009186214732
  166   -0.014172848699
  167   -0.001865882948
  168   -0.002858424509
  169   -0.001766978624
  170    0.045389325231
  171    0.039664306420
  172    0.001695549998
  173    0.002495624238
  174   -0.008088533973
  175   -0.014122894342
  176   -0.099274341705
  177    0.033726085324
  178   -0.021212380591
  179   -0.000781505923
  180   -0.000428067458
  181   -0.000305439380
  182    0.020197773003
  183    0.033778087517
  184    0.000109642946
  185   -0.001056057689
  186   -0.005424367081
  187    0.395743900683
  188    1.073750927491
  189   -0.163239093934
  190    0.230448088039
  191   -0.076866879272
  192    0.214566571811
  193   -0.183788210246
  194   -0.578346358314
  195    0.104811834958
  196    0.022222677244
  197    0.191417284182
  198   -0.079790587165
 Sym=     1a
 Ene= 3.17913441808252E+00
Spin= Alpha
 Occup= 0
  1      0.041775582147
  2     -0.067679326143
  3      0.870277857426
  4     -3.843772655750
  5     -0.442190335430
  6      0.006536447418
  7     -0.087312145336
  8     -0.153521669875
  9     -0.110499256525
  10     1.250134780778
  11     2.341060357585
  12    -0.075126355091
  13     0.762680880171
  14     1.571767491125
  15    -0.001226317531
  16    -0.007665965088
  17     0.008892282619
  18     0.013352272849
  19    -0.006832292674
  20     0.027864262975
  21     0.323225500045
  22     0.233214016745
  23    -0.556439516790
  24    -0.176045458411
  25     0.054558762650
  26    -0.780230639417
  27    -0.024548346364
  28    -0.782845420061
  29     0.060860283894
  30    -0.008553562739
  31    -0.398229830021
  32    -0.114352026478
  33     0.041488625462
  34     1.448527175099
  35     0.032699387328
  36    -0.013296611809
  37    -0.002029723465
  38    -0.000060054178
  39     0.003430148725
  40    -0.147590408542
  41    -0.104027227064
  42     0.004632595861
  43     0.041559629749
  44     0.034280305992
  45    -0.071941123582
  46    -0.333457820617
  47    -0.200505071010
  48    -0.248909430271
  49    -0.247162344626
  50    -0.158202103170
  51     0.006399130675
  52    -0.001863125576
  53    -0.004536005099
  54     0.006883762307
  55    -0.000483330300
  56     0.001750978259
  57    -0.088982172420
  58     0.007210040936
  59     0.081772131484
  60    -0.206623514294
  61    -0.073105264718
  62    -0.077496269263
  63    -0.044089805916
  64     0.035110274058
  65    -0.011230188842
  66     0.025619138929
  67    -0.096073335301
  68     0.006420309887
  69     0.033533542956
  70     0.048967959599
  71     0.008646569504
  72    -0.027446662186
  73    -0.029671858311
  74     0.190652322162
  75     0.163003256064
  76     0.001603255669
  77    -0.024081619876
  78    -0.001558921879
  79    -0.001680693382
  80    -0.004430893516
  81    -0.002085333801
  82     0.031094957832
  83    -0.076610921446
  84    -0.018997571260
  85     0.032282540226
  86     0.032213521847
  87     0.032638604633
  88    -0.149299586910
  89    -0.405367862276
  90     0.259901175605
  91    -0.158842226001
  92    -0.254754748758
  93     0.008733152160
  94    -0.004754587635
  95    -0.003978564525
  96    -0.002975611847
  97     0.002490103163
  98     0.001855831207
  99    -0.131633189187
  100   -0.027104885362
  101    0.158738074549
  102    0.038047747330
  103    0.234974659696
  104   -0.043456620140
  105    0.094916645655
  106   -0.003628425628
  107    0.018743082351
  108   -0.024949261786
  109    0.010936128631
  110   -0.071007957591
  111   -0.102394781343
  112   -0.006068084818
  113    0.045861473844
  114    0.033586609244
  115    0.003635852906
  116   -0.084176483885
  117   -0.153427063903
  118    3.712316989632
  119    0.652647166914
  120    0.004966300735
  121    0.080682572778
  122    0.227745993737
  123    0.031844773621
  124    0.879426942191
  125    2.163634598919
  126   -0.006602924637
  127    0.304417536097
  128    0.384077901692
  129   -0.041480173334
  130   -0.017835274906
  131    0.059315448240
  132   -0.000641627903
  133    0.001824427150
  134    0.041677857108
  135   -0.247612733426
  136   -0.498854503458
  137    0.746467236884
  138    0.042328967586
  139    0.021929496252
  140    0.442729496286
  141   -0.015605741447
  142   -0.129394173906
  143    0.172686713634
  144    0.004820768406
  145    0.028606748121
  146   -0.086703995994
  147    0.016116530824
  148    0.144993753127
  149   -0.144979542304
  150   -0.000354011032
  151    0.000479592422
  152    0.178601390728
  153   -0.009236761332
  154   -0.031767893595
  155   -0.019271789773
  156   -0.022846477124
  157    0.007294223030
  158   -0.104565731467
  159   -0.070327653384
  160    0.027466798210
  161    0.001280035871
  162   -0.005781446951
  163    0.013181197649
  164   -0.070900415236
  165   -0.138240193022
  166    0.011603922200
  167    0.011206165613
  168    0.001364147720
  169    0.003416187832
  170    0.206573117998
  171   -0.029612091612
  172    0.041864397220
  173   -0.014778662365
  174   -0.031339496663
  175    0.008442875433
  176   -0.038122326656
  177   -0.150510217101
  178   -0.000627949913
  179    0.003087156083
  180    0.002461814165
  181    0.006573769421
  182   -0.202676986757
  183   -0.085140584653
  184   -0.049977387313
  185   -0.009628392881
  186    0.011823250491
  187   -0.037286957821
  188   -0.110101815182
  189    0.119736039338
  190   -0.030617680173
  191   -0.005440046570
  192   -0.046645658274
  193   -0.045116353306
  194   -0.077453774407
  195    0.114842044535
  196    0.026434440400
  197    0.010428810179
  198   -0.040469257652
 Sym=     1a
 Ene= 3.17920109932198E+00
Spin= Alpha
 Occup= 0
  1      0.004652113496
  2     -0.007981746678
  3      0.094456416059
  4     -0.368201107133
  5     -0.057239519536
  6     -0.163189638014
  7      0.012597062940
  8      0.009036061819
  9      2.427277094231
  10    -0.063593231155
  11    -0.225478913411
  12     1.594800839944
  13    -0.031779631971
  14    -0.171160727307
  15    -0.001806883254
  16     0.008750975143
  17    -0.006944091889
  18     0.010865161077
  19    -0.019447672883
  20     0.011135867615
  21     0.007310902327
  22    -0.045732577251
  23     0.038421674924
  24    -0.003764361476
  25     0.718205081436
  26    -0.092578731768
  27     1.119185070234
  28     0.007056155638
  29     0.021978496584
  30    -1.384115021079
  31    -0.007588590779
  32    -0.019343581923
  33    -0.117429316788
  34    -0.001878235421
  35    -0.010143665520
  36    -0.068509348375
  37     0.003127116784
  38    -0.049529682274
  39    -0.085978534207
  40     2.212749762281
  41     0.425362840028
  42     0.141495977753
  43    -0.031345730758
  44    -0.052285472429
  45     0.864537866183
  46    -0.024761371736
  47    -1.043348491132
  48     0.115424709734
  49     0.060158142630
  50    -0.431384335331
  51     0.019095107117
  52    -0.014731224684
  53    -0.004363882433
  54    -0.010046729023
  55    -0.035004456536
  56     0.003619129460
  57     0.077847228181
  58    -0.388818867562
  59     0.310971639381
  60    -0.070380306220
  61    -0.374516860780
  62     0.151722722573
  63    -0.053691046116
  64     0.052348304962
  65    -0.063765241271
  66    -0.082511016852
  67    -0.043211520061
  68    -0.047814693421
  69     0.154545114191
  70    -0.027021100980
  71     0.133364741872
  72     0.062738519150
  73    -0.005369112412
  74    -0.056029213294
  75    -0.014521297548
  76    -0.023406310835
  77    -0.013575032625
  78    -0.007086912389
  79    -0.002642057549
  80     0.036868788551
  81     0.077276032072
  82    -1.770244810291
  83    -0.362259674118
  84     0.110875848057
  85     0.036877134192
  86     0.026163469029
  87     0.685660294363
  88     0.670678286213
  89     0.651982615061
  90     0.110207234478
  91     0.125076559776
  92     0.355580506434
  93    -0.015265973289
  94     0.006586470248
  95     0.008679503041
  96    -0.017812800024
  97    -0.021397671684
  98    -0.008637713546
  99     0.071993934864
  100    0.018820342879
  101   -0.090814277743
  102   -0.502352308153
  103   -0.211040373680
  104   -0.325167781039
  105   -0.129158680829
  106   -0.141545991844
  107    0.002376697999
  108    0.094554128676
  109    0.146107598039
  110   -0.017498910900
  111    0.078730425454
  112    0.043796277784
  113    0.014310235927
  114    0.186161783689
  115   -0.000144538030
  116   -0.000506549104
  117    0.004760684605
  118   -0.028092157453
  119   -0.009354551887
  120    0.051811358570
  121    0.001958911367
  122   -0.001110654139
  123   -0.180795429837
  124   -0.072923097897
  125    0.000129738983
  126   -0.317348415311
  127   -0.023918218060
  128   -0.007175132948
  129    0.000189590069
  130    0.000158902794
  131   -0.000348492863
  132    0.010077500432
  133    0.010970379546
  134    0.000033245575
  135    0.009762787907
  136    0.000673325601
  137   -0.010436113508
  138   -0.102754388395
  139    0.066215648571
  140   -0.014788958664
  141   -0.058622977716
  142   -0.003656793426
  143   -0.007363972925
  144   -0.013168367304
  145    0.003873735204
  146    0.001099250815
  147    0.091819345234
  148    0.001032368005
  149    0.008780555612
  150   -0.016194194142
  151    0.040526227459
  152   -0.056267974973
  153   -0.136837264653
  154    0.010413976724
  155    0.001775290882
  156   -0.000385917662
  157    0.014567824446
  158   -0.097802530160
  159   -0.121417242420
  160   -0.015650250848
  161    0.007154851463
  162   -0.005165206229
  163    0.005480826213
  164    0.134154873715
  165   -0.057116538668
  166   -0.043262446659
  167   -0.014540335676
  168    0.002041672369
  169   -0.050314905274
  170    0.004946543076
  171    0.144490185730
  172    0.003948722054
  173    0.024393083327
  174    0.012358219591
  175   -0.006875159930
  176   -0.249853637875
  177    0.077019268667
  178   -0.083429634502
  179    0.009282277084
  180    0.016439429500
  181   -0.024866746591
  182    0.232486900115
  183    0.131569430588
  184    0.020694332379
  185   -0.016427215851
  186   -0.018142302565
  187   -0.015250057659
  188   -0.095518475091
  189   -0.077349613268
  190   -0.004839780770
  191   -0.000679015946
  192   -0.015523189520
  193    0.007720148692
  194    0.094033097547
  195    0.047929487675
  196    0.003738247798
  197    0.001325953368
  198    0.018939823902
 Sym=     1a
 Ene= 3.19337171392415E+00
Spin= Alpha
 Occup= 0
  1     -0.002042667800
  2      0.006158328706
  3     -0.118904685935
  4      0.788972830388
  5      0.105162769888
  6     -0.022420357638
  7      0.010531175338
  8      0.018807583563
  9      0.053094016570
  10    -0.022556988971
  11     0.013319638794
  12     0.145764341124
  13    -0.069339738199
  14    -0.113169524985
  15    -0.000260342690
  16     0.004008847876
  17    -0.003748505186
  18    -0.017940167059
  19    -0.019552450194
  20    -0.014022926964
  21     0.039229657543
  22    -0.073022634241
  23     0.033792976698
  24     0.179597669429
  25     0.204740471109
  26     0.173458166252
  27    -0.035657710233
  28     0.034143164280
  29    -0.000129549176
  30     0.020121702695
  31    -0.096438156187
  32    -0.000493573360
  33     0.027718135707
  34     0.050630294409
  35     0.000667381819
  36    -0.033263031852
  37    -0.008660221070
  38    -0.013457747710
  39    -0.088616476313
  40     0.679509431803
  41     0.076812936412
  42     0.011230952161
  43    -0.046976226398
  44    -0.046814217619
  45     0.001932001251
  46     0.889761647480
  47     0.729033976888
  48     0.095181893427
  49     0.054214164686
  50     0.038413222551
  51    -0.002007264236
  52    -0.001227974652
  53     0.003235238888
  54     0.000262638212
  55     0.000257515470
  56     0.005877411001
  57    -0.313499802811
  58     0.170110599717
  59     0.143389203094
  60     0.027178929191
  61     0.066618657606
  62     0.702681884554
  63    -0.002021122884
  64    -0.758917550369
  65     0.001058497832
  66     0.012204348363
  67    -0.412031139621
  68    -0.074489955014
  69    -0.009492727468
  70     1.430225878786
  71     0.073069831150
  72    -0.018414006411
  73     0.002262494310
  74     0.015610902186
  75     0.018588186343
  76    -0.008322349402
  77     0.007213951580
  78     0.008018098037
  79     0.000004667730
  80    -0.004495138268
  81     0.074608747860
  82    -0.432771249263
  83    -0.110607726263
  84    -0.023697210624
  85     0.003781802636
  86    -0.001861710490
  87     0.312172581643
  88    -0.002565778322
  89     0.033816605590
  90     0.072584998169
  91     0.008461008676
  92     0.008984163552
  93     0.005753621139
  94    -0.005703337023
  95    -0.000050284116
  96    -0.004397707112
  97     0.000721282571
  98     0.001012410257
  99    -0.121484020044
  100    0.065398844615
  101    0.056085175429
  102    0.000303945884
  103    0.003121153257
  104   -0.050934359406
  105    0.013383289572
  106    0.006003172067
  107   -0.001710759947
  108    0.004270783533
  109    0.002264178227
  110   -0.007290514195
  111   -0.022226350681
  112   -0.010318278720
  113    0.009585739516
  114    0.001931926636
  115    0.001135905040
  116   -0.001539119154
  117    0.054712333208
  118   -0.339176811307
  119   -0.108875793913
  120    0.005258275130
  121   -0.000046848138
  122    0.008179439931
  123    0.064391130995
  124   -0.047778505429
  125   -0.199605359832
  126   -0.044083320096
  127    0.008084001208
  128   -0.050720048407
  129   -0.001148809247
  130   -0.003495317503
  131    0.004644126750
  132    0.002827929836
  133   -0.001929350753
  134   -0.001930079524
  135    0.028530284634
  136    0.034897443453
  137   -0.063427728087
  138    0.001360992801
  139    0.087173173621
  140   -0.008690091936
  141   -0.011607114502
  142    0.003964435798
  143    0.004505678152
  144   -0.009830920189
  145   -0.004111363798
  146   -0.012328235197
  147    0.025403498419
  148   -0.001207484964
  149    0.006283233617
  150    0.007503102412
  151    0.009844646549
  152    0.071007746895
  153   -0.025671272376
  154   -0.017714235550
  155   -0.011812554444
  156   -0.012365003940
  157   -0.013796787359
  158   -0.027315273051
  159    0.004755813020
  160    0.001698457690
  161   -0.007696160959
  162    0.000702011166
  163    0.003736449011
  164   -0.014957677267
  165   -0.011235773138
  166    0.007806814653
  167   -0.005647967143
  168   -0.000198200310
  169   -0.485766578359
  170   -1.327111833306
  171    0.218326822375
  172    0.022309307424
  173    0.401443688748
  174    0.132987690994
  175   -0.003670906512
  176    0.119225248063
  177    0.001355568478
  178   -0.021563288331
  179   -0.019189227357
  180    0.018749389630
  181    0.101809875750
  182    0.260328300291
  183   -0.063007397274
  184    0.002149207561
  185    0.172085463583
  186    0.202566757132
  187   -0.001003207142
  188   -0.027612535728
  189    0.004527257399
  190   -0.005304535209
  191   -0.001778574823
  192    0.008497386498
  193   -0.003754708476
  194    0.036381487489
  195   -0.014191861372
  196   -0.002255812306
  197    0.000771025400
  198   -0.002909704884
 Sym=     1a
 Ene= 3.20127312685570E+00
Spin= Alpha
 Occup= 0
  1     -0.001788246134
  2      0.006357634936
  3     -0.007335841557
  4     -0.305468784256
  5      0.010203508482
  6     -0.049665268953
  7      0.005821564039
  8      0.027936143915
  9     -0.520136115684
  10    -0.034280871505
  11     0.013939753338
  12    -0.351644671776
  13    -0.082920264418
  14    -0.119205317972
  15     0.006189398083
  16    -0.004658559840
  17    -0.001530838243
  18    -0.006933383610
  19    -0.046862764218
  20    -0.005301241530
  21    -0.058978749379
  22     0.077419331729
  23    -0.018440582350
  24     0.162778645522
  25     0.693449000340
  26     0.042018222334
  27     0.135301920703
  28    -0.002685293189
  29     0.017562636676
  30     0.084180733058
  31     0.004003533954
  32    -0.010773434070
  33    -0.265707308365
  34    -0.000400835089
  35    -0.012789315613
  36    -0.102762197160
  37     0.010453874340
  38    -0.016477981582
  39     0.109278028342
  40     0.033600570838
  41    -0.083899944807
  42     0.005129910050
  43    -0.001058711246
  44    -0.024781160344
  45     0.146802386012
  46     0.051362640898
  47     0.117350711711
  48     0.000620228660
  49    -0.048964401884
  50     0.093339443812
  51    -0.006683133922
  52    -0.001823439671
  53     0.008506573593
  54    -0.000423002216
  55    -0.002976782503
  56    -0.003649883965
  57    -0.001917776298
  58     0.058362920070
  59    -0.056445143772
  60    -0.007236345216
  61    -0.024936438525
  62     0.062074096995
  63    -0.043258577281
  64     0.007207020608
  65     0.001702370852
  66     0.028579101921
  67    -0.017885818042
  68     0.008090653413
  69     0.029458369725
  70     0.008216585246
  71    -0.010374623582
  72     0.002628143342
  73     0.047107898454
  74     0.107834707053
  75    -0.003091096690
  76     0.029840550542
  77     0.062063579246
  78     0.049912468286
  79    -0.011525699473
  80     0.020892506506
  81    -0.171268181303
  82     0.275987164781
  83     0.185511045437
  84     0.019155313111
  85     0.005117386913
  86     0.028918291347
  87     0.003725248861
  88    -0.071661570830
  89    -0.257229221501
  90    -0.081612670120
  91     0.009442821226
  92    -0.099288646166
  93     0.004485842360
  94     0.003115812615
  95    -0.007601654975
  96     0.001335396029
  97    -0.007370773771
  98    -0.000049473829
  99     0.002677143721
  100   -0.082723415161
  101    0.080046271440
  102    0.034736227150
  103    0.043981929933
  104   -0.016338142987
  105   -0.034700586407
  106    0.016824989684
  107   -0.012881689722
  108    0.023516494555
  109   -0.016958019665
  110    0.010935955951
  111    0.023039227484
  112   -0.005615072727
  113    0.006346644379
  114   -0.009292838334
  115    0.008381178598
  116    0.005814239618
  117    0.099997543262
  118   -0.568931659194
  119   -0.089032246003
  120   -0.021655977593
  121   -0.004867853580
  122   -0.019820218895
  123   -0.272642314328
  124   -0.035509077568
  125    0.316555518667
  126    0.071600369042
  127   -0.009978097835
  128   -0.041363705970
  129   -0.002162116253
  130    0.001292422017
  131    0.000869694236
  132   -0.003846782693
  133   -0.009052365563
  134   -0.001558832915
  135   -0.036727234388
  136    0.047042801923
  137   -0.010315567535
  138   -0.054977354329
  139    1.029290150614
  140    0.246398376781
  141   -0.069663676732
  142    0.044075389387
  143   -0.031903948646
  144    0.044347055373
  145   -0.038710325119
  146    0.062510920251
  147    0.049116574668
  148   -0.020423014963
  149   -0.019707281497
  150    1.320426071344
  151    0.011849072270
  152    0.084283420185
  153    0.003446476353
  154   -0.005343887620
  155   -0.009944772168
  156   -0.016186804724
  157   -0.010702580294
  158    0.023293601992
  159    0.048873465849
  160   -0.002939720461
  161   -0.009911580076
  162   -0.004668680077
  163   -0.019874809884
  164   -0.089078045171
  165    0.015482703450
  166    0.024368457924
  167    0.004326537523
  168    0.002183964643
  169   -0.015434472217
  170   -0.096499771191
  171    0.024203629237
  172   -0.002736234374
  173    0.010849722014
  174    0.015717336277
  175    0.018252719891
  176    0.068573228804
  177   -0.002456616773
  178    0.013578551561
  179    0.007163398081
  180   -0.000714072274
  181    0.016027638121
  182   -0.023538135616
  183   -0.056774532585
  184   -0.006564468858
  185    0.011535169216
  186    0.010675384369
  187   -0.140475302559
  188   -0.366134140758
  189    0.083834196099
  190   -0.119721693224
  191   -0.170151327041
  192    0.044222391329
  193    0.391008621005
  194    0.975283767349
  195   -0.179914811855
  196   -0.301119817830
  197    0.063243966902
  198    0.113992927481
 Sym=     1a
 Ene= 3.20340065302034E+00
Spin= Alpha
 Occup= 0
  1      0.001207683975
  2      0.001532059696
  3     -0.048923227928
  4      0.530263061311
  5      0.014349252717
  6      0.021863900478
  7      0.021587446611
  8      0.001769136121
  9     -0.094140494200
  10     0.025007366557
  11    -0.174932607152
  12    -0.214973819510
  13    -0.149229361063
  14    -0.224129914778
  15    -0.008368304781
  16     0.006907097233
  17     0.001461207548
  18     0.004634899786
  19     0.025271584798
  20    -0.007068737709
  21     0.084484428455
  22    -0.035050272302
  23    -0.049434156153
  24     0.011600182413
  25    -0.376940668640
  26     0.090881297580
  27     0.085428149561
  28    -0.001972937803
  29     0.030153157239
  30    -0.020261022242
  31     0.008921643455
  32    -0.084153698768
  33    -0.094352867524
  34    -0.006274669630
  35     0.043698993175
  36     0.038465595644
  37    -0.001434470034
  38    -0.003570059312
  39     0.057430420250
  40    -0.388774426023
  41    -0.100839809556
  42     0.016828561950
  43     0.008515589836
  44    -0.004578781086
  45    -0.229145293566
  46    -0.050288335612
  47     0.073072851487
  48    -0.073077420271
  49     0.010890193997
  50     0.017338901298
  51     0.001824902097
  52    -0.002621626051
  53     0.000796723954
  54     0.006242656600
  55    -0.002467724228
  56     0.001664714109
  57    -0.069658518176
  58     0.027675294793
  59     0.041983223383
  60    -0.040936593920
  61     0.033142514891
  62    -0.063312148307
  63    -0.012902507846
  64     0.006207180309
  65    -0.008604239712
  66    -0.008364452287
  67     0.001991441311
  68     0.004552154597
  69     0.025674983062
  70    -0.010319247584
  71     0.006991644337
  72    -0.003559611418
  73     0.005809751176
  74     0.019459332834
  75     0.006378570336
  76     0.003222966053
  77     0.011147063174
  78     0.004887225700
  79    -0.017255269200
  80    -0.010978823335
  81    -0.224286348437
  82     1.285655159452
  83     0.218573209519
  84    -0.002235978124
  85    -0.033168578304
  86    -0.052307458939
  87    -0.073949846119
  88     0.720532149235
  89     0.708492014138
  90    -0.161151028982
  91    -0.021779517378
  92     0.048830016737
  93    -0.002273794185
  94    -0.002655459115
  95     0.004929253300
  96    -0.001329235025
  97     0.001890568019
  98     0.005831816068
  99    -0.242095512023
  100    0.137720199663
  101    0.104375312360
  102    0.060385084191
  103   -0.379607532084
  104    0.584665003900
  105   -0.011356272332
  106   -0.774849878032
  107    0.001086684913
  108   -0.038120184599
  109   -0.407731245601
  110   -0.099747053873
  111    0.053356222742
  112    1.447301445384
  113    0.098289113072
  114   -0.027132959653
  115    0.004463653277
  116   -0.009358071805
  117    0.104992757762
  118   -0.379130567626
  119   -0.166080125688
  120    0.001845196447
  121    0.005872541136
  122    0.014234221183
  123   -0.128785809081
  124   -0.059555090838
  125   -0.167184724475
  126    0.014833168613
  127   -0.011458671975
  128   -0.089489030927
  129   -0.000188213816
  130   -0.003290749195
  131    0.003478963011
  132    0.001196989566
  133    0.003500953443
  134    0.000420700225
  135    0.009053425044
  136    0.032228689916
  137   -0.041282114960
  138   -0.045769311964
  139   -0.054707361549
  140   -0.021039483959
  141    0.003724322550
  142    0.016254459268
  143    0.006633165146
  144    0.004738277751
  145   -0.012504805615
  146   -0.012567559228
  147   -0.009734980786
  148   -0.009302839902
  149    0.003668234324
  150   -0.005127972317
  151   -0.491858820865
  152   -1.324694299782
  153    0.215430119439
  154   -0.062211271965
  155    0.397775879893
  156    0.157139807294
  157    0.051855055200
  158    0.105835726568
  159   -0.054207703400
  160   -0.012569581908
  161    0.114535434583
  162    0.213924677904
  163   -0.134873693196
  164   -0.202457614326
  165    0.059282037320
  166    0.140924317002
  167   -0.023848760161
  168   -0.017706129025
  169    0.011298571078
  170    0.095747557679
  171   -0.032981008524
  172    0.014575460288
  173   -0.010777605113
  174   -0.017902420760
  175    0.003846464363
  176   -0.008159582980
  177   -0.029664831039
  178   -0.002646934122
  179   -0.010304788249
  180    0.001449740291
  181   -0.015455177924
  182   -0.008640539542
  183    0.015554914376
  184    0.002721711768
  185   -0.007137770234
  186   -0.001483018606
  187   -0.008625796974
  188    0.005128936148
  189   -0.030715580314
  190   -0.002856002105
  191   -0.002747450614
  192   -0.004099652586
  193    0.009324861457
  194    0.034292048193
  195   -0.008856435895
  196   -0.002681873781
  197    0.000869082735
  198    0.015095181175
 Sym=     1a
 Ene= 3.20915708003788E+00
Spin= Alpha
 Occup= 0
  1     -0.032078340287
  2      0.053021668869
  3     -0.662382789647
  4      2.810385492681
  5      0.357762017449
  6     -0.062351670611
  7     -0.081504912345
  8     -0.013855741008
  9      0.993681909916
  10     0.972212564826
  11     0.420138192545
  12     0.662960207918
  13     0.653331382551
  14     0.326814412804
  15    -0.013450942165
  16    -0.010059932454
  17     0.023510874619
  18    -0.004703775669
  19     0.003642686515
  20    -0.045907194646
  21     0.413319677909
  22    -0.073791570431
  23    -0.339528107478
  24     0.189966427767
  25     0.132620397329
  26     0.664107613317
  27     0.018692216452
  28    -1.043807190900
  29    -0.031205189595
  30     0.019103612840
  31     1.437696192076
  32     0.071445015290
  33    -0.044181852823
  34    -0.037281891523
  35    -0.029578860179
  36    -0.010461915187
  37     0.000490580989
  38     0.014018290785
  39     0.005983941872
  40    -0.397523832622
  41    -0.009064333091
  42    -0.015635139952
  43     0.019338937572
  44     0.021081056771
  45    -0.266053615948
  46    -0.579986862860
  47     0.191656589250
  48    -0.067323536066
  49    -0.198307851628
  50    -0.094134174278
  51    -0.005067524076
  52     0.004644004015
  53     0.000423520061
  54    -0.001492484024
  55     0.010016340217
  56     0.001622191078
  57    -0.098946735262
  58     0.161410868307
  59    -0.062464133045
  60    -0.448153345882
  61     0.105726895723
  62     0.281300504509
  63    -0.024381026498
  64     0.156013629464
  65     0.010670961437
  66     0.058397224814
  67    -0.125626999268
  68     0.040103551602
  69    -0.025686645248
  70    -0.083687249271
  71    -0.054420148698
  72     0.193406046985
  73     0.013329461363
  74     0.222391770350
  75     0.054578272573
  76    -0.010562424011
  77     0.041093416244
  78     0.044519603714
  79    -0.002048098452
  80     0.052388771731
  81     0.078324258785
  82    -2.162655529189
  83    -0.355292344555
  84     0.121821305258
  85     0.069497058816
  86     0.044013287283
  87     1.205234892218
  88    -0.220770620934
  89     0.826477432136
  90     0.248181669031
  91    -0.156366156645
  92     0.218863692128
  93    -0.025107538199
  94     0.011515894926
  95     0.013591643273
  96    -0.017331626602
  97    -0.030294393265
  98    -0.006911507532
  99    -0.396002603739
  100    0.552663249038
  101   -0.156660645299
  102    0.118108613990
  103   -0.381530680451
  104   -0.023006942868
  105    0.068459875205
  106    0.008666695148
  107    0.004279812490
  108   -0.184507239881
  109   -0.018971686780
  110    0.138360591727
  111    0.092658679068
  112    0.007344095085
  113   -0.144102562722
  114   -0.034416526177
  115    0.000902114514
  116    0.009047788810
  117    0.003803399514
  118   -0.233718916273
  119   -0.002112075411
  120    0.020480515795
  121   -0.002410289941
  122   -0.018379329172
  123   -0.151115845212
  124    0.148221943133
  125   -0.255851104225
  126   -0.145479106357
  127   -0.004431993690
  128    0.059071719784
  129    0.000579349608
  130    0.008207749970
  131   -0.008787099578
  132    0.002077350056
  133    0.003456809181
  134   -0.004364520884
  135    0.138964437113
  136   -0.006780190667
  137   -0.132184246446
  138   -0.023579470274
  139   -0.049965601953
  140    0.100013456926
  141    0.012414279306
  142   -0.013045388470
  143   -0.062911478705
  144   -0.004511146510
  145   -0.027006675891
  146    0.082738184193
  147   -0.012144356942
  148    0.044508901139
  149    0.001666421577
  150    0.003560411208
  151    0.033761878661
  152    0.075812570167
  153   -0.065592260957
  154   -0.004196689547
  155   -0.044672105918
  156   -0.025362936537
  157    0.023430973848
  158   -0.266605025703
  159   -0.080749959859
  160    0.040385592988
  161    0.024440591688
  162    0.024769946825
  163    0.012716107015
  164    0.213809614918
  165   -0.066219905582
  166   -0.073507306027
  167   -0.031710262568
  168   -0.005385389955
  169    0.001778349516
  170    0.065058738126
  171    0.061076729004
  172    0.006763042368
  173   -0.029735867283
  174   -0.014153923983
  175    0.002147911365
  176    0.052659990338
  177   -0.001685190257
  178    0.022432505768
  179   -0.004382776200
  180   -0.009934336227
  181    0.007311650155
  182   -0.075529254212
  183    0.032653978379
  184   -0.026221611106
  185    0.004424163016
  186    0.017427709520
  187    0.008099537851
  188   -0.069384752077
  189    0.034372487268
  190    0.005300827648
  191   -0.002839759906
  192   -0.020231495580
  193    0.014380512959
  194    0.009780255336
  195    0.090053567545
  196   -0.009330284447
  197   -0.005948340597
  198   -0.004197040110
 Sym=     1a
 Ene= 3.21659921132925E+00
Spin= Alpha
 Occup= 0
  1     -0.004362933048
  2      0.063453641927
  3     -0.045625624745
  4     -2.195038110381
  5     -0.143971035525
  6      0.173273472546
  7     -0.018324758982
  8     -0.113568677779
  9      0.737976098844
  10    -0.267145063053
  11    -0.969244896179
  12    -0.015643419714
  13    -0.196018169985
  14    -0.493912027627
  15    -0.041872069758
  16     0.006948539816
  17     0.034923529942
  18    -0.000718123064
  19     0.038472196727
  20     0.008377469480
  21     0.016971559529
  22     0.346393022089
  23    -0.363364581618
  24     0.112128431666
  25     0.232697143907
  26    -0.222482380653
  27    -0.050599647487
  28     0.060353230613
  29    -0.064070216007
  30    -0.083114412289
  31    -0.044662546257
  32    -0.035500250614
  33     0.151000963140
  34    -0.036309809531
  35     0.121459465609
  36     0.064505152024
  37    -0.007164558666
  38     0.031372739683
  39    -0.304930564517
  40     1.137445122102
  41     0.379788153969
  42    -0.147683650166
  43    -0.004187601265
  44     0.015635617438
  45     1.922189051646
  46    -0.086485337331
  47    -0.069668783625
  48     0.312226551899
  49     0.054200757992
  50    -0.023268371256
  51    -0.009834973615
  52     0.008402115247
  53     0.001432858368
  54    -0.003611799569
  55     0.000923913737
  56     0.002178855819
  57     0.341223422344
  58    -0.124493785595
  59    -0.216729636749
  60     0.126239456779
  61    -0.959893805945
  62    -0.100636720653
  63     1.060666335356
  64    -0.003683341598
  65    -0.023493021556
  66    -1.386461397284
  67     0.015095306415
  68     0.023844999710
  69    -0.036571819096
  70    -0.010153585097
  71     0.007674196208
  72    -0.023843300247
  73     0.031513882944
  74     0.016149108377
  75    -0.062441729427
  76    -0.006479779061
  77     0.009592329071
  78    -0.005108456600
  79    -0.008429591021
  80     0.010979274472
  81    -0.152516554608
  82     0.527808505257
  83     0.196257381907
  84     0.030787377271
  85     0.004679199211
  86    -0.001129589355
  87    -0.378834914337
  88    -0.066689884651
  89     0.053811658682
  90    -0.073614654342
  91     0.006659985709
  92     0.034576584597
  93    -0.006168446350
  94     0.001034696097
  95     0.005133750253
  96    -0.003610082769
  97     0.007031849075
  98     0.001927032208
  99     0.169731450104
  100   -0.067377807309
  101   -0.102353642795
  102    0.063682638140
  103   -0.037781644377
  104    0.006584204386
  105   -0.025057101604
  106    0.013771690852
  107   -0.006930669674
  108    0.020532192443
  109   -0.020485990529
  110    0.003202965615
  111    0.013085437060
  112    0.002009328383
  113    0.006095503497
  114   -0.000244038009
  115    0.007708360082
  116   -0.020331894429
  117    0.122807177396
  118   -0.088590084683
  119   -0.156455663372
  120   -0.001827157317
  121   -0.001887333573
  122    0.018167576782
  123   -0.038536707602
  124    0.077510589323
  125    0.026817747383
  126   -0.032132173197
  127   -0.072427718820
  128   -0.113445890893
  129   -0.004418836857
  130   -0.002493392913
  131    0.006912229770
  132    0.000048279379
  133   -0.002522846220
  134   -0.003872588784
  135    0.037976353047
  136   -0.037742391001
  137   -0.000233962046
  138   -0.040402841118
  139   -0.030101345055
  140    0.041562851518
  141    0.022295963476
  142    0.013094726917
  143    0.015219758497
  144   -0.008238366515
  145   -0.002993739074
  146   -0.008467349587
  147   -0.021674807459
  148   -0.014574680645
  149   -0.011952099174
  150   -0.033898976298
  151   -0.007466180572
  152   -0.013732449063
  153   -0.053170930416
  154    0.013453884906
  155    0.012578571685
  156    0.003000448190
  157   -0.002038243674
  158    0.012902336549
  159   -0.014271885362
  160    0.012736735039
  161   -0.000536454069
  162    0.003730271672
  163    0.003272672442
  164    0.007201811345
  165    0.006986292093
  166   -0.012982071658
  167   -0.002496315121
  168   -0.002255830309
  169    0.047977723806
  170   -0.005636237327
  171   -0.005325822589
  172    0.157157704913
  173   -0.014345088713
  174   -0.012054301344
  175    0.356155560122
  176    1.005243014432
  177   -0.137884415350
  178    0.177366208268
  179   -0.039909377103
  180    0.225452629887
  181   -0.051485137554
  182   -0.156162880262
  183    0.055276443721
  184    0.214493246287
  185   -0.042367332239
  186    0.024771147949
  187    0.002181284993
  188   -0.040136242805
  189   -0.046587135685
  190   -0.004724726831
  191   -0.000741636130
  192   -0.011990889672
  193   -0.010435318166
  194    0.022805798195
  195   -0.038996828639
  196   -0.007715131714
  197    0.008385456629
  198    0.002061524293
 Sym=     1a
 Ene= 3.21811879857455E+00
Spin= Alpha
 Occup= 0
  1      0.006343238944
  2     -0.070388056371
  3      0.125129316851
  4      1.828801194656
  5      0.069534193458
  6      0.189592244752
  7      0.021758826447
  8      0.081903761008
  9      0.928827544534
  10     0.045761103285
  11     0.708908077116
  12     0.143783413245
  13     0.101586837080
  14     0.308388287714
  15     0.022542634029
  16     0.004405038597
  17    -0.026947672626
  18     0.024851311099
  19     0.024984743253
  20     0.017240029650
  21     0.343605028561
  22    -0.482791032319
  23     0.139186003758
  24    -0.117864446989
  25     0.277518907143
  26    -0.065803703509
  27     0.067728600729
  28     0.007583728669
  29     0.008189571718
  30    -0.186248956387
  31    -0.020233837169
  32     0.124790048170
  33     0.095381503236
  34     0.010059197473
  35    -0.135777511611
  36    -0.043073084205
  37     0.000853482962
  38     0.003340210886
  39     0.023984068922
  40    -0.235277752812
  41    -0.034563171823
  42     0.003795553826
  43    -0.010115790942
  44    -0.003709649762
  45    -0.169795865248
  46     0.044694191812
  47     0.119886458090
  48     0.009091479764
  49     0.022735599517
  50    -0.035671950735
  51     0.002964091382
  52    -0.003138643210
  53     0.000174551828
  54    -0.007609105650
  55     0.005598961937
  56    -0.001843005061
  57    -0.144658519075
  58     0.113792575274
  59     0.030865943801
  60     0.053707065002
  61    -0.016161609833
  62     0.066303820588
  63    -0.023906975799
  64    -0.005083014662
  65    -0.011035043192
  66     0.015955855202
  67     0.007145345268
  68     0.007471678798
  69     0.016118718613
  70    -0.000325765478
  71     0.007333385229
  72     0.010915654999
  73    -0.018595631535
  74    -0.027901736490
  75     0.020574833017
  76     0.001176724943
  77    -0.008847008758
  78    -0.002450725329
  79     0.008855626180
  80    -0.024768092314
  81     0.309480936349
  82    -1.291165248030
  83    -0.395051584377
  84    -0.113441822637
  85    -0.038978729426
  86    -0.008651856285
  87     1.585687399119
  88     0.212508929167
  89    -0.023302920624
  90     0.296657336843
  91     0.102874415770
  92     0.033561918226
  93     0.003102100438
  94    -0.002655436539
  95    -0.000446663899
  96     0.005284207861
  97     0.000227206088
  98     0.001069849504
  99    -0.290388477117
  100    0.117435259444
  101    0.172953217673
  102   -0.490559855001
  103   -0.512743220485
  104   -0.770803238347
  105   -0.011442117443
  106   -1.017899153904
  107   -0.009633352136
  108    0.027249625661
  109    1.413066414812
  110   -0.001548966538
  111   -0.011898414215
  112   -0.047411393391
  113    0.014473464674
  114    0.008323535220
  115   -0.002385633974
  116    0.012837929100
  117   -0.079567470028
  118    0.174352539757
  119    0.133349866430
  120   -0.007830300862
  121   -0.000784835549
  122   -0.011226917689
  123   -0.002321496075
  124   -0.065316821234
  125    0.025646943378
  126   -0.016151324545
  127    0.035642463669
  128    0.103514732675
  129    0.002238896529
  130    0.004063134570
  131   -0.006302031099
  132   -0.002825704373
  133   -0.001243730327
  134    0.001235561361
  135   -0.013233386173
  136   -0.006626979489
  137    0.019860365662
  138    0.001586707740
  139   -0.034796519185
  140   -0.053366425493
  141    0.007924949706
  142   -0.007147036638
  143   -0.012692062377
  144   -0.007695917583
  145    0.010147725597
  146    0.004930377177
  147   -0.002936518173
  148   -0.000558969741
  149    0.012097811372
  150   -0.017318872434
  151    0.191120335572
  152    0.555746566653
  153   -0.124182382464
  154    0.106303359680
  155   -0.021949434030
  156   -0.159740120209
  157   -0.202434602855
  158   -0.400146780614
  159    0.062541220924
  160    0.193496081371
  161   -0.037012157242
  162    0.073151244093
  163   -0.221746253372
  164   -0.642797241151
  165    0.067285711628
  166    0.102285312214
  167   -0.084576689098
  168   -0.176801060642
  169   -0.019583798283
  170   -0.109228496791
  171    0.058492652666
  172    0.005534930369
  173    0.002218903602
  174    0.020497303530
  175    0.014986026720
  176    0.060012076525
  177   -0.002109361448
  178    0.003568351108
  179    0.009215373370
  180    0.009560728444
  181   -0.005304587909
  182   -0.011492077903
  183    0.025979217035
  184    0.015597968847
  185    0.000886696482
  186    0.004694357263
  187    0.012940507950
  188   -0.024986455728
  189    0.043982860476
  190   -0.001650223738
  191   -0.001012684424
  192   -0.007281353195
  193   -0.011987024124
  194   -0.030800752708
  195    0.050063735764
  196    0.009244967973
  197    0.000867228242
  198    0.002247444714
 Sym=     1a
 Ene= 3.23035183613902E+00
Spin= Alpha
 Occup= 0
  1     -0.015841342662
  2      0.095880543866
  3     -0.393321074770
  4     -0.872606559564
  5      0.200504536783
  6     -0.168957931107
  7     -0.048822556862
  8     -0.096096846771
  9     -1.067592798016
  10    -0.290740897281
  11    -0.260444259131
  12    -0.313457574931
  13    -0.037384593656
  14     0.137156954389
  15    -0.019752597911
  16     0.034441497838
  17    -0.014688899927
  18    -0.010329652350
  19    -0.009935383077
  20    -0.007645283942
  21    -0.258221509032
  22    -0.044265812013
  23     0.302487321045
  24    -0.194207937312
  25    -0.359953379119
  26    -0.073109411787
  27    -0.037493999681
  28    -0.015367178944
  29     0.077700080479
  30    -0.020243413858
  31    -0.000613785901
  32    -0.097348109246
  33     0.070546893080
  34     0.021231019946
  35    -0.006897487839
  36    -0.047537382421
  37     0.001734042114
  38    -0.010915969852
  39     0.118998698551
  40    -0.543641945644
  41    -0.199830643969
  42     0.023047209791
  43    -0.005938645654
  44    -0.004324775427
  45    -0.287405971774
  46     0.025788222753
  47     0.103174486229
  48    -0.090489693700
  49     0.032537286236
  50     0.102544866716
  51     0.007684745596
  52    -0.005005230624
  53    -0.002679514972
  54    -0.004375317624
  55    -0.000193785273
  56     0.000643166486
  57    -0.116935924094
  58     0.067761186198
  59     0.049174737896
  60     0.018188274454
  61     0.005461480603
  62     0.036090865948
  63    -0.009782484852
  64     0.009845026557
  65     0.014342378280
  66     0.005427507159
  67    -0.011334269578
  68    -0.018484004859
  69     0.007697073512
  70    -0.001874219595
  71    -0.000758314817
  72     0.005754896110
  73    -0.000494273863
  74    -0.012224964690
  75    -0.015463504661
  76    -0.001950297150
  77    -0.005727779134
  78    -0.006328196714
  79    -0.000148101263
  80     0.011799520594
  81    -0.157417362579
  82     0.844270425568
  83     0.228036954714
  84     0.066132695236
  85    -0.005563109601
  86     0.080101820296
  87    -0.872501336913
  88     0.140242608354
  89    -1.277282441942
  90    -0.183664159647
  91    -0.031353199371
  92    -0.195252305421
  93    -0.005512759287
  94     0.003335986059
  95     0.002176773228
  96     0.001625494601
  97    -0.009352787527
  98    -0.000709501891
  99     0.800351617615
  100   -0.756160047462
  101   -0.044191570153
  102    0.599517688309
  103    0.159692528336
  104    0.191774956787
  105    0.029211120384
  106    0.006950377676
  107    1.302204164423
  108   -0.060479619001
  109   -0.010515313851
  110   -0.881085495991
  111    0.021288788475
  112    0.001190403680
  113   -0.866004723348
  114   -0.008694087258
  115   -0.003457842513
  116    0.002692182773
  117   -0.017459644647
  118   -0.074592001065
  119    0.003440692313
  120   -0.001596331129
  121    0.003014870125
  122   -0.002322647619
  123   -0.044673142813
  124   -0.079445979254
  125   -0.034369360114
  126    0.058888042449
  127   -0.021877761998
  128   -0.020452316517
  129   -0.000879010199
  130    0.002106092941
  131   -0.001227082742
  132    0.000470285805
  133   -0.002409883206
  134    0.005515020451
  135   -0.002855184024
  136   -0.032563662270
  137    0.035418846294
  138   -0.029772512690
  139   -0.001045888718
  140   -0.035567893910
  141   -0.001977254064
  142   -0.002317164703
  143    0.014364083036
  144   -0.004733214799
  145   -0.011077406902
  146   -0.015815305522
  147    0.007385979497
  148    0.014186209577
  149   -0.003456134140
  150   -0.012887056825
  151    0.138277202359
  152    0.400893943270
  153   -0.020770707606
  154   -0.019351522584
  155    0.087887531790
  156   -0.236712764924
  157    0.362115969926
  158    0.876781500439
  159   -0.117646411750
  160   -0.086095352712
  161    0.198078096675
  162   -0.131505938731
  163   -0.186236318360
  164   -0.550630641650
  165    0.129043977022
  166   -0.038626248703
  167   -0.008108584470
  168   -0.250242303747
  169    0.002181610865
  170   -0.047214171849
  171   -0.048361543679
  172    0.008662433321
  173    0.003866881150
  174    0.004450535532
  175   -0.006985568399
  176    0.063708828847
  177   -0.022928350746
  178    0.005609208438
  179    0.005234223490
  180    0.000524268849
  181    0.013534134970
  182   -0.002675819058
  183   -0.020584125917
  184    0.009195637003
  185    0.004065854462
  186    0.001654734930
  187   -0.007817440253
  188   -0.004785355115
  189    0.024719764573
  190   -0.006417633650
  191    0.001901589941
  192    0.001234106977
  193    0.005482065375
  194    0.007856852488
  195   -0.051184244276
  196    0.001107228600
  197    0.008991540537
  198    0.005658364037
 Sym=     1a
 Ene= 3.24789370396793E+00
Spin= Alpha
 Occup= 0
  1     -0.069147949399
  2      0.099932692336
  3     -1.026280788607
  4      2.853210965703
  5      0.342350491158
  6     -0.003248359555
  7      0.117957755385
  8      0.252563586045
  9      0.065119657347
  10    -0.295087059184
  11    -1.401388966718
  12     0.135717745452
  13     0.525402427103
  14    -0.193994382755
  15     0.000509442170
  16     0.017622095589
  17    -0.018131537759
  18     0.004486590110
  19    -0.002406565055
  20     0.025918911263
  21    -0.502217674648
  22    -0.665494529616
  23     1.167712204264
  24     0.032061930759
  25     0.010886575171
  26     0.733131737898
  27     0.014092800252
  28     0.167958206076
  29    -0.164347342130
  30     0.002732091506
  31     0.149377830144
  32     0.254011653065
  33    -0.021639567120
  34    -0.374717409842
  35    -0.033516555710
  36    -0.010026141196
  37     0.007807295802
  38    -0.014725028328
  39     0.178720582506
  40    -0.593809609574
  41    -0.140910238104
  42     0.022813444224
  43     0.022154974043
  44    -0.006113667335
  45    -0.360811501069
  46    -0.195037471762
  47    -0.048618511856
  48     0.028662674134
  49    -0.088652702983
  50     0.216551584241
  51    -0.014951170081
  52     0.005260914931
  53     0.009690255150
  54     0.005138070541
  55     0.018647394266
  56     0.008535978687
  57    -0.140226736390
  58     0.116159399094
  59     0.024067337296
  60    -0.087960234582
  61    -0.020479620254
  62    -0.087836487415
  63    -0.028703293774
  64     0.001505588060
  65     0.002655022747
  66     0.031533540305
  67     0.015366650627
  68     0.018289853717
  69     0.006975969329
  70    -0.017386608976
  71    -0.021851940524
  72     0.014314212634
  73     0.004200157187
  74    -0.354674775314
  75     0.070656489033
  76     0.041686267801
  77    -0.327551396164
  78    -0.013565147554
  79     0.009694586279
  80    -0.018145065572
  81     0.218740226691
  82    -0.764035461694
  83    -0.257045431836
  84    -0.027702182910
  85     0.013686112851
  86     0.000241557464
  87     0.432875515358
  88    -0.015102516072
  89    -0.046935502422
  90     0.069216042839
  91    -0.099002764259
  92     0.271428157248
  93    -0.012736904205
  94     0.004106412891
  95     0.008630491314
  96    -0.010762493548
  97    -0.019195965124
  98     0.000491795345
  99    -0.129696109311
  100    0.105795993444
  101    0.023900115867
  102   -0.013856679151
  103    0.027668074266
  104   -0.069916425571
  105    0.008535015437
  106   -0.013739193096
  107    0.002657530929
  108   -0.018959988336
  109    0.032018210141
  110    0.017442570646
  111    0.007509063512
  112   -0.013585148310
  113   -0.021008022532
  114   -0.001683408707
  115   -0.023838082956
  116    0.065940510455
  117   -0.042717619460
  118   -2.223150511348
  119    0.125480581443
  120   -0.011028811086
  121   -0.059722538158
  122   -0.182687019771
  123   -0.074122550215
  124   -1.209311633745
  125   -1.323300180548
  126    0.075389671629
  127   -0.060158554119
  128    0.829853773929
  129    0.650116283854
  130    0.675941722132
  131   -1.326058005986
  132   -0.014632329118
  133    0.019842804838
  134   -0.099867814132
  135   -0.550484827148
  136   -0.430573869695
  137    0.981058696843
  138   -0.082078445952
  139    0.001120232686
  140   -0.458831782733
  141   -0.011745441868
  142   -0.005444476839
  143   -0.041896291503
  144    0.025195013763
  145    0.041399912447
  146    0.020795845031
  147   -0.009436849897
  148   -0.034095380258
  149    0.035413928453
  150   -0.003101860652
  151    0.029284408899
  152    0.136973870350
  153   -0.097632387708
  154   -0.006952853343
  155   -0.026136452522
  156   -0.017796828509
  157   -0.007510663276
  158    0.003714850023
  159   -0.097698646213
  160   -0.027763386657
  161    0.004457994776
  162   -0.011962802536
  163   -0.003320106010
  164   -0.003416867586
  165    0.087676272601
  166    0.020541468531
  167   -0.012378889475
  168    0.008107673713
  169    0.030991099179
  170    0.177846304997
  171   -0.096411783750
  172    0.012866575699
  173   -0.033012193877
  174   -0.021568779168
  175   -0.004956202804
  176    0.049454141197
  177    0.087578366976
  178   -0.004292860072
  179   -0.023819899310
  180    0.009382354372
  181   -0.025931127721
  182   -0.001684316801
  183   -0.044437958253
  184    0.023452806333
  185    0.003810499427
  186   -0.013843633421
  187    0.002752099798
  188    0.155319059700
  189    0.266975415530
  190   -0.121328992646
  191    0.027079910143
  192    0.041065933479
  193    0.004505121985
  194    0.190519029100
  195    0.181724494137
  196    0.031940463976
  197    0.033174352199
  198    0.116499678905
 Sym=     1a
 Ene= 3.25019398236826E+00
Spin= Alpha
 Occup= 0
  1     -0.047599888555
  2      0.062882599520
  3     -0.695832853226
  4      2.004834322345
  5      0.290753877101
  6     -0.239759640224
  7     -0.061525960087
  8     -0.081888815943
  9      1.588938570766
  10     0.035076431653
  11     0.220734432553
  12     0.447392147368
  13    -0.614393797083
  14    -0.687126895125
  15    -0.010348976916
  16    -0.016825600975
  17     0.027174577891
  18     0.029459613229
  19    -0.013752884431
  20     0.024143090439
  21     0.878049168863
  22    -0.422175876817
  23    -0.455873292046
  24     0.225327248464
  25     0.701078930268
  26     0.082721467669
  27     0.028429101179
  28    -0.096298947928
  29    -0.155156444670
  30    -0.067347255354
  31     0.163595900923
  32     0.257039816638
  33     0.029205613690
  34    -0.034397304686
  35    -0.048875602180
  36     0.152183689640
  37     0.005847543349
  38    -0.015675414856
  39     0.080469640307
  40     0.166627246400
  41     0.148722337459
  42     0.032958425100
  43     0.010243015097
  44    -0.015041752983
  45     0.242104664947
  46    -0.095413265334
  47     0.230950061046
  48    -0.016356316189
  49     0.111342304797
  50    -0.015500591064
  51     0.018706859039
  52    -0.005479244460
  53    -0.013227614579
  54     0.014836962433
  55     0.022838120515
  56     0.004467329221
  57    -0.014718818069
  58     0.168701901887
  59    -0.153983083818
  60    -0.018089246655
  61    -0.061034905462
  62    -0.197070621709
  63     0.023266761317
  64    -0.002543777653
  65    -0.002790100783
  66    -0.000285358313
  67     0.026539016269
  68     0.018798299990
  69    -0.030930277639
  70    -0.023126180418
  71    -0.015054986981
  72    -0.019899011973
  73     0.034881815283
  74    -0.142196524200
  75    -0.138457450253
  76    -0.008892479871
  77    -0.010454758966
  78     0.001454344338
  79    -0.018149888721
  80     0.051770544215
  81    -0.006274113027
  82    -1.914113023996
  83     0.083393474007
  84     0.129330975753
  85    -0.060343795245
  86     0.117636043650
  87     1.034524194141
  88     0.827816211000
  89     1.001868497075
  90    -0.524120393555
  91     0.374022351160
  92    -0.437129542111
  93    -1.173786632236
  94     1.134162672973
  95     0.039623959263
  96    -0.086339877913
  97    -0.009061542633
  98     0.011129188509
  99     0.976675423916
  100   -1.029523557921
  101    0.052848134005
  102   -0.297122052347
  103   -0.381812770795
  104   -0.027657660780
  105    0.001917589488
  106   -0.013962672135
  107   -0.051144719451
  108    0.032063061205
  109   -0.000043301012
  110    0.036758774848
  111   -0.034635777474
  112    0.018776191436
  113    0.031859066782
  114    0.018373130644
  115    0.014566759917
  116   -0.031014191553
  117    0.263171043206
  118   -0.618455906272
  119   -0.389257777462
  120    0.004031726866
  121    0.009603279284
  122    0.029988228671
  123    0.035868895983
  124   -0.093382888366
  125   -0.284813840600
  126   -0.064727329558
  127   -0.152435370700
  128   -0.231594456606
  129    0.009120965106
  130    0.001638894350
  131   -0.010759859456
  132    0.000759698525
  133   -0.004461478165
  134   -0.012583118042
  135   -0.015887592059
  136    0.095344096189
  137   -0.079456504130
  138   -0.002073188840
  139   -0.032988529562
  140   -0.042086110528
  141    0.026664763919
  142    0.011313209313
  143   -0.015310798603
  144    0.008998637299
  145    0.001024594205
  146    0.018893126213
  147   -0.044773172135
  148   -0.016202857247
  149    0.001648465667
  150   -0.007673727874
  151   -0.008468978230
  152   -0.274109257191
  153    0.247317303211
  154    0.026101712032
  155    0.251226792202
  156    0.189073447755
  157    0.038615874437
  158    0.335193984502
  159    0.302286018548
  160    0.007722108246
  161   -0.253863159612
  162    0.073682428378
  163   -0.000374245305
  164   -0.093711996513
  165   -0.107131568659
  166   -0.218381665485
  167   -0.026079500819
  168    0.106095060593
  169    0.021883979039
  170    0.119234374263
  171   -0.078320641392
  172    0.017011671067
  173   -0.037572338999
  174   -0.000019117086
  175    0.035464753708
  176    0.184343265782
  177   -0.024304445378
  178    0.034320051881
  179   -0.027350742042
  180    0.011692880529
  181   -0.046499834408
  182   -0.181659069114
  183    0.093211551121
  184   -0.002594501417
  185   -0.039965078039
  186    0.018781732774
  187    0.026650842855
  188    0.004075806622
  189   -0.023680839366
  190   -0.003340724374
  191    0.001204077561
  192    0.008481757178
  193    0.029359188156
  194   -0.100294800896
  195   -0.079060013786
  196   -0.000998306322
  197   -0.015880403565
  198   -0.024099149944
 Sym=     1a
 Ene= 3.25262205165640E+00
Spin= Alpha
 Occup= 0
  1      0.019243828289
  2     -0.033465667043
  3      0.288239134653
  4     -0.742564238874
  5      0.001405449061
  6     -0.010005204418
  7     -0.003082473856
  8     -0.027022165408
  9      0.079516543209
  10     0.115623502260
  11    -0.108516384926
  12     0.307188532738
  13    -0.187092752621
  14    -0.343565451640
  15     0.032130998096
  16    -0.020194498068
  17    -0.011936500028
  18    -0.003666754765
  19    -0.002037380517
  20     0.019782841458
  21    -0.168846930329
  22     0.213909609189
  23    -0.045062678860
  24     0.023822254957
  25     0.026121597327
  26    -0.342492646390
  27    -0.002814993560
  28    -0.042386397979
  29     0.081285098574
  30    -0.000509640452
  31     0.000165733179
  32    -0.065606304058
  33     0.004286350626
  34     0.056701587142
  35    -0.043449099524
  36    -0.001722042004
  37     0.003904031481
  38    -0.011518736069
  39    -0.004914600303
  40     0.469574818063
  41    -0.006026828455
  42     0.001894674161
  43    -0.015177119311
  44    -0.036190088386
  45     0.283328906793
  46     0.054158074329
  47    -0.082386278703
  48     0.117630809679
  49     0.060709818581
  50     0.099302623095
  51    -0.000652704277
  52    -0.011424144693
  53     0.012076848970
  54    -0.008065018937
  55    -0.010131074805
  56     0.004814528198
  57     0.072951559082
  58     0.018384736198
  59    -0.091336295280
  60     0.073188460661
  61    -0.063366032375
  62    -0.021252505237
  63    -0.001961094456
  64    -0.009112679906
  65     0.004349957764
  66    -0.002928460457
  67     0.018634723996
  68    -0.006607223355
  69     0.005559544766
  70    -0.006408780959
  71     0.000771142599
  72     0.002012597209
  73     0.022044752087
  74     0.106306370163
  75     0.523351422372
  76     0.037000653611
  77    -0.467913642837
  78     0.049123255154
  79     0.005738446604
  80    -0.014529630008
  81     0.050769464017
  82     0.161294370859
  83    -0.163172789508
  84    -0.004371780138
  85    -0.011490692842
  86    -0.033913789707
  87    -0.214777362692
  88    -0.056126266253
  89     0.024634413520
  90    -0.040201881278
  91     0.028411833236
  92     0.105259050677
  93    -0.000588524800
  94    -0.004259707203
  95     0.004848232003
  96     0.008900731389
  97     0.011117901750
  98     0.004338749780
  99     0.098206595212
  100   -0.000361882517
  101   -0.097844712695
  102    0.000401335431
  103   -0.012370387550
  104    0.023781635939
  105   -0.010176369751
  106    0.000277579899
  107    0.006415080440
  108    0.001343210772
  109    0.007332313003
  110    0.004409151939
  111    0.012309821945
  112   -0.007704725517
  113   -0.013015885506
  114   -0.012428907556
  115    0.002277410421
  116    0.006803697183
  117   -0.016573581024
  118    0.061220994230
  119    0.097170364337
  120    0.056940631713
  121   -0.095319360257
  122    0.105080014130
  123    0.047919406257
  124   -0.224542897292
  125    0.457254952237
  126   -0.497624358308
  127    0.548294654514
  128   -0.649358278100
  129   -1.157218443267
  130    1.174330168630
  131   -0.017111725363
  132   -0.031025815504
  133   -0.014641755052
  134    0.023796901707
  135    0.995776852997
  136   -1.048016597063
  137    0.052239744066
  138   -0.036731170544
  139    0.011324574787
  140    0.007174500432
  141    0.012781435432
  142   -0.050665423345
  143   -0.071488276259
  144   -0.000582275407
  145    0.025070982405
  146    0.115725774665
  147   -0.016565819678
  148    0.042903816020
  149   -0.019814187479
  150    0.013043520291
  151   -0.007654799819
  152    0.040968899587
  153   -0.009125057813
  154    0.012759218297
  155   -0.008590801622
  156   -0.003100067887
  157   -0.015923741800
  158    0.055845826381
  159    0.029842504910
  160   -0.001239423639
  161    0.005164899973
  162   -0.001580569081
  163   -0.003039378983
  164    0.099638907315
  165    0.071349277330
  166   -0.024047919471
  167   -0.008364954855
  168   -0.008068178666
  169   -0.007681290591
  170    0.014511149160
  171   -0.014644092400
  172   -0.013134445903
  173   -0.010663212962
  174    0.010198666928
  175    0.003644769323
  176    0.101324264035
  177    0.100312578821
  178    0.019080455219
  179   -0.001259225836
  180   -0.012951177080
  181   -0.022764495628
  182    0.035181754077
  183    0.051453135532
  184    0.004179992027
  185   -0.002892380728
  186    0.003501786506
  187    0.016010658844
  188   -0.113169383950
  189   -0.622008419267
  190    0.403689946419
  191   -0.028392992295
  192    0.162912655576
  193    0.009027052986
  194    0.060031203862
  195   -0.266097745006
  196   -0.261993068004
  197   -0.042023409569
  198    0.148239354245
 Sym=     1a
 Ene= 3.25769787172014E+00
Spin= Alpha
 Occup= 0
  1     -0.001155490246
  2     -0.002582777427
  3     -0.015417479116
  4      0.087105451102
  5      0.079662702142
  6      0.032371537949
  7      0.003239161107
  8     -0.029794499346
  9     -0.227287385881
  10     0.272279014301
  11     0.268692186439
  12    -0.214273731446
  13     0.135357665063
  14     0.193695602694
  15     0.008314054782
  16     0.000879439329
  17    -0.009193494111
  18     0.039447031218
  19     0.000534388846
  20     0.023221754537
  21    -0.015493874747
  22    -0.080507603515
  23     0.096001478262
  24    -0.365445604764
  25    -0.116685925996
  26    -0.120070147862
  27    -0.023618563754
  28     0.025929757764
  29    -0.020295306277
  30     0.031713810614
  31    -0.032999318200
  32     0.029912144272
  33    -0.000026182164
  34    -0.001789102401
  35    -0.002683133597
  36     0.049278860746
  37    -0.003747201206
  38     0.020566051098
  39    -0.023463330606
  40    -0.462404949306
  41     0.105638956642
  42    -0.023690578706
  43    -0.121372448471
  44    -0.023950956740
  45    -0.217813883400
  46    -0.545891142282
  47    -0.026536438355
  48     0.155134524508
  49     0.762238666020
  50     0.382508838953
  51     0.019918098158
  52     0.026723082148
  53    -0.046641180306
  54     0.022772619993
  55     0.010113542877
  56    -1.351039234553
  57    -0.124429955219
  58     0.095710130303
  59     0.028719824916
  60    -0.095499848351
  61    -0.005798735651
  62     1.197250398750
  63    -0.002513106021
  64    -0.000904036770
  65    -0.023452105502
  66     0.001167097277
  67     0.093749005441
  68     0.041301830417
  69     0.002204588262
  70    -0.092536112838
  71    -0.009837529146
  72     0.015959241031
  73    -0.039551683847
  74     0.043818754012
  75     0.069800624825
  76    -0.002377121316
  77     0.002039449696
  78     0.003863081028
  79     0.006995877364
  80    -0.016139031070
  81     0.075335750809
  82     0.090719285691
  83    -0.153517884742
  84    -0.027551323719
  85    -0.002334808060
  86     0.009701312781
  87    -0.025867171870
  88     0.072208480949
  89    -0.138365359493
  90     0.157156590855
  91    -0.126410629830
  92    -0.124992343126
  93     0.002672225856
  94     0.001354053347
  95    -0.004026279203
  96    -0.000185339645
  97    -0.001735895060
  98     0.005775864959
  99    -0.037388439954
  100   -0.050522701505
  101    0.087911141459
  102   -0.010155481795
  103    0.073422874469
  104   -0.021973179593
  105    0.012614427154
  106   -0.000865075275
  107   -0.005888128441
  108    0.007778927857
  109    0.003739254385
  110   -0.003829984781
  111   -0.024702957825
  112   -0.002578634112
  113    0.011729738054
  114    0.002527125835
  115    0.004413482452
  116   -0.011247555349
  117    0.051794849427
  118    0.069946114116
  119   -0.073037784857
  120   -0.020180933559
  121    0.017528549715
  122    0.015844090133
  123   -0.025524439995
  124   -0.080201419232
  125    0.209840462167
  126    0.079229771707
  127    0.007491944687
  128    0.018957377608
  129    0.002067987686
  130   -0.007749826600
  131    0.005681838914
  132   -0.006027278513
  133   -0.015513860602
  134    0.004177803338
  135   -0.094054650718
  136    0.024342936712
  137    0.069711714006
  138    0.016811856151
  139    0.015012721967
  140   -0.038188589856
  141    0.015429857124
  142    0.002129981171
  143    0.010121352799
  144    0.014803773251
  145    0.007188673723
  146    0.002270974331
  147   -0.035505098899
  148   -0.010046343337
  149   -0.015850194061
  150    0.011475351046
  151    0.006614553750
  152    0.013186332023
  153    0.114925789023
  154   -0.002075519805
  155    0.008709554639
  156    0.002221227663
  157    0.001299418413
  158    0.037986833438
  159   -0.041408658061
  160   -0.007504779960
  161    0.000347914616
  162   -0.013040562702
  163   -0.002121660727
  164   -0.021844483195
  165   -0.038657832269
  166    0.015805100066
  167   -0.000041653437
  168    0.006423794651
  169    0.019583214595
  170   -0.064768969606
  171   -0.718077735007
  172    0.011142976609
  173   -0.404275744179
  174   -0.407651873560
  175    0.002118932660
  176    0.120817322595
  177    0.132712895645
  178   -0.009726548367
  179    0.056273904937
  180   -0.005406143030
  181    0.017221909585
  182   -0.015483575394
  183    0.419278384786
  184   -0.036882698245
  185   -0.354144868372
  186    0.270872773665
  187   -0.009749514527
  188    0.153504131591
  189    0.068756124844
  190    0.006422164800
  191   -0.001633909795
  192    0.038093576925
  193    0.003683907002
  194    0.140168007272
  195   -0.027580309771
  196   -0.020487419375
  197   -0.017712802344
  198    0.017842516662
 Sym=     1a
 Ene= 3.25805077756310E+00
Spin= Alpha
 Occup= 0
  1      0.006703874244
  2     -0.030642812707
  3      0.167804542914
  4      0.005828177601
  5     -0.130079294672
  6     -0.053604127670
  7     -0.045904776410
  8      0.025050625237
  9     -0.097624525919
  10    -0.389713841242
  11     0.153664204672
  12     0.062845553938
  13    -0.050995032106
  14    -0.027232134048
  15    -0.008757722323
  16     0.004266501439
  17     0.004491220884
  18    -0.013844589833
  19    -0.005769151965
  20     0.024048303949
  21     0.173428072216
  22    -0.144443406481
  23    -0.028984665735
  24     0.414469069732
  25    -0.081799625873
  26    -0.413977702504
  27    -0.024945406450
  28     0.162982249903
  29     0.019497852761
  30     0.057728125743
  31    -0.129143805230
  32     0.025753998210
  33    -0.024260351014
  34    -0.089519828715
  35    -0.051913112724
  36     0.196155873898
  37    -0.005618112437
  38     0.000308683560
  39    -0.057506038243
  40     0.187913243913
  41     0.023224765897
  42     0.010193233226
  43    -0.003003510664
  44    -0.004694869349
  45    -0.235359141158
  46    -0.487912644965
  47     0.043295540777
  48    -0.038815977895
  49     0.049130986787
  50     0.004519170020
  51    -0.002183374913
  52     0.001265817780
  53     0.000917557133
  54    -0.006291393663
  55     0.000226738634
  56     0.003056356967
  57    -0.054934886952
  58     0.217712502075
  59    -0.162777615123
  60     0.378328816037
  61     0.108688878887
  62    -0.978442620599
  63     0.009474535957
  64    -1.032686607209
  65    -0.039149327543
  66    -0.012505405563
  67     1.441755669079
  68    -0.007408723260
  69    -0.000206018310
  70    -0.056261197175
  71     0.059933057856
  72    -0.050037478857
  73     0.002899875643
  74    -0.011591132271
  75    -0.029278407465
  76    -0.004688596041
  77    -0.002912530564
  78    -0.009313636642
  79    -0.003807448333
  80     0.006118316545
  81    -0.046612938713
  82     0.038960067492
  83     0.047955909401
  84     0.016092232617
  85    -0.012294490786
  86    -0.006720969973
  87    -0.090015910823
  88     0.072433907192
  89     0.172511500714
  90    -0.036600944241
  91     0.053639143400
  92     0.010280095663
  93    -0.006144518834
  94     0.001018497861
  95     0.005126020973
  96     0.008087702334
  97    -0.000219505206
  98    -0.003643974993
  99     0.018904988250
  100    0.035449141860
  101   -0.054354130110
  102   -0.095686496497
  103   -0.008438919993
  104    0.101403497296
  105   -0.003563395166
  106   -0.004924964742
  107   -0.011126764855
  108    0.010502440020
  109    0.007215143044
  110    0.009036705052
  111   -0.005721643728
  112   -0.000607609474
  113    0.005891416499
  114   -0.011876083681
  115    0.002569084439
  116   -0.000996642448
  117   -0.012197643750
  118    0.224417262601
  119    0.052285138265
  120    0.010109637351
  121   -0.000531907359
  122   -0.004239306803
  123   -0.039195966339
  124    0.007116308529
  125    0.119479923450
  126   -0.020204552796
  127   -0.008498530514
  128    0.019760636406
  129   -0.002282747149
  130    0.005212078222
  131   -0.002929331073
  132    0.002967696915
  133   -0.000634717833
  134   -0.000952983964
  135    0.020113511533
  136   -0.055522782336
  137    0.035409270803
  138   -0.048758731145
  139    0.002276038606
  140   -0.007575397392
  141    0.009395235400
  142    0.009248510283
  143   -0.003553499784
  144    0.012360989506
  145    0.002187172935
  146   -0.005920110679
  147   -0.024966020517
  148   -0.014595351544
  149    0.010687630924
  150   -0.014931060216
  151   -0.028249243592
  152   -0.131293877575
  153    0.009806002154
  154    0.007229455540
  155    0.009509038468
  156    0.026873001693
  157   -0.003955060590
  158    0.004339942013
  159    0.008930943073
  160   -0.010206743896
  161   -0.001862228069
  162    0.011304586490
  163    0.021244522954
  164    0.087844943464
  165   -0.025144106603
  166   -0.018273533701
  167    0.007687334122
  168    0.012592273318
  169    0.256640076916
  170    0.657658837869
  171   -0.154784452888
  172   -0.063516766837
  173   -0.059182766662
  174   -0.167383262975
  175   -0.048530497779
  176   -0.140825823367
  177   -0.005250024074
  178   -0.034711838188
  179   -0.225847594740
  180   -0.050346950616
  181   -0.394527053320
  182   -0.886010265923
  183    0.156994335949
  184   -0.010702938863
  185   -0.213504895652
  186    0.185290891122
  187   -0.012795983825
  188   -0.055929034675
  189    0.006894972091
  190   -0.012447552470
  191   -0.001472692228
  192   -0.006591610897
  193    0.007718463770
  194   -0.015924593155
  195    0.010201797539
  196   -0.005592485118
  197    0.006133600658
  198   -0.005545393434
 Sym=     1a
 Ene= 3.26029172862689E+00
Spin= Alpha
 Occup= 0
  1     -0.013503143113
  2      0.015149807093
  3     -0.197035060881
  4      0.594931251731
  5      0.133483209896
  6     -0.081599625498
  7     -0.022824530321
  8     -0.048741677931
  9      0.403740247639
  10     0.333072810943
  11     0.449465769816
  12     0.092075512077
  13     0.104726731791
  14     0.221606138817
  15     0.024393605082
  16    -0.008067838515
  17    -0.016325766567
  18    -0.025459015070
  19    -0.015306843775
  20     0.032696232301
  21     0.008337834787
  22    -0.101075382994
  23     0.092737548207
  24     0.391742070729
  25     0.364974787961
  26    -0.108667174431
  27     0.077008358635
  28    -0.024151420763
  29    -0.048473148341
  30    -0.062253615589
  31     0.037875621818
  32     0.091339146158
  33    -0.041063939258
  34    -0.005473090671
  35    -0.026305593294
  36    -0.003540979524
  37     0.008501241657
  38    -0.019055225444
  39     0.110471571105
  40    -0.025750049148
  41    -0.179901156172
  42     0.028152962315
  43     0.000956496644
  44     0.001928620572
  45    -0.071920947796
  46     0.102344968379
  47    -0.079480671177
  48    -0.172081164599
  49    -0.150428025719
  50    -0.070279007116
  51    -0.002216315560
  52     0.004253927482
  53    -0.002037611922
  54     0.001126389665
  55     0.002499317420
  56     0.006280144152
  57    -0.070892605460
  58    -0.017974613068
  59     0.088867218528
  60     0.028187325113
  61    -0.033397209896
  62    -0.049987121138
  63    -0.022860028490
  64    -0.006214771336
  65    -0.010997393455
  66     0.002922651637
  67     0.008758043539
  68     0.008851469752
  69     0.027747294966
  70    -0.000420052836
  71     0.005903081852
  72    -0.004287553045
  73    -0.042496886501
  74    -0.006211668251
  75     0.076009036533
  76     0.003398783978
  77    -0.006626897169
  78     0.003300274036
  79    -0.007448793055
  80     0.028355833006
  81    -0.019102315172
  82    -0.830082626066
  83     0.097954066684
  84     0.089761239935
  85    -0.102654960531
  86    -0.029729619477
  87     0.678357365910
  88    -0.251017601094
  89    -0.070925844491
  90    -0.493652417948
  91     0.656014784482
  92     0.475190809843
  93     0.032294592887
  94     0.008125413334
  95    -0.040420006221
  96    -0.039484273395
  97    -0.029093668728
  98    -1.351158634282
  99    -0.207593652627
  100    0.108869894860
  101    0.098723757767
  102   -0.031513138750
  103   -0.012409505923
  104    1.207166252169
  105   -0.026236421668
  106   -0.000736163260
  107   -0.012643227799
  108    0.022159551447
  109    0.082979165936
  110    0.038641062028
  111    0.013040301955
  112   -0.081991499281
  113   -0.021678391940
  114   -0.029902674138
  115    0.004804712153
  116   -0.012095714103
  117    0.069530807736
  118    0.001553607446
  119   -0.049590506635
  120    0.012683122230
  121    0.024126394785
  122    0.014868209905
  123    0.145244167577
  124   -0.124544865974
  125    0.182517944181
  126   -0.033629722683
  127    0.012260574360
  128    0.002269854849
  129    0.006520553607
  130   -0.004630614861
  131   -0.001889938746
  132    0.009875916962
  133    0.016778831968
  134    0.005513395406
  135   -0.110218912411
  136    0.049078668783
  137    0.061140243628
  138   -0.031610546956
  139    0.046114717515
  140   -0.060188688688
  141   -0.020076380864
  142   -0.002123742293
  143   -0.004511391727
  144   -0.008275270607
  145    0.005873986511
  146    0.024322977605
  147    0.035210562019
  148   -0.003024687231
  149   -0.018270310460
  150    0.001576897384
  151    0.017909444604
  152   -0.119145228317
  153   -0.707969814870
  154    0.020601489105
  155   -0.392947182085
  156   -0.400324353713
  157    0.020869435076
  158    0.049491124307
  159    0.368613592615
  160    0.110487732875
  161   -0.293631955493
  162    0.225605849250
  163   -0.003790117727
  164    0.092554280677
  165    0.333292359790
  166    0.108012763432
  167    0.105264687802
  168   -0.111328985885
  169    0.014305612520
  170   -0.026586332886
  171    0.078948697758
  172   -0.008977512448
  173    0.009335040933
  174    0.008128250455
  175    0.004865598335
  176   -0.033006935390
  177   -0.041079454597
  178   -0.014265342912
  179   -0.004412662216
  180    0.003759164235
  181    0.011038042119
  182   -0.008491482930
  183   -0.069818229303
  184    0.003358092588
  185   -0.003325975611
  186   -0.012583548106
  187    0.012045093704
  188    0.170407116037
  189   -0.024767115216
  190    0.029002214176
  191   -0.011974225739
  192    0.023585898097
  193   -0.005352578684
  194    0.154849325879
  195    0.025912180494
  196   -0.001585435051
  197   -0.009726664621
  198    0.040658656918
 Sym=     1a
 Ene= 3.26984171289513E+00
Spin= Alpha
 Occup= 0
  1     -0.001500276912
  2     -0.036295687690
  3     -0.065808911154
  4      1.826028452979
  5      0.227846209711
  6      0.107869400832
  7      0.075431927497
  8      0.062466334636
  9      0.652799966078
  10     0.706688061135
  11     0.674286408993
  12     0.184540482945
  13     0.270938215679
  14     0.477569519582
  15     0.048467918423
  16    -0.014988592561
  17    -0.033479325862
  18     0.001376571380
  19     0.019882960663
  20    -0.013074841268
  21    -0.215732978371
  22     0.008723290888
  23     0.207009687483
  24     0.483357647442
  25     0.150487803508
  26     0.418298726355
  27    -0.129915174969
  28    -0.154529187739
  29    -0.007213293959
  30     0.099401321701
  31     0.153339639071
  32    -0.015608339644
  33     0.074898175823
  34     0.053983021905
  35     0.025285989024
  36     0.187089248201
  37     0.008863859790
  38    -0.010593056113
  39     0.130931511029
  40    -0.356356937426
  41    -0.151382416975
  42     0.031629712599
  43     0.014626419370
  44     0.003772395290
  45    -0.332828247715
  46    -0.086813862880
  47    -0.127647771563
  48    -0.055657716071
  49    -0.078441538061
  50    -0.049211911493
  51     0.007683149545
  52     0.001347067067
  53    -0.009030216612
  54     0.005966841972
  55     0.002816551458
  56     0.001654950183
  57    -0.116587183090
  58    -0.001774508157
  59     0.118361691247
  60    -0.072538611044
  61     0.022871718317
  62    -0.073019068294
  63    -0.022658645181
  64     0.006020097101
  65     0.009032575407
  66     0.021607794897
  67    -0.009404905305
  68     0.003621405484
  69     0.008791967645
  70     0.001328097496
  71    -0.015739877057
  72    -0.002848166236
  73    -0.026209027712
  74    -0.007490037549
  75     0.072233869474
  76    -0.007915860621
  77    -0.008237836913
  78     0.009893294183
  79     0.017910460621
  80    -0.025216054919
  81     0.419176099796
  82    -1.721524199331
  83    -0.458502385743
  84    -0.112105369473
  85    -0.019117772732
  86    -0.000199341633
  87     1.251349668795
  88     0.688821344620
  89    -0.075548757644
  90     0.303751317293
  91    -0.002174352268
  92     0.023844953828
  93     0.011772905336
  94    -0.009528830449
  95    -0.002244074887
  96    -0.002581348400
  97     0.001827044152
  98    -0.003906418732
  99    -0.573335391198
  100    0.133883450054
  101    0.439451941144
  102    0.333395648034
  103   -0.709910954855
  104    0.504115557560
  105    1.094704799109
  106    0.003786141747
  107    0.052002916061
  108   -1.433863206720
  109   -0.030673482079
  110    0.016609364287
  111   -0.034837400941
  112    0.025593839888
  113   -0.086378597491
  114   -0.000605367800
  115   -0.008168802067
  116    0.019795577424
  117   -0.119096961284
  118    0.052615673655
  119    0.138556131431
  120    0.003582505474
  121    0.001263848512
  122   -0.017687144214
  123   -0.052474472970
  124   -0.049557859324
  125   -0.032218381957
  126   -0.050856487031
  127    0.058363876824
  128    0.125036024593
  129    0.002876789131
  130    0.000599160806
  131   -0.003475949937
  132    0.004648082507
  133   -0.004866736113
  134    0.001500891967
  135   -0.017035968958
  136    0.020928132490
  137   -0.003892163532
  138   -0.094831683526
  139   -0.000174247948
  140   -0.007636745305
  141    0.026929155224
  142   -0.014435830121
  143    0.004111918792
  144    0.005812918160
  145    0.000782403017
  146    0.008965835958
  147   -0.041942171154
  148    0.018585295460
  149   -0.014482553920
  150   -0.027613461932
  151   -0.144012970779
  152   -0.284157149541
  153    0.082149067238
  154    0.095629576237
  155    0.040366477510
  156    0.059293275572
  157    0.356476526596
  158    0.838577865536
  159   -0.162005305902
  160    0.044077647156
  161    0.243487463027
  162   -0.173575570012
  163   -0.169313164571
  164   -0.499191474283
  165    0.080781390280
  166    0.009098007678
  167    0.161785339003
  168   -0.103728247468
  169    0.025571368173
  170    0.099466364371
  171    0.047825754970
  172    0.013015743090
  173   -0.012481799140
  174   -0.022436634045
  175   -0.017442409235
  176   -0.072873466368
  177    0.023480699749
  178   -0.022815222153
  179   -0.009900818884
  180   -0.004246640880
  181    0.003570385081
  182   -0.017125197944
  183    0.008744963621
  184   -0.000366868348
  185    0.000357803982
  186   -0.011963285713
  187    0.000768214925
  188   -0.020839533756
  189    0.041826502014
  190   -0.009258716672
  191   -0.013054831758
  192    0.002673200502
  193    0.007674377696
  194    0.066963624653
  195    0.047913947333
  196   -0.011777233831
  197   -0.001308492889
  198    0.011989690267
 Sym=     1a
 Ene= 3.27483146997596E+00
Spin= Alpha
 Occup= 0
  1     -0.002030607167
  2      0.095206736800
  3     -0.041674437944
  4     -3.174608494527
  5     -0.316882083133
  6      0.010158501792
  7      0.106145794530
  8      0.279057818336
  9     -0.012329416055
  10     0.678540063082
  11     2.073046166672
  12    -0.060181240633
  13     0.309197192003
  14     0.892853894112
  15     0.046041948708
  16     0.004024116382
  17    -0.050066065090
  18    -0.001570794225
  19    -0.001313211037
  20    -0.048068501305
  21     0.164642142961
  22     0.476966840891
  23    -0.641608983852
  24    -0.029032823669
  25    -0.036718195025
  26    -0.310119325045
  27    -0.008101508014
  28    -0.116979767082
  29     0.182207369424
  30    -0.005000685781
  31     0.007077277878
  32    -0.079519720103
  33     0.015869999365
  34     0.149867548835
  35    -0.164937118317
  36     0.005617315608
  37     0.001656039821
  38    -0.016982809750
  39     0.082533059608
  40    -0.112710859334
  41    -0.138733738069
  42     0.016523941819
  43    -0.003948678380
  44     0.007575603658
  45    -0.048008193198
  46    -0.049943477358
  47    -0.166335521760
  48    -0.222574435108
  49    -0.003351953719
  50     0.003037473343
  51     0.004917443525
  52     0.002205047332
  53    -0.007122490857
  54    -0.000545228223
  55    -0.004250454357
  56     0.001841131978
  57    -0.029238438918
  58    -0.088086659896
  59     0.117325098814
  60    -0.041453092247
  61    -0.011908216975
  62     0.009808416533
  63    -0.031348797690
  64     0.011204676346
  65    -0.002184725965
  66     0.004790153030
  67    -0.013825555372
  68    -0.004086101376
  69     0.037268672559
  70    -0.001207095414
  71     0.007017218838
  72     0.011903821373
  73    -0.314077456566
  74    -0.783058694944
  75     0.144327932452
  76     0.044447030140
  77    -0.236018375664
  78     0.197761396327
  79    -0.000220581572
  80    -0.012138182871
  81     0.035400672329
  82     0.041130559845
  83    -0.071187000145
  84    -0.008501030279
  85    -0.001625134432
  86     0.014326349628
  87    -0.026315684117
  88    -0.085190922243
  89    -0.200962211014
  90     0.186586574521
  91     0.033104837853
  92    -0.045444926446
  93     0.006380722481
  94     0.000874133622
  95    -0.007254856103
  96    -0.000694653044
  97     0.001234233495
  98    -0.000112212746
  99    -0.046402142891
  100   -0.053710850618
  101    0.100112993509
  102    0.074294921200
  103    0.055721028538
  104    0.039522108777
  105    0.031406384330
  106    0.005601513416
  107    0.012944784927
  108   -0.009938158575
  109    0.001783746661
  110   -0.017849716483
  111   -0.032197927598
  112   -0.009298965526
  113    0.000482465052
  114   -0.019062900800
  115   -0.039117649935
  116    0.041338118878
  117   -0.875054546218
  118    3.841284154022
  119    0.974720921739
  120   -0.013306377525
  121   -0.074010210932
  122   -0.170479243703
  123    0.261540670548
  124    0.613036617635
  125    2.223590772828
  126    0.029370257319
  127    0.291612296791
  128    0.550763008778
  129    0.005636056421
  130   -0.001947581701
  131   -0.003688474720
  132    0.000519724043
  133    0.000222039860
  134   -0.013842759101
  135   -0.911948283894
  136    0.330405065201
  137    0.581543218693
  138   -0.061972462435
  139   -0.084041680158
  140    0.900142933042
  141   -0.032172773478
  142   -0.910516127324
  143    0.010621639054
  144    0.034926617328
  145   -0.280323407728
  146   -0.090704265930
  147    0.008237687784
  148    1.501908980912
  149    0.076453841755
  150   -0.018643576646
  151    0.001881644007
  152    0.047136556071
  153   -0.064563436752
  154   -0.006211662459
  155   -0.001884337217
  156   -0.018967809927
  157    0.017189421718
  158    0.028262486234
  159   -0.061003473230
  160    0.010193570803
  161    0.005510564944
  162   -0.006575643091
  163   -0.007799191986
  164   -0.034975369182
  165   -0.109813432443
  166    0.011659455969
  167    0.007045557715
  168   -0.004229958548
  169    0.002301503346
  170    0.066631151093
  171   -0.080150540694
  172    0.002239732093
  173   -0.001700174362
  174   -0.022544193525
  175   -0.008334550382
  176   -0.049855990873
  177   -0.110175551837
  178   -0.015057916387
  179    0.001377638791
  180   -0.003124098798
  181    0.021478038479
  182    0.028893284786
  183   -0.063580785969
  184   -0.010021985405
  185    0.002101061720
  186   -0.009908034541
  187    0.075673522171
  188    0.222786706671
  189   -0.029701657047
  190   -0.003848319417
  191   -0.005662862894
  192    0.030175672154
  193   -0.015453447599
  194   -0.045657450388
  195    0.012159718143
  196    0.117692875167
  197   -0.010606442125
  198    0.049296051701
 Sym=     1a
 Ene= 3.27524844722943E+00
Spin= Alpha
 Occup= 0
  1      0.017937702944
  2     -0.057389295592
  3      0.402620901209
  4     -0.427905423216
  5     -0.397311531965
  6      0.001824711242
  7     -0.032958878968
  8     -0.073398843775
  9      0.086698774278
  10     0.105869258735
  11    -0.087676892021
  12     0.075674137246
  13     0.200712944543
  14     0.379472530247
  15     0.019273933031
  16    -0.004643726585
  17    -0.014630206446
  18     0.004683715921
  19    -0.004977003757
  20     0.016404238103
  21    -0.223319646098
  22     0.004817163551
  23     0.218502482547
  24    -0.043814730236
  25     0.053648854283
  26    -0.151175834919
  27     0.006933239892
  28    -0.026469109290
  29    -0.055446107312
  30    -0.002593645862
  31    -0.033721638598
  32     0.057698102547
  33    -0.006708271560
  34     0.069233675203
  35     0.016690656476
  36     0.004427743507
  37     0.001519425955
  38    -0.004212558924
  39    -0.005420098938
  40     0.203212566797
  41     0.005963879146
  42    -0.000527277891
  43     0.004377322301
  44     0.010996969335
  45     0.119273613412
  46    -0.023094467171
  47    -0.195055804163
  48    -0.032531012785
  49     0.034488495273
  50    -0.010990801039
  51     0.002230839475
  52     0.000660815519
  53    -0.002891654994
  54    -0.000622496178
  55     0.002166237166
  56    -0.001588581624
  57    -0.045483573288
  58    -0.025481407479
  59     0.070964980767
  60    -0.000775457756
  61    -0.087486392234
  62     0.034128564828
  63    -0.015524132310
  64     0.003636269679
  65    -0.012415462085
  66     0.001904420861
  67    -0.000322068626
  68     0.016356018146
  69     0.018923388222
  70    -0.004556499086
  71     0.000301072170
  72     0.000506621780
  73    -0.492267499862
  74    -1.240599318526
  75     0.152641660587
  76     0.149727730794
  77    -0.369316833503
  78     0.074983841001
  79     0.003786780964
  80    -0.011751871888
  81     0.059387446129
  82     0.014460603508
  83    -0.067277123528
  84    -0.007431130144
  85     0.000018279789
  86    -0.006052842411
  87    -0.064615573576
  88    -0.027628029912
  89    -0.083023437063
  90     0.048253626138
  91     0.047339273690
  92     0.045957071385
  93     0.000373672933
  94    -0.001731927151
  95     0.001358254218
  96     0.000145247384
  97     0.000285860719
  98    -0.001948012698
  99    -0.040888635102
  100    0.014973668187
  101    0.025914966915
  102   -0.024679543075
  103    0.072181523178
  104    0.048620462195
  105    0.019657082742
  106    0.001102432622
  107   -0.007097200701
  108    0.001555626692
  109    0.013831443008
  110    0.010827968171
  111   -0.027928370643
  112   -0.015310511578
  113   -0.001306074241
  114    0.002230975844
  115   -0.031426462615
  116    0.002443112173
  117   -0.428088679238
  118    1.880963077731
  119    0.403462772921
  120   -0.018946083627
  121    0.053978281927
  122   -0.000700583312
  123    0.369251564350
  124   -0.832284218767
  125   -0.135853744557
  126    0.033231601567
  127   -0.025067862980
  128    0.156667625484
  129   -0.002398024062
  130    0.002232173211
  131    0.000165850851
  132   -0.000325805198
  133   -0.001476523687
  134    0.006539112034
  135   -0.034436866585
  136    0.420041807389
  137   -0.385604940804
  138   -0.028275416363
  139   -0.176549603849
  140   -0.538878532003
  141   -0.038991492048
  142   -1.118369764237
  143    0.024905873475
  144    0.044285976189
  145    1.402176029299
  146   -0.090080497760
  147    0.008026599868
  148    0.098274460790
  149    0.056665762083
  150   -0.041310195316
  151    0.005665951451
  152   -0.025839087823
  153   -0.064357020641
  154    0.001779430406
  155   -0.006792299986
  156    0.000837307331
  157   -0.000821258451
  158    0.020647289950
  159   -0.010854768279
  160   -0.002432904087
  161    0.003118700907
  162   -0.000676333165
  163    0.006490386830
  164    0.090673431983
  165   -0.022349025225
  166   -0.010212495271
  167   -0.001606802050
  168    0.011593206327
  169    0.003510877768
  170   -0.009647395513
  171   -0.054464107089
  172    0.000485596467
  173   -0.005150177533
  174   -0.002855255546
  175    0.000038295178
  176    0.049509752769
  177   -0.009137082344
  178    0.001925502542
  179    0.001207935785
  180    0.011200758660
  181    0.001336681522
  182    0.041161261610
  183    0.004028317258
  184    0.000708091308
  185    0.005688017294
  186   -0.005539457960
  187   -0.090380766769
  188   -0.148955850539
  189   -0.004240349780
  190   -0.083740892785
  191   -0.229839890321
  192   -0.094852669171
  193   -0.258630692896
  194   -0.643994969754
  195    0.071661231883
  196    0.150970948647
  197   -0.066529989524
  198   -0.223416980751
 Sym=     1a
 Ene= 3.27709827609864E+00
Spin= Alpha
 Occup= 0
  1     -0.014191003532
  2      0.088800471121
  3     -0.361413515812
  4     -0.799000821702
  5      0.176980081916
  6      0.138635340203
  7     -0.006986387396
  8     -0.126344321332
  9      0.812663285774
  10    -0.087083020784
  11    -0.680397549618
  12     0.199374949657
  13    -0.063134767868
  14    -0.145739345854
  15    -0.031529356848
  16     0.032887107007
  17    -0.001357750159
  18    -0.008278687431
  19     0.002789389111
  20    -0.002709963310
  21     0.017110179777
  22     0.024272167343
  23    -0.041382347120
  24     0.116949363494
  25     0.564757549531
  26    -0.012037711482
  27    -0.105169634193
  28    -0.001612004275
  29     0.072872125679
  30     0.046205675984
  31     0.014882408966
  32    -0.121627348729
  33     0.094894194751
  34    -0.012719678282
  35     0.023859132720
  36     0.020778670872
  37    -0.002742430916
  38     0.010226981550
  39    -0.182417693751
  40     0.972380504406
  41     0.250529763753
  42    -0.052827862392
  43    -0.020449036360
  44     0.068008591791
  45     0.520634241701
  46     0.314541701205
  47    -1.297322747235
  48     0.192335061280
  49     0.012324527839
  50    -0.170918938008
  51    -0.004787918470
  52     0.002111492363
  53     0.002676426107
  54    -0.002657980835
  55     0.006763184096
  56     0.003140110638
  57     1.144690163637
  58    -0.976795099145
  59    -0.167895064492
  60    -0.097122644222
  61    -0.063255886794
  62     0.111775742298
  63     0.008138630480
  64     0.030302066079
  65     1.325305680638
  66     0.036863855905
  67    -0.041814014047
  68    -0.906522476093
  69    -0.047782974503
  70     0.001159526279
  71    -0.871561679630
  72     0.001443555315
  73     0.006640500003
  74    -0.019844280666
  75    -0.037495737643
  76     0.004900472101
  77    -0.001364985516
  78    -0.008169108442
  79    -0.003884831677
  80     0.000236877781
  81     0.025079435780
  82    -0.357364392640
  83    -0.093506144414
  84    -0.002273718435
  85    -0.008815068057
  86    -0.001687982073
  87     0.162905051370
  88     0.089624415634
  89     0.090336319888
  90     0.025500927669
  91     0.067309736133
  92     0.071794736619
  93     0.001056755090
  94    -0.001436969383
  95     0.000380214293
  96     0.007217687090
  97     0.000413025386
  98     0.001688270995
  99    -0.051952778713
  100    0.026511531878
  101    0.025441246835
  102   -0.053167000953
  103    0.016923034758
  104    0.040258705664
  105    0.012733777992
  106    0.013991653086
  107    0.014341031689
  108   -0.007078072667
  109   -0.009347185037
  110   -0.019737943286
  111   -0.010006083253
  112   -0.009424587413
  113    0.000497430252
  114   -0.020825130999
  115    0.003091012832
  116   -0.010684536975
  117    0.092512996656
  118   -0.287850590155
  119   -0.125542280063
  120   -0.012417988296
  121    0.012098032607
  122    0.015127043543
  123    0.169331024776
  124   -0.080239253984
  125   -0.132660753511
  126   -0.011127566869
  127   -0.081963272470
  128   -0.071310523453
  129   -0.000142589847
  130    0.000866693331
  131   -0.000724103484
  132   -0.004279227136
  133   -0.003437553780
  134    0.007110719577
  135   -0.021772047259
  136    0.014073412858
  137    0.007698634401
  138    0.070949745196
  139    0.019405288334
  140   -0.063027073296
  141    0.010625986842
  142    0.011156749879
  143    0.012666234406
  144   -0.005610225673
  145   -0.012574330953
  146   -0.021211725272
  147   -0.008646031671
  148   -0.002394019730
  149    0.004218188582
  150    0.001702920237
  151   -0.002081543442
  152   -0.049683311408
  153   -0.041367098680
  154   -0.003321958378
  155    0.002305185600
  156    0.006648350786
  157    0.004731821281
  158    0.011469333504
  159    0.008697517563
  160   -0.010565426073
  161   -0.001197087544
  162    0.003023407466
  163   -0.003751460278
  164    0.078403108419
  165   -0.018919728751
  166   -0.010497665433
  167    0.000030944724
  168    0.002046053363
  169    0.166323849752
  170    0.467344342727
  171   -0.039498630442
  172   -0.019644809013
  173    0.072346452675
  174   -0.239660991497
  175   -0.311075437238
  176   -0.847464561577
  177    0.187659857033
  178   -0.100264483033
  179    0.005275181349
  180   -0.248589553031
  181    0.361635051496
  182    0.859109275574
  183   -0.125229237029
  184   -0.001426800512
  185    0.193638850760
  186   -0.158384618650
  187    0.017939146288
  188    0.063885670710
  189   -0.057865490610
  190    0.005433890081
  191    0.012527222031
  192    0.016114126956
  193   -0.014198584582
  194   -0.039213140472
  195    0.009967367950
  196    0.011629494641
  197    0.000679294502
  198   -0.005093865966
 Sym=     1a
 Ene= 3.28337005110636E+00
Spin= Alpha
 Occup= 0
  1     -0.006834021527
  2      0.043891551899
  3     -0.147942383336
  4     -0.678127126829
  5      0.055685260492
  6      0.111627947869
  7     -0.008070177868
  8     -0.015177863617
  9      1.055765338610
  10     0.124675884860
  11     0.557718034751
  12     0.517890184373
  13     0.286776318779
  14     0.614028715280
  15     0.032916994825
  16     0.015521938054
  17    -0.048438932879
  18     0.006272425862
  19     0.034833102413
  20    -0.007900288219
  21    -0.783975705852
  22     0.043198208496
  23     0.740777497356
  24     0.041114324904
  25    -0.208112958745
  26     0.029615075795
  27     0.306348334467
  28    -0.000215144766
  29     0.085246808279
  30    -0.069286823440
  31    -0.034383272491
  32    -0.059656051730
  33    -0.341722596957
  34     0.034671919483
  35    -0.054714543176
  36     0.000662673438
  37     0.001608951249
  38     0.010406978420
  39    -0.068196639607
  40     0.282734894722
  41     0.096025173233
  42    -0.013434386726
  43     0.005347924692
  44     0.087614467350
  45     0.494172882294
  46    -0.069493241989
  47    -0.695322864911
  48    -0.022011477725
  49    -0.015983664522
  50    -0.224601420232
  51     0.007982874962
  52     0.000875533807
  53    -0.008858408769
  54    -0.002925802802
  55     0.012041236993
  56    -0.002594641638
  57    -0.487126960298
  58    -0.014042664614
  59     0.501169624912
  60     0.037508595283
  61    -0.915551163141
  62     0.118826847073
  63    -0.869619347941
  64     0.005455276886
  65    -0.043619688333
  66    -0.341691579876
  67     0.002173705496
  68     0.038545196710
  69     1.508408365803
  70    -0.009492727468
  71     0.019976756252
  72     0.028316538192
  73    -0.019661652555
  74     0.022819113050
  75     0.051938738070
  76    -0.007325639498
  77    -0.011631723482
  78     0.002672161079
  79     0.016257062112
  80    -0.034586873125
  81     0.287832099684
  82    -0.601215899694
  83    -0.339715352940
  84    -0.055042214354
  85    -0.010450349534
  86    -0.000755647878
  87     0.357940695446
  88     0.036214733196
  89    -0.061010905481
  90     0.209222408701
  91    -0.011669201131
  92     0.083866607102
  93     0.011400106693
  94    -0.003054353349
  95    -0.008345753344
  96     0.002670495764
  97    -0.004515879978
  98    -0.005967451998
  99    -0.132479472231
  100    0.069785460361
  101    0.062694011870
  102   -0.035672866494
  103   -0.017310834080
  104    0.021383583036
  105   -0.013277264095
  106   -0.025982995278
  107    0.007025774945
  108   -0.017287088762
  109    0.009187273756
  110    0.000325644428
  111    0.035100407805
  112    0.025672572465
  113   -0.009751710650
  114    0.031949928586
  115   -0.018784762454
  116    0.035568099032
  117   -0.297164245095
  118    0.548097441189
  119    0.338330005307
  120    0.036169992729
  121   -0.023157645335
  122   -0.047417793930
  123   -0.316950781339
  124    0.019716449682
  125    0.243147483668
  126   -0.134359032277
  127    0.114734685882
  128    0.135780270502
  129   -0.000662127471
  130    0.003466327490
  131   -0.002804200019
  132    0.010993533944
  133    0.012238112618
  134   -0.001426588577
  135    0.021821077352
  136   -0.099184964873
  137    0.077363887521
  138   -0.115782022560
  139   -0.013795727913
  140    0.063141620446
  141   -0.022718178243
  142   -0.034501731154
  143    0.010731138819
  144    0.016449673364
  145    0.009008229898
  146   -0.007306691179
  147    0.014029961162
  148    0.037280699823
  149   -0.007090642346
  150    0.026900367770
  151    0.011384698092
  152   -0.007782971212
  153   -0.035228729945
  154   -0.015783668244
  155   -0.000349519617
  156   -0.000054695865
  157    0.029531430681
  158   -0.037215194395
  159   -0.090660242309
  160    0.000828279974
  161    0.010011360684
  162    0.001652799627
  163   -0.010313984356
  164   -0.023178373187
  165   -0.023657091400
  166    0.007752630565
  167    0.011876216063
  168   -0.000961870672
  169   -0.020959579039
  170   -0.006906006798
  171    0.031711271728
  172   -0.047686919669
  173    0.007197127833
  174   -0.017103569851
  175    0.265895079260
  176    0.587434833860
  177   -0.120088121037
  178    0.256580577820
  179   -0.008767486453
  180   -0.085835943185
  181    0.008112259201
  182    0.060750542346
  183    0.022215186870
  184    0.036300093330
  185    0.016993465137
  186    0.006141935972
  187   -0.033603378865
  188   -0.146825468525
  189   -0.006320873111
  190   -0.021599823057
  191   -0.009168234008
  192   -0.026764026447
  193    0.017441175410
  194    0.098699344716
  195    0.032495808309
  196   -0.016163356924
  197    0.008157681287
  198    0.016838409563
 Sym=     1a
 Ene= 3.29606024661539E+00
Spin= Alpha
 Occup= 0
  1     -0.013165545406
  2      0.021108455480
  3     -0.275477068579
  4      1.240369124820
  5      0.135731927472
  6     -0.088374760348
  7     -0.002688479042
  8     -0.034516709270
  9      1.435821764936
  10     0.146763892743
  11     0.475252607699
  12     1.003709450942
  13     0.134874178480
  14     0.296404406263
  15     0.007367272489
  16    -0.003810003030
  17    -0.003557269459
  18    -0.051751437316
  19     0.015684345449
  20     0.003660367494
  21     0.065192445102
  22    -0.035204716790
  23    -0.029987728312
  24     0.743194867445
  25     0.047618613158
  26    -0.003700962465
  27    -0.124885103331
  28     0.016413348730
  29    -0.040478073289
  30     0.041036533536
  31    -0.007455109646
  32     0.044723833241
  33     0.126514414719
  34    -0.014565708452
  35     0.009583200842
  36     1.404455825416
  37     0.001399724408
  38    -0.010860149761
  39    -0.014935394114
  40     0.489743417965
  41     0.103554072915
  42     0.043618351853
  43    -0.014532462675
  44     0.007445774844
  45     0.124641599109
  46     0.679204594336
  47    -0.326516273906
  48     0.028864976210
  49     0.129470716139
  50    -0.183348673998
  51     0.010991942823
  52    -0.000122190676
  53    -0.010869752147
  54     0.003988996062
  55    -0.003348196602
  56    -0.007969959696
  57     0.088722855009
  58    -0.203274017726
  59     0.114551162717
  60     0.528223924234
  61    -0.073513137135
  62    -0.139429995508
  63     0.048928985611
  64    -0.130282711597
  65     0.020096448730
  66    -0.066347211047
  67     0.210034069215
  68    -0.044548843836
  69     0.000702088309
  70    -0.035241469561
  71     0.017586628556
  72    -0.149937671707
  73    -0.005356306649
  74     0.072203730129
  75     0.030202958027
  76     0.007355933695
  77     0.007834650980
  78     0.015898087311
  79    -0.002009736070
  80     0.039299151122
  81     0.070533494413
  82    -1.733752296966
  83    -0.298611386623
  84     0.096276025069
  85     0.042144036161
  86     0.036273125055
  87     1.119539856529
  88    -0.222764626154
  89     0.446371552808
  90     0.266580460172
  91    -0.067348365883
  92     0.091657997388
  93    -0.027559156761
  94     0.011088273951
  95     0.016470882810
  96    -0.010972503318
  97    -0.018851046588
  98     0.002178083577
  99    -0.529585233264
  100    0.430517289322
  101    0.099067943942
  102    0.125377320005
  103   -0.145157264968
  104   -0.078156303460
  105    0.197768029683
  106    0.010151393541
  107   -0.045972279906
  108   -0.167428533576
  109   -0.054369171744
  110    0.070534942971
  111   -0.097905121312
  112    0.040749648130
  113   -0.008856657201
  114   -0.027291668637
  115    0.000792462199
  116   -0.001965356996
  117   -0.002011345561
  118    0.118270451722
  119    0.047454590821
  120    0.015248406227
  121   -0.005135956401
  122    0.014647439386
  123   -0.449664912603
  124    0.056056384883
  125   -0.011330683427
  126   -0.283378150325
  127    0.048841461279
  128    0.030373341553
  129   -0.001101777841
  130   -0.001007201646
  131    0.002108979487
  132   -0.004801237016
  133   -0.006244260491
  134   -0.001727427212
  135    0.019413082776
  136   -0.020852743020
  137    0.001439660244
  138   -0.123292142010
  139   -0.438600929963
  140    0.017219349322
  141    0.138495836216
  142   -0.006714623604
  143    0.019164579324
  144    0.067815808697
  145    0.003055266730
  146   -0.015793470381
  147   -0.253627471325
  148    0.005953346162
  149   -0.009918510896
  150   -0.099420299869
  151   -0.015173059337
  152    0.191188976147
  153   -0.083489182199
  154   -0.055496917270
  155   -0.034941150081
  156   -0.035807362317
  157    0.007104167491
  158   -0.307695501655
  159   -0.096623764928
  160    0.052952056347
  161    0.010754013855
  162    0.025199929470
  163    0.036778795203
  164    0.009751662722
  165   -0.084607739047
  166   -0.009140347179
  167   -0.020551147409
  168    0.017582168274
  169    0.023728875460
  170   -0.160727751651
  171    0.093270389201
  172   -0.050540271113
  173    0.012471597222
  174    0.036273782264
  175   -0.024999016554
  176   -0.075261606121
  177    0.044371614071
  178   -0.024269518625
  179    0.018248761121
  180   -0.007450505177
  181   -0.003161312117
  182    0.314451071427
  183    0.061555673008
  184    0.066764805581
  185    0.003170377678
  186   -0.054367270253
  187    0.011249841123
  188   -0.074462471219
  189   -0.007493989769
  190   -0.020258245168
  191    0.003654998839
  192   -0.019581354083
  193   -0.019403289288
  194   -0.004870107473
  195    0.071084352937
  196   -0.008371319644
  197   -0.012178302080
  198   -0.001755547426
 Sym=     1a
 Ene= 3.30179647025230E+00
Spin= Alpha
 Occup= 0
  1     -0.000555093896
  2      0.005185999281
  3     -0.037243139610
  4      0.135040481819
  5      0.019727334817
  6     -0.020294260461
  7      0.007701551520
  8     -0.001277321041
  9     -1.063805049782
  10    -0.027005073540
  11     0.112757320064
  12    -0.976111042733
  13    -0.085994970563
  14     0.153369929472
  15    -0.002747454036
  16    -0.001976825348
  17     0.004724279384
  18    -0.040766118370
  19    -0.036493894842
  20     0.000010374542
  21     0.068131567131
  22    -0.012175526036
  23    -0.055956041095
  24     0.475166764929
  25     0.555303663211
  26    -0.054118794630
  27     0.179897339983
  28    -0.000253214648
  29     0.004246255420
  30    -0.042070254113
  31    -0.016318546089
  32    -0.009528493932
  33    -0.199287354591
  34     0.016658269189
  35     0.003831544471
  36    -0.239311727289
  37     0.017933079397
  38    -0.038299302205
  39     0.341474141747
  40    -0.850930760711
  41    -0.437121371256
  42     0.035508338093
  43    -0.019543376202
  44    -0.052201362224
  45    -0.215218506285
  46     0.201969412729
  47     0.386576846266
  48    -0.161034294353
  49     0.012723575933
  50     0.190764336274
  51    -0.006996979718
  52    -0.000872171866
  53     0.007869151584
  54    -0.010132536038
  55    -0.008118578121
  56     0.008452401993
  57    -0.007027837703
  58     0.075791613074
  59    -0.068763775371
  60     0.089672853790
  61     0.121393535644
  62    -0.072790479030
  63    -0.023477854899
  64     0.003815454684
  65    -0.007890164668
  66     0.017473412808
  67    -0.030514272526
  68     0.021805242449
  69     0.014025434904
  70     0.025395302902
  71    -0.011219475718
  72    -0.011293003830
  73     0.063653755832
  74     0.137824690173
  75    -0.035330236131
  76     0.046284235745
  77     0.034334431815
  78    -0.037018797971
  79    -0.016884983403
  80     0.033649359923
  81    -0.285010695582
  82     0.587350124089
  83     0.343222100228
  84     0.029834258778
  85     0.026735926065
  86     0.036168699469
  87    -0.140598037023
  88    -0.191125792576
  89    -0.225764564068
  90    -0.137502174989
  91    -0.031422005150
  92    -0.140980562043
  93     0.009346109481
  94    -0.006456910069
  95    -0.002889199412
  96    -0.007301305096
  97    -0.006823060935
  98    -0.008555779015
  99    -0.002708829866
  100    0.009299229718
  101   -0.006590399852
  102    0.069053563293
  103    0.094381059173
  104    0.081228825195
  105   -0.046463560129
  106    0.007558120087
  107    0.006739637923
  108    0.033345423568
  109   -0.000409355741
  110   -0.003721077321
  111    0.028991983788
  112   -0.009730926437
  113   -0.005321095803
  114   -0.015694756196
  115   -0.004644376061
  116   -0.002981783219
  117   -0.064965365156
  118    0.382237564890
  119    0.068498489407
  120   -0.099956641034
  121   -0.011989137925
  122    0.014485654956
  123    1.137070786748
  124    0.261964080861
  125   -0.229344267089
  126    0.274143778455
  127    0.041196506525
  128    0.027909744902
  129   -0.000532696104
  130   -0.000357260502
  131    0.000889956606
  132    0.000522835237
  133   -0.014052092129
  134   -0.000272089928
  135    0.136139798358
  136   -0.191660293131
  137    0.055520494773
  138    0.389651668604
  139    0.179044087995
  140   -0.082541780539
  141   -0.851634901753
  142   -0.010397706959
  143    0.017749872488
  144   -0.368864027212
  145    0.005712299958
  146   -0.034908987218
  147    1.511452146611
  148    0.008237687784
  149    0.011095034333
  150    0.044837093155
  151    0.009378998915
  152    0.000808104436
  153    0.040661988858
  154   -0.007816422246
  155   -0.008408930959
  156    0.001548920801
  157   -0.031613777630
  158    0.017667831893
  159    0.063817119213
  160    0.004241800379
  161   -0.006915587784
  162    0.011111235086
  163   -0.009709432736
  164    0.018841625446
  165   -0.001376621964
  166    0.002363069836
  167    0.005320725794
  168    0.005032222624
  169   -0.014534013266
  170   -0.010721724734
  171   -0.058042886514
  172   -0.008639619757
  173    0.004307964537
  174    0.006919499028
  175    0.020938706445
  176    0.045204864513
  177   -0.013880636421
  178    0.020017346396
  179   -0.005168566298
  180   -0.005478555998
  181    0.028877210219
  182   -0.012588937038
  183   -0.055440698526
  184    0.005239768011
  185    0.008718287188
  186   -0.012827553354
  187    0.021537351055
  188    0.220165504741
  189    0.000662712989
  190    0.154054050494
  191    0.008952008841
  192   -0.201785940901
  193   -0.232300934523
  194   -0.735210916889
  195    0.100390696615
  196    0.272742991374
  197    0.107841499260
  198    0.061112588020
 Sym=     1a
 Ene= 3.30739450987781E+00
Spin= Alpha
 Occup= 0
  1     -0.009570646125
  2     -0.015260552523
  3     -0.204461126920
  4      1.777780801030
  5      0.385836707229
  6      0.093976036963
  7      0.011238513561
  8      0.044747143109
  9      1.215287175560
  10    -0.089791030906
  11     0.021710616060
  12     0.910268812403
  13     0.042947999883
  14    -0.162983248848
  15    -0.002604895116
  16     0.003802515781
  17    -0.001197620665
  18     0.039747171821
  19     0.033942386721
  20     0.000622422436
  21     0.531527615523
  22    -0.390235740928
  23    -0.141291874595
  24    -0.236230632011
  25     0.061716651715
  26     0.065318244787
  27     0.207068089816
  28     0.006867233413
  29    -0.059684743081
  30    -0.179631831214
  31    -0.047258221864
  32     0.088795821520
  33    -0.098179163667
  34     0.038044861427
  35    -0.008720335871
  36    -0.028220799394
  37    -0.012017174637
  38     0.034581622459
  39    -0.243790446466
  40     0.452848315131
  41     0.329112141271
  42    -0.039658017244
  43     0.000138225645
  44     0.009121334157
  45     0.104647884009
  46    -0.056376979744
  47     0.023034630536
  48     0.217164201761
  49    -0.023891262593
  50    -0.120005331914
  51    -0.008487013911
  52     0.001374691819
  53     0.007112322092
  54     0.001853951342
  55     0.001250889736
  56    -0.001638162639
  57    -0.012598236494
  58     0.021364821159
  59    -0.008766584665
  60    -0.050312162638
  61    -0.034609291087
  62     0.059739641388
  63    -0.019760039824
  64     0.008206580416
  65    -0.020827086432
  66    -0.008491804188
  67    -0.013126801318
  68    -0.004123091086
  69     0.035002679559
  70     0.002116518314
  71     0.032065559707
  72     0.017130233516
  73     0.006646133400
  74    -0.047403952212
  75    -0.005455106213
  76     0.004497656664
  77     0.000279560489
  78     0.005811981217
  79     0.040042856421
  80    -0.020261966391
  81     0.711605194030
  82    -3.170591820156
  83    -0.757100528434
  84    -0.032008542577
  85    -0.076296291291
  86    -0.059639383112
  87     0.279888066874
  88     0.866708301959
  89     0.700289805282
  90     0.278454417532
  91     0.234672420854
  92     0.263758548015
  93    -0.003803894529
  94     0.003753445857
  95     0.000050448672
  96     0.002752315807
  97     0.002909227737
  98     0.005463891298
  99     0.017353768544
  100   -0.012773143231
  101   -0.004580625313
  102   -0.304987957255
  103   -0.114023772649
  104    0.061562891484
  105    0.001487977250
  106    0.010035144220
  107   -0.008694087258
  108    0.001521563009
  109    0.016259109323
  110    0.130266494007
  111   -0.003517893976
  112   -0.029722668108
  113   -0.118602151941
  114    1.394220834354
  115    0.006300563927
  116   -0.005186920733
  117    0.108694245943
  118   -0.424776770571
  119   -0.119701690902
  120    0.017430597667
  121    0.006399906100
  122    0.022216019207
  123   -0.172013506406
  124   -0.143230277729
  125   -0.304237666210
  126   -0.057801903979
  127   -0.043589250811
  128    0.025535374870
  129    0.001686985666
  130   -0.003378534052
  131    0.001691548386
  132    0.000310310549
  133    0.011168549487
  134   -0.002359830557
  135    0.027470699104
  136    0.045412656567
  137   -0.072883355671
  138   -0.015019447993
  139   -0.177859029322
  140   -0.095054628402
  141    0.010687369414
  142    0.009913982626
  143    0.006675700708
  144    0.002861296585
  145    0.007590058661
  146   -0.012540832410
  147   -0.017199907292
  148   -0.020891062109
  149    0.003584440061
  150   -0.009296710156
  151    0.101582907203
  152    0.124164681254
  153   -0.033872615487
  154   -0.218326268197
  155   -0.087984817796
  156   -0.080679525721
  157    0.299345194729
  158    0.815668270669
  159   -0.092520136254
  160   -0.012896225720
  161    0.272709144275
  162   -0.091285242142
  163    0.292536772474
  164    0.780579652858
  165   -0.115043127031
  166   -0.232710888279
  167    0.120309340336
  168    0.196756620058
  169   -0.018729082524
  170   -0.095933534102
  171    0.071797639355
  172   -0.001286079284
  173    0.010488932848
  174    0.015268580052
  175    0.009009087996
  176    0.002070418360
  177    0.108909825650
  178   -0.003019741644
  179    0.001774161003
  180   -0.003322851559
  181   -0.025102973967
  182   -0.031888107415
  183    0.054571301891
  184   -0.005507270713
  185   -0.012956546744
  186    0.006812663250
  187   -0.000777840809
  188    0.018428106472
  189    0.044199326621
  190   -0.000598551337
  191    0.002962759767
  192   -0.011864780036
  193   -0.004358819284
  194   -0.091989120869
  195    0.064977249368
  196    0.017215014043
  197    0.001228680828
  198    0.002385050336
 Sym=     1a
 Ene= 3.32015983369846E+00
Spin= Alpha
 Occup= 0
  1     -0.003344312235
  2      0.005929315368
  3     -0.051169182163
  4      0.129051489737
  5      0.004178397156
  6      0.053071822075
  7      0.007255349614
  8     -0.002627915634
  9     -1.032011200342
  10    -0.049521963924
  11     0.067054743069
  12    -1.715059779171
  13    -0.085024611552
  14     0.075432045702
  15     0.001107766885
  16     0.000988650345
  17    -0.002096417230
  18    -0.040170773338
  19    -0.020366838750
  20     0.003767234563
  21    -0.008334220639
  22    -0.019334738792
  23     0.027668959431
  24     0.356575589072
  25     0.290399336015
  26     0.004450621139
  27    -0.114786313063
  28     0.015860833651
  29    -0.017318815970
  30     0.029490227669
  31    -0.009850025574
  32     0.019404012486
  33     0.124511771668
  34    -0.011429515760
  35     0.003831617393
  36     0.066649354332
  37     0.007515266828
  38    -0.012449029743
  39     0.166864045112
  40    -0.774363100268
  41    -0.492498161491
  42     0.001782511911
  43    -0.005488923069
  44     0.014819312781
  45    -0.269893906288
  46     0.302831510411
  47     0.256200124316
  48    -0.119983628012
  49    -0.093287219245
  50     0.261022571490
  51     0.015171446463
  52     0.011150522463
  53    -0.026321968926
  54     0.004343104515
  55     0.013719249891
  56    -0.016938013499
  57     0.069824000079
  58    -0.087972099991
  59     0.018148099912
  60     0.098221306264
  61     0.145946600343
  62     0.093637118340
  63     0.044358988043
  64    -0.003102979335
  65     0.014015260650
  66     0.000129781296
  67     0.002424160952
  68    -0.009897275521
  69    -0.059643608903
  70     0.001738922684
  71    -0.008906169800
  72    -0.029574121704
  73    -0.005899068063
  74    -0.104578358029
  75    -0.053255475420
  76    -0.025007298151
  77     0.000260008946
  78    -0.022365544146
  79    -0.008427439725
  80     0.015742827970
  81    -0.163657714910
  82     0.626200966201
  83     0.476994362195
  84    -0.001476342405
  85     0.013226980372
  86    -0.006250043359
  87    -0.139534354837
  88    -0.347277737546
  89    -0.231162536215
  90    -0.190572017190
  91     0.003884623248
  92    -0.195804940424
  93    -0.012874056055
  94    -0.007845282445
  95     0.020719338500
  96     0.002731792030
  97     0.011775678528
  98     0.018497936938
  99    -0.083154038391
  100    0.121878523726
  101   -0.038724485335
  102    0.049160279847
  103    0.161457293218
  104   -0.048350085204
  105    0.048501959912
  106    0.000249521652
  107    0.011030137125
  108   -0.009585674653
  109    0.012149390292
  110   -0.005929064877
  111   -0.055486532990
  112   -0.012484158717
  113   -0.008869416971
  114   -0.036081805747
  115   -0.000742070029
  116    0.001312497032
  117   -0.004549977738
  118   -0.029362181051
  119    0.002136924405
  120    0.039052022806
  121    0.024420562173
  122   -0.019886272140
  123    1.041931565047
  124    0.020945617967
  125   -0.050440820623
  126   -0.060635126803
  127   -0.148021658703
  128    0.108202079067
  129   -0.021276399752
  130    0.001255004181
  131    0.020021395571
  132    0.026432717644
  133   -1.371863876771
  134   -0.026306554198
  135   -0.063871878374
  136    0.072606041115
  137   -0.008734162741
  138    0.245354570732
  139    1.476906519266
  140   -0.029825011431
  141    0.021539349521
  142   -0.020415044216
  143   -0.006065028422
  144   -0.082684228108
  145    0.020914567079
  146    0.008780200879
  147    0.053786158276
  148    0.006475088899
  149   -0.000643111376
  150   -0.043621272957
  151    0.007792650265
  152    0.173386152177
  153   -0.008084950844
  154   -0.001456156478
  155   -0.037459530967
  156   -0.012506787157
  157   -0.074884463016
  158   -0.010152345345
  159    0.201695261519
  160    0.007495639569
  161   -0.025095692426
  162    0.003319326140
  163   -0.012042654821
  164    0.200553312863
  165    0.024224382571
  166   -0.033015146956
  167   -0.037721683432
  168   -0.002372305307
  169   -0.007985533017
  170   -0.157617257310
  171   -0.012335140303
  172   -0.008945696075
  173    0.034991665903
  174    0.008455717865
  175    0.002540265443
  176   -0.204990641952
  177    0.020827804894
  178   -0.045419804881
  179    0.027870284843
  180    0.007099920635
  181    0.073194315142
  182    0.060215697611
  183   -0.217926417457
  184    0.006604242696
  185    0.034752145120
  186   -0.014731795454
  187    0.008547209997
  188    0.202461681424
  189   -0.317765789711
  190    0.384340068909
  191   -0.004379703385
  192    0.334855077130
  193   -0.007054782493
  194   -0.096965138484
  195    0.390166520532
  196    0.363809798358
  197    0.091786551239
  198   -0.367724630692
 Sym=     1a
 Ene= 3.32448089141967E+00
Spin= Alpha
 Occup= 0
  1     -0.009029642073
  2      0.030512862323
  3     -0.235472364378
  4      0.546153676818
  5      0.181631351646
  6      0.159884382029
  7      0.010985947088
  8     -0.021066551384
  9     -0.908425389007
  10    -0.100134440579
  11     0.068722255234
  12    -1.530773267495
  13    -0.137595167162
  14     0.176934955969
  15    -0.010392815970
  16     0.032673574132
  17    -0.022280758162
  18     0.108846583490
  19     1.387776190523
  20     0.040927771066
  21     0.030926557828
  22    -0.141282402794
  23     0.110355844966
  24    -0.606486325742
  25    -4.571183681677
  26    -0.247418006560
  27     0.017556004970
  28    -0.008524449880
  29     0.010505327021
  30    -0.004693969488
  31     0.027089584696
  32    -0.016181040850
  33    -0.018859882828
  34    -0.015652835055
  35     0.002086665643
  36     0.048016634156
  37    -0.066124070958
  38     0.110784280369
  39    -0.457755186116
  40    -2.448538439131
  41    -0.443250847511
  42    -0.264128115525
  43    -0.012902818441
  44     0.222930213009
  45    -1.726288727235
  46     0.183679371943
  47    -0.207675804611
  48    -0.461648721620
  49     0.243959599413
  50     0.093126174589
  51     0.020230696887
  52     0.002925577351
  53    -0.023156274238
  54    -0.005818521036
  55    -0.023666304230
  56     0.000526249202
  57    -0.258815735848
  58    -0.389114810171
  59     0.647930546019
  60     0.026848773334
  61     0.162851422337
  62     0.074166006589
  63     0.051057750782
  64     0.039515792855
  65     0.055612712728
  66    -0.152215442466
  67    -0.014224357515
  68    -0.171703598969
  69     0.083714281550
  70    -0.038791641890
  71     0.097091315326
  72     0.043000515225
  73    -0.002222629538
  74     0.054734037447
  75     0.013424549953
  76    -0.014522017569
  77     0.006469364085
  78     0.010717120494
  79     0.056449292493
  80    -0.088701477998
  81     0.389051795309
  82     1.916714805148
  83     0.322252047929
  84    -0.235238268881
  85    -0.019221073795
  86    -0.163596403831
  87    -1.414103000451
  88    -0.715623548590
  89     0.826958833425
  90    -0.331023667220
  91    -0.437325344528
  92    -0.014942048078
  93    -0.018854722302
  94    -0.011148753063
  95     0.030003475365
  96    -0.015139154758
  97    -0.005993426336
  98     0.006927393699
  99     0.392393200248
  100    0.440715461301
  101   -0.833108661549
  102    0.102502811280
  103   -0.127457195431
  104   -0.255755864339
  105    0.032703733678
  106   -0.094220576363
  107   -0.057485459381
  108   -0.079472226492
  109    0.086748668000
  110    0.108988062604
  111    0.035595563519
  112    0.039661500176
  113   -0.031863225667
  114    0.096973074526
  115    0.005381897790
  116   -0.006893387730
  117    0.060255140131
  118   -0.060048810795
  119   -0.059900357786
  120    0.059655222120
  121    0.006764959572
  122    0.013388249153
  123   -2.143150631121
  124   -0.111943011806
  125    0.060823477594
  126   -0.101330081162
  127    0.023981149451
  128   -0.021178899907
  129   -0.001479903983
  130    0.000315620922
  131    0.001164283061
  132    0.026037658622
  133    0.019124161853
  134   -0.001396373231
  135    0.082317016780
  136   -0.085829373933
  137    0.003512357153
  138   -0.918838002344
  139   -0.686869326120
  140    0.042192934366
  141    0.044469693364
  142    0.011113861149
  143    0.005408971344
  144   -0.003388365497
  145   -0.007596871536
  146   -0.003250083063
  147   -0.056273988883
  148   -0.007313937877
  149   -0.004006813506
  150   -0.067638305547
  151   -0.004497486267
  152   -0.055716229102
  153    0.234718889985
  154    0.074289196656
  155   -0.016262740765
  156    0.053584652059
  157   -0.124000240524
  158   -0.409053654086
  159    0.002019787475
  160    0.059969363682
  161   -0.007844377226
  162    0.034230575340
  163    0.051275252157
  164    0.578349583950
  165    0.234452415757
  166   -0.142377862081
  167   -0.066882949830
  168   -0.010757824667
  169    0.026229554996
  170    0.200465068356
  171   -0.229902846708
  172    0.053395382900
  173    0.026762905666
  174   -0.075220688530
  175   -0.054761140800
  176   -0.557745030914
  177   -0.221506838168
  178   -0.127124083389
  179    0.010068735470
  180    0.000628844746
  181    0.097647780207
  182    0.307801704650
  183   -0.008995038244
  184    0.035349342582
  185   -0.000060082430
  186   -0.045094690990
  187   -0.067034142313
  188   -0.688893115339
  189    0.008791102364
  190   -0.063886168358
  191   -0.110083258449
  192   -0.185779052861
  193    0.069018894780
  194    0.702813740321
  195    0.001209493838
  196   -0.058445156231
  197    0.078264311767
  198    0.190831872038
 Sym=     1a
 Ene= 3.33826487738347E+00
Spin= Alpha
 Occup= 0
  1      0.002448345001
  2      0.002797425174
  3      0.030101425812
  4     -0.196588983892
  5     -0.075038308645
  6      0.009426902369
  7      0.002299878611
  8     -0.053012706774
  9      0.262184692339
  10    -0.139604396043
  11    -0.995890127700
  12     0.181630465636
  13    -0.267713601841
  14    -0.757441274238
  15    -0.038723795625
  16     0.002318652120
  17     0.036405143505
  18    -0.004863094162
  19     0.030680144765
  20     0.012511025729
  21     0.457161170644
  22     0.057659221606
  23    -0.514820392250
  24     0.095126739248
  25    -0.592256420312
  26    -0.201077224393
  27     0.218944613649
  28    -0.009958074544
  29     0.069355129880
  30    -0.007185834063
  31     0.119240917728
  32    -0.130556876070
  33    -0.286559189594
  34    -0.105880758764
  35     0.037507205070
  36    -0.092417455874
  37    -0.015614458545
  38     0.028920011064
  39    -0.243176586416
  40     0.433308456314
  41     0.255226692776
  42    -0.051930357972
  43    -0.009850841566
  44     0.004050499748
  45     0.318217382568
  46     0.086725230219
  47     0.052695529271
  48     0.145799848395
  49     0.102017736641
  50    -0.041468110682
  51    -0.010491353781
  52     0.001173408710
  53     0.009317945071
  54    -0.004977329303
  55    -0.003232937988
  56     0.004991264025
  57     0.113866574618
  58    -0.055511198610
  59    -0.058355376008
  60     0.046153000258
  61    -0.048008476195
  62    -0.001400134599
  63    -0.010179079414
  64     0.016555702834
  65    -0.009135120204
  66    -0.021447035543
  67     0.000016631515
  68    -0.010157661368
  69     0.035103703654
  70    -0.022228437685
  71     0.022413711224
  72     0.022998830935
  73     0.021120192569
  74    -0.025738924558
  75    -0.072171019106
  76    -0.009731039315
  77     0.007324731763
  78    -0.004655829201
  79    -0.013100951176
  80     0.000558247672
  81    -0.205214948747
  82     0.999459429168
  83     0.217727357926
  84     0.019228132369
  85     0.002280460225
  86    -0.035925641119
  87     0.072537444339
  88     0.003221951756
  89    -0.133793014231
  90    -0.167142568899
  91    -0.040358076238
  92     0.083508713952
  93    -0.006065720674
  94    -0.000416242859
  95     0.006481963533
  96    -0.002754727776
  97     0.007392670707
  98     0.005659542989
  99     0.653866984561
  100   -0.318210424236
  101   -0.335656560325
  102    0.352591607764
  103   -0.845903912444
  104   -0.454538151122
  105   -0.881702117378
  106   -0.021240094456
  107    0.019433916116
  108   -0.349334282850
  109   -0.024859645711
  110   -0.040685464161
  111    1.532261805068
  112    0.053356222742
  113    0.014612129658
  114   -0.003211383143
  115    0.018446864732
  116   -0.040435737426
  117    0.328686555775
  118   -0.667461756564
  119   -0.390786713961
  120    0.036138665034
  121    0.036089981450
  122    0.047986497855
  123   -0.331274478597
  124   -0.139988123170
  125   -0.233931799775
  126   -0.093471021096
  127   -0.172402360231
  128   -0.179979096979
  129   -0.001981861059
  130    0.002211700418
  131   -0.000229839359
  132    0.011566096676
  133    0.011125680039
  134    0.006265058788
  135    0.032756186232
  136    0.037849854265
  137   -0.070606040497
  138   -0.146345586686
  139    0.001539879963
  140   -0.064442819445
  141   -0.019735934989
  142    0.038170651118
  143   -0.015926060448
  144   -0.002525527837
  145   -0.018999959655
  146    0.003611460560
  147    0.029004063178
  148   -0.032211342732
  149    0.017755591705
  150    0.021040603831
  151    0.101126284450
  152    0.265527192980
  153   -0.057116267689
  154   -0.045045211724
  155   -0.043022261312
  156   -0.022369636755
  157    0.019206200166
  158   -0.003458064945
  159   -0.026684850019
  160    0.059859078551
  161   -0.039411193363
  162   -0.089507402124
  163   -0.432642925535
  164   -1.059693069080
  165    0.207086103460
  166    0.293070455732
  167    0.124590709229
  168   -0.101020492626
  169   -0.013704888020
  170   -0.021261611906
  171    0.001078613133
  172   -0.013994769314
  173   -0.000694288238
  174    0.006941966734
  175    0.007791591154
  176    0.061452346199
  177   -0.002736057250
  178    0.016657302360
  179   -0.004827416047
  180    0.000568619533
  181   -0.020538590876
  182    0.052561872740
  183    0.076426126189
  184    0.008070450535
  185   -0.003572329833
  186   -0.000219492403
  187   -0.018193192691
  188   -0.095531090822
  189   -0.048317979555
  190   -0.015650077228
  191   -0.010939284510
  192   -0.012285495501
  193    0.036479621481
  194    0.165400385019
  195   -0.040423591067
  196   -0.019888530442
  197    0.008431075498
  198    0.034031839886
 Sym=     1a
 Ene= 3.35228099072751E+00
Spin= Alpha
 Occup= 0
  1     -0.057679911138
  2      0.084428675649
  3     -0.851914424848
  4      2.361981207897
  5      0.240533350548
  6     -0.182839825472
  7     -0.078334796463
  8     -0.121833121344
  9      0.686590211511
  10     0.313434126490
  11     1.062179412289
  12    -0.853198913793
  13     0.179598185051
  14     0.827974078029
  15     0.012252720962
  16     0.011533528727
  17    -0.023786249689
  18     0.008115130882
  19    -0.009610064936
  20     0.000680839620
  21     0.604074226999
  22    -0.633105392006
  23     0.029031165007
  24     0.381889019261
  25     0.748705909856
  26     0.334406387386
  27     0.165235038482
  28    -0.118784199512
  29    -0.140948227958
  30    -0.093718346021
  31     0.194192212194
  32     0.253752708211
  33    -0.127967720965
  34    -0.034826485338
  35    -0.064650816798
  36     0.100927873571
  37     0.008920830319
  38    -0.015414875017
  39     0.232589031709
  40    -1.011382950225
  41    -0.363111239727
  42    -0.010604764721
  43    -0.013118171851
  44    -0.023843412173
  45    -0.399034749836
  46     0.114572158337
  47     0.363039300538
  48    -0.198379778263
  49    -0.052783509955
  50     0.199864541762
  51    -0.029046508648
  52     0.013528838226
  53     0.015517670422
  54    -0.005568247934
  55     0.012948438567
  56    -0.000826920529
  57    -0.049699818436
  58     0.106213611687
  59    -0.056513793251
  60     0.059250151664
  61     0.095488809772
  62     0.023679519745
  63    -0.036208611057
  64     0.000823906639
  65    -0.003275706547
  66     0.024545648260
  67     0.002765531781
  68     0.020717716083
  69     0.024033301157
  70    -0.003870918532
  71    -0.016322894575
  72     0.015551153187
  73    -0.035241720482
  74    -0.155529988256
  75     0.064737619662
  76     0.004544036008
  77    -0.031283011138
  78     0.012168820132
  79    -0.017408280529
  80     0.038610306019
  81     0.000888818189
  82    -1.634451734103
  83    -0.003349260174
  84     0.143053368969
  85     0.089980693026
  86     0.050798906220
  87     1.559189899156
  88     0.585778756977
  89    -0.003958343918
  90    -0.526231081170
  91    -0.642851060223
  92    -0.310579359974
  93    -0.027552610984
  94    -0.007548084281
  95     0.035100695265
  96     0.000367694668
  97    -1.369958171110
  98    -0.028717364385
  99    -0.366307907857
  100    0.058472955526
  101    0.307834952331
  102   -0.122185134722
  103    1.055658314179
  104   -0.033064082957
  105    0.017573295364
  106   -0.046692074008
  107    0.029257255534
  108   -0.063463091432
  109    0.037646927054
  110   -0.050900045756
  111    0.039886041618
  112    0.024997063841
  113    0.011647318430
  114   -0.003777105047
  115   -0.001079474974
  116    0.002187114411
  117    0.013793777792
  118   -0.038733445650
  119    0.275068000162
  120   -0.021645954989
  121    0.010865337545
  122    0.004931443614
  123    0.363303430964
  124   -0.153403536123
  125   -0.036334126709
  126    0.091108998877
  127    0.083012285025
  128   -0.002215845390
  129    0.021792065449
  130   -0.003928816412
  131   -0.017863249037
  132    0.007109337696
  133    0.012166506473
  134   -0.004097353430
  135   -0.166394894357
  136    0.211972379934
  137   -0.045577485577
  138    0.065250779979
  139    0.140632558053
  140   -0.090522068136
  141   -0.029313460844
  142    0.012006590635
  143   -0.023227439646
  144    0.013932204085
  145   -0.004915143825
  146    0.020721854899
  147    0.025395930577
  148   -0.011193387878
  149    0.010441025496
  150    0.029842308712
  151   -0.009307794456
  152    0.088336709074
  153    0.349394293037
  154   -0.118275198715
  155    0.044588030223
  156    0.045228387432
  157    0.005574259417
  158    0.035306427736
  159   -0.226343022841
  160   -0.107936206711
  161    0.101604568204
  162   -0.095181929723
  163   -0.014248080213
  164   -0.185963682360
  165    0.536093684765
  166    0.416991512388
  167    0.126964380784
  168   -0.360518761527
  169    0.016017442614
  170   -0.185803914726
  171   -0.105460562434
  172   -0.040205865941
  173    0.004335034799
  174    0.027063531686
  175    0.026021058005
  176   -0.019966448392
  177   -0.024016974514
  178    0.009884907974
  179    0.006417366993
  180   -0.017492107251
  181    0.052411516068
  182   -0.106311031199
  183   -0.185867057806
  184   -0.000694011913
  185    0.003157301300
  186   -0.008967104544
  187    0.034860133928
  188    0.150205978467
  189   -0.025079742562
  190    0.013425151351
  191   -0.009359577383
  192    0.036684790809
  193    0.011898361785
  194    0.046554746893
  195   -0.087810943572
  196    0.001768797506
  197   -0.030729214108
  198    0.010412555246
 Sym=     1a
 Ene= 3.37167084238027E+00
Spin= Alpha
 Occup= 0
  1      0.071049095242
  2     -0.116176329893
  3      1.474036099821
  4     -6.392537130512
  5     -0.770591501713
  6     -0.001208759018
  7      0.033016777128
  8     -0.029082960997
  9     -0.005913992790
  10    -0.219195432381
  11     0.419351308561
  12     0.010575594325
  13    -0.172906171668
  14     0.338527041569
  15     0.024007324767
  16    -0.064411864350
  17     0.040404539583
  18     0.006774755550
  19     0.004426174316
  20    -0.001387003966
  21    -0.510389965735
  22     1.186358371119
  23    -0.675968405384
  24    -0.202372223801
  25    -0.021160160281
  26    -0.333147787799
  27     0.027154894999
  28    -0.012599291801
  29     1.439362704385
  30    -0.018938249722
  31    -0.049765376929
  32    -1.069442111189
  33    -0.017493864962
  34     0.066669100690
  35    -0.861665599581
  36    -0.040478073289
  37    -0.000116144461
  38    -0.048548668958
  39    -0.070353917666
  40     1.871355873625
  41     0.240162311909
  42     0.099220261524
  43    -0.013509486018
  44    -0.064262237381
  45     1.035674939280
  46    -0.093429006465
  47    -0.766334074035
  48     0.075641430335
  49     0.038615488826
  50    -0.121973616157
  51     0.022873467770
  52    -0.022905455886
  53     0.000031988116
  54    -0.006641625654
  55    -0.034060475230
  56     0.003251835663
  57     0.123166993018
  58    -0.159060113645
  59     0.035893120627
  60    -0.009335890842
  61    -0.456306213406
  62     0.059111576889
  63    -0.099477738439
  64    -0.014831580154
  65     0.070479529059
  66     0.043146224344
  67     0.020035907439
  68    -0.140255565149
  69     0.090317166894
  70    -0.000137254577
  71     0.045697354351
  72     0.019450939638
  73    -0.017403573512
  74     0.210708954982
  75     0.023020948270
  76     0.002310982871
  77     0.011042777466
  78     0.041995815871
  79     0.000036366152
  80    -0.050821929959
  81    -0.075220440609
  82     1.982396988092
  83     0.265359994578
  84    -0.110332975148
  85    -0.038866502042
  86    -0.049112448415
  87    -1.189129829200
  88    -0.444510204026
  89    -0.476264530171
  90    -0.130853629182
  91     0.014484088826
  92    -0.074647344129
  93     0.030981232464
  94    -0.018321925982
  95    -0.012659306482
  96     0.021161514871
  97     0.024853663948
  98     0.008232587698
  99     0.322896847954
  100   -0.112526210390
  101   -0.210370637564
  102    0.187068064377
  103    0.283526128642
  104    0.114783998750
  105   -0.046587724394
  106   -0.024118292460
  107    0.075141912881
  108   -0.010969383939
  109    0.000414460260
  110   -0.116797598011
  111    0.073473375136
  112    0.031943624606
  113    0.015984142915
  114   -0.057719705530
  115    0.000672504730
  116   -0.059021874094
  117   -0.083519333543
  118    2.294662571137
  119    0.300874618915
  120    0.003713745798
  121    0.044064699213
  122    0.138755162766
  123    0.005708459628
  124    1.339906673663
  125    1.099493493291
  126    0.016573601605
  127    0.270656987492
  128    0.105337464210
  129   -0.029387319779
  130   -0.005675085927
  131    0.035062405706
  132    0.000077706933
  133    0.003947106531
  134    0.034571078711
  135   -0.171176597968
  136    0.174740034600
  137   -0.003563436632
  138    0.067510354618
  139   -0.014294494250
  140    0.837738375237
  141   -0.013168449305
  142   -0.065541667374
  143   -0.154295602062
  144    0.013167060195
  145   -0.105173728808
  146   -0.067384557360
  147    0.004500268487
  148    0.193107102972
  149    0.274393830264
  150    0.016991487658
  151   -0.012850342716
  152   -0.069740167840
  153   -0.032150097727
  154    0.015854863976
  155    0.017620936280
  156    0.023215562871
  157   -0.022473656426
  158   -0.114439806106
  159   -0.008402692243
  160    0.045447822453
  161   -0.008520190369
  162    0.034996740834
  163   -0.036651414449
  164    0.051932148748
  165   -0.040177025544
  166   -0.005059319756
  167    0.006332334739
  168   -0.033703787200
  169   -0.022647712490
  170   -0.055692373501
  171   -0.033571120738
  172   -0.013794367468
  173    0.013163172404
  174    0.018807849495
  175   -0.020890353670
  176    0.020241185758
  177   -0.043308690323
  178   -0.013059697101
  179    0.007636482507
  180   -0.030156372716
  181   -0.020063855183
  182   -0.081541220670
  183   -0.014138546483
  184   -0.024060207317
  185   -0.014310355247
  186    0.036504622258
  187   -0.024837288659
  188   -0.079327209459
  189    0.008969859644
  190   -0.028240854871
  191    0.010565389256
  192   -0.040180326626
  193   -0.009014386821
  194   -0.139519260715
  195    0.001699530785
  196    0.020293373981
  197    0.006378230326
  198   -0.061164471985
 Sym=     1a
 Ene= 3.37511765505799E+00
Spin= Alpha
 Occup= 0
  1     -0.004265259468
  2      0.071517312582
  3     -0.147918246749
  4     -1.468945218204
  5     -0.090272648069
  6     -0.001633552821
  7      0.125373315647
  8      0.148058010014
  9      0.136051512369
  10     0.994269103337
  11     0.973591879461
  12     0.178721893093
  13     0.292861966085
  14     0.546530922597
  15     0.012036260378
  16     0.030868112362
  17    -0.042904372740
  18     0.003890564490
  19     0.002794070327
  20    -0.006619225091
  21     0.296947775418
  22    -0.337087452528
  23     0.040139677110
  24    -0.045042582347
  25    -0.025183153871
  26    -0.755530797820
  27    -0.008275609286
  28    -0.057895493777
  29    -0.159482068560
  30     0.007063327595
  31    -0.117852549966
  32    -0.061652444452
  33     0.004039567356
  34     0.195527505772
  35     0.275620092347
  36     0.019808774281
  37    -0.000543879960
  38    -0.009075217334
  39     0.052973997476
  40    -0.188575528917
  41    -0.111424052663
  42     0.002255948057
  43     0.002566844412
  44    -0.012024679624
  45     0.028161455539
  46     0.036571037418
  47     0.046278206081
  48    -0.107904906217
  49     0.008570110071
  50     0.035248558178
  51     0.004155898703
  52    -0.008807662807
  53     0.004651764104
  54     0.000058856439
  55    -0.001009103466
  56    -0.003313952548
  57    -0.044714730652
  58     0.074624042487
  59    -0.029909311835
  60     0.032978875114
  61    -0.088277841150
  62     0.059981497306
  63     0.005459060219
  64     0.000050118967
  65     0.012662148105
  66    -0.019075679000
  67    -0.005001372441
  68    -0.006113318816
  69     0.011751581154
  70     0.004934130790
  71    -0.010874735526
  72     0.004409525337
  73     0.247723146283
  74     0.475352646468
  75    -0.114967748437
  76    -0.021401842387
  77     0.130305980533
  78     0.048321863351
  79     0.005603646424
  80    -0.021762354481
  81     0.163831886562
  82    -0.445278204340
  83    -0.250488147970
  84    -0.016205278286
  85    -0.008010635625
  86    -0.026168181027
  87     0.033018799726
  88     0.107575530756
  89     0.152545464054
  90     0.161895625385
  91     0.051036546705
  92     0.074877414993
  93     0.000612091450
  94    -0.006390533638
  95     0.005778442188
  96     0.005960367794
  97     0.004529791452
  98    -0.000030009790
  99    -0.004642281164
  100    0.059287298319
  101   -0.054645017155
  102   -0.081736418550
  103    0.032026286870
  104    0.056158349069
  105    0.012998022089
  106    0.005969501664
  107    0.014358100792
  108    0.000000182712
  109   -0.015272169064
  110   -0.005977133288
  111   -0.017438859290
  112    0.007263242156
  113   -0.013286280351
  114    0.006672920463
  115   -0.027752801048
  116    0.016045599366
  117   -0.566589978963
  118    2.696676451316
  119    0.651394843318
  120    0.014120529289
  121   -0.019658732789
  122   -0.086497096014
  123   -0.233283721403
  124    0.711165824034
  125    0.852965241282
  126   -0.030198048245
  127    0.104263519409
  128    0.441723532870
  129    0.004377118398
  130    0.002609938795
  131   -0.006987057193
  132    0.000343522890
  133    0.001191358615
  134    0.002784230435
  135    0.255978021840
  136   -1.150356852970
  137    0.894378831130
  138    0.145292029247
  139    0.007923947435
  140    0.109029618803
  141   -0.024501665548
  142   -0.026194220803
  143    1.425561244555
  144    0.013428422727
  145    0.023507812385
  146   -1.031054762093
  147    0.019444011109
  148    0.011635422615
  149   -0.881536347256
  150   -0.031903948646
  151   -0.019707490408
  152   -0.025327106654
  153   -0.063741566970
  154   -0.003888777274
  155   -0.004975629769
  156    0.011524817752
  157    0.013254156224
  158    0.027427456454
  159   -0.024091659207
  160   -0.008675200124
  161    0.008227146381
  162   -0.000841618993
  163    0.030908155855
  164    0.151146931990
  165   -0.079022849833
  166   -0.030507639476
  167   -0.001572534776
  168    0.011940581413
  169   -0.015657349190
  170   -0.024697884643
  171   -0.045699707317
  172    0.009758187608
  173   -0.005202588666
  174    0.009840522824
  175    0.025615563243
  176    0.145318879171
  177   -0.077263097590
  178    0.027148360729
  179    0.008297959333
  180    0.009213353253
  181    0.003007293160
  182    0.030775202341
  183   -0.003078294407
  184    0.004713932154
  185    0.007070703360
  186    0.002790683595
  187   -0.322822056025
  188   -0.806479662734
  189    0.175692283515
  190   -0.220085616687
  191    0.050546627005
  192   -0.126446355061
  193   -0.277682375668
  194   -0.637684180683
  195    0.158080514974
  196    0.102620196887
  197    0.075414251677
  198   -0.196538344082
 Sym=     1a
 Ene= 3.39070543475287E+00
Spin= Alpha
 Occup= 0
  1     -0.051153768189
  2      0.068944678610
  3     -0.751726934191
  4      2.145164901957
  5      0.309777443192
  6      0.230018365510
  7     -0.003797461350
  8     -0.124204969363
  9     -1.467853626452
  10    -0.108241728138
  11     0.427680707328
  12    -0.340002416008
  13    -0.303257504913
  14    -0.451080911995
  15    -0.001658072103
  16    -0.036155861647
  17     0.037813933750
  18    -0.008835834187
  19     0.008673467206
  20     0.011546314287
  21     0.777789327875
  22    -0.399047139702
  23    -0.378742188173
  24     0.024725830943
  25    -0.881073930830
  26     0.070174099436
  27    -0.007732523496
  28    -0.020092779756
  29    -0.137962697828
  30     0.158627957152
  31     0.046322161961
  32     0.304010874899
  33    -0.148253688247
  34    -0.019364869126
  35    -0.118914492477
  36    -0.044464220040
  37    -0.019678610225
  38     0.058213846994
  39    -0.022961866455
  40    -2.008444475199
  41     0.118996190684
  42    -0.079795346811
  43    -0.053082718345
  44     0.159352483808
  45    -0.988681658728
  46     0.220123490396
  47     1.271918595151
  48     0.167229146235
  49     0.162534840962
  50    -0.740023478627
  51    -1.218020002272
  52     1.181406306863
  53     0.036613695409
  54     0.017339887874
  55     0.018130970681
  56    -0.005529742192
  57     0.938453696882
  58    -0.832731414585
  59    -0.105722282297
  60     0.123554708927
  61     0.377862429528
  62    -0.038681787494
  63     0.017982476253
  64    -0.032694044428
  65    -0.082627527482
  66    -0.028315075045
  67     0.016474405020
  68     0.072754708986
  69     0.004189051461
  70     0.027389258460
  71     0.038101751971
  72    -0.012984228116
  73     0.022946922089
  74    -0.084229049422
  75    -0.134207482586
  76     0.011302044700
  77     0.003801104390
  78     0.009001532631
  79     0.007248671999
  80    -0.017413192562
  81     0.122754180512
  82    -0.085575086809
  83     0.021940169618
  84    -0.035084300255
  85     0.007631890853
  86    -0.015141371973
  87    -0.121463623787
  88    -0.152178372223
  89     0.312691304330
  90     0.035736322525
  91     0.020669950863
  92    -0.022394051391
  93     0.014233170080
  94    -0.009562288515
  95    -0.004670881565
  96    -0.007024289594
  97    -0.027106821541
  98    -0.001420717944
  99     0.004406422939
  100    0.165150396310
  101   -0.169556819249
  102   -0.019924065209
  103    0.049057449697
  104   -0.157442807266
  105   -0.022628229275
  106    0.007259289681
  107   -0.024502787195
  108    0.005665312234
  109   -0.002030308777
  110    0.034235377864
  111    0.024693643087
  112   -0.007709050339
  113   -0.001361439180
  114    0.027467617210
  115    0.014165926116
  116   -0.029864126531
  117    0.249529265718
  118   -0.554072418411
  119   -0.354378276244
  120   -0.002813602077
  121    0.012432161051
  122    0.029540484320
  123   -0.080511234517
  124   -0.060981610870
  125   -0.272590265315
  126    0.176519596919
  127   -0.173158091214
  128   -0.181349762770
  129    0.013359496559
  130   -0.000655009533
  131   -0.012704487026
  132   -0.000768224339
  133    0.003602373500
  134   -0.011159665828
  135   -0.016866071760
  136    0.107600049184
  137   -0.090733977424
  138   -0.017825602248
  139    0.020329971608
  140   -0.021304032246
  141   -0.016035512988
  142    0.008572612796
  143   -0.028334484716
  144   -0.000392616421
  145   -0.000646553277
  146    0.024198780929
  147    0.021906514678
  148   -0.010854813696
  149    0.013815919431
  150    0.015609192335
  151    0.008366286310
  152    0.146669506621
  153   -0.013082152153
  154   -0.011872590516
  155   -0.042876624899
  156    0.000746199175
  157   -0.050583408717
  158   -0.106207129788
  159    0.071346839603
  160    0.002515404943
  161   -0.024703730820
  162    0.007616351934
  163    0.033273918175
  164    0.224016799753
  165   -0.047327935338
  166   -0.032751403518
  167   -0.034240032957
  168    0.023330799730
  169   -0.006523888485
  170   -0.059035402705
  171    0.394472983978
  172   -0.017888253862
  173    0.243546356578
  174    0.177006333109
  175    0.008754556873
  176   -0.063277611576
  177   -0.331606538535
  178    0.363460117420
  179   -0.012579812228
  180    0.147447933015
  181    0.030900308744
  182    0.110090480771
  183    0.329980982277
  184   -0.010138740580
  185   -0.347801129518
  186    0.143288856119
  187    0.022170690955
  188   -0.073380975329
  189    0.010425997778
  190   -0.003522612098
  191   -0.014793985039
  192   -0.023343239769
  193    0.024842540897
  194    0.020574563352
  195   -0.057873807984
  196    0.001588378762
  197   -0.004205284536
  198    0.005989123807
 Sym=     1a
 Ene= 3.41433584997672E+00
Spin= Alpha
 Occup= 0
  1      0.000483799550
  2     -0.039050431701
  3      0.137836742965
  4      0.068758142842
  5      0.041112261161
  6      0.005954367265
  7     -0.011483680559
  8     -0.057078504564
  9     -0.085410327955
  10    -0.161018445617
  11    -1.057772962349
  12    -0.081206781968
  13    -0.237284483567
  14    -0.829892104358
  15     0.027458124997
  16    -0.015569032874
  17    -0.011889092123
  18     0.005436778854
  19    -0.000249555542
  20     0.028180643241
  21    -0.583019750134
  22    -0.059817483910
  23     0.642837234044
  24    -0.066799522023
  25     0.013053613537
  26    -0.046760432808
  27     0.001076734508
  28    -0.059543954968
  29    -0.203958721938
  30     0.006964107272
  31     0.041791012274
  32     0.131289363032
  33    -0.008408698204
  34     0.038095586300
  35     0.142349977082
  36    -0.003505924515
  37    -0.001707592968
  38     0.011579743075
  39    -0.127906092271
  40     0.593602760457
  41     0.214359935292
  42    -0.023679264331
  43    -0.000697052106
  44     0.007607839245
  45     0.239850144480
  46    -0.016985121401
  47    -0.232988588767
  48     0.191582466663
  49    -0.018487819878
  50    -0.016258609884
  51    -0.001936109745
  52     0.000875332080
  53     0.001060777665
  54    -0.003215071808
  55     0.005721708576
  56    -0.003456005897
  57    -0.005544121220
  58    -0.034592941289
  59     0.040137062509
  60    -0.001645656528
  61    -0.101850555171
  62     0.063682570898
  63     0.001666410314
  64     0.014155941783
  65    -0.014677231005
  66    -0.002099126847
  67    -0.007225059919
  68     0.014571138210
  69    -0.000136597197
  70    -0.011767128949
  71     0.005120433539
  72     0.010035204505
  73     0.149325398180
  74     0.328551404350
  75    -0.022260884099
  76    -0.039359302467
  77     0.195382796901
  78     0.151208021894
  79    -0.001249692604
  80     0.013184459894
  81    -0.151893403781
  82     0.750582128933
  83     0.261123293504
  84     0.027509484978
  85     0.011126949503
  86     0.005743861902
  87    -0.349062239891
  88    -0.118618798970
  89    -0.195920571110
  90    -0.200380334424
  91    -0.089195598980
  92     0.004021823777
  93    -0.004024427115
  94     0.000195623531
  95     0.003828803584
  96    -0.001062558393
  97    -0.003233979040
  98    -0.007688708808
  99     0.014848123252
  100   -0.008414504766
  101   -0.006433618486
  102    0.043189965547
  103    0.105786137731
  104    0.124881352831
  105    0.015696842225
  106    0.009007937897
  107   -0.007132599156
  108   -0.012117715329
  109   -0.001821275947
  110    0.010790063588
  111   -0.008941808420
  112   -0.010264140938
  113   -0.001220677647
  114   -0.009306053073
  115    0.039555448701
  116    0.005144293933
  117    0.637690040590
  118   -3.312050210106
  119   -0.647876500569
  120   -0.009785906260
  121    0.044501185348
  122   -0.007162428969
  123    0.211473576044
  124   -0.578762728540
  125    0.113321883887
  126    0.013408364114
  127   -0.216366872632
  128   -0.336441249303
  129   -0.010528941708
  130    0.009945170619
  131    0.000583771089
  132   -0.001606590387
  133    0.000908828365
  134    0.006283196245
  135   -0.293364656974
  136    0.223073123826
  137    0.070291533148
  138   -0.049007781668
  139   -0.116224981337
  140   -0.154743905876
  141    0.069805460325
  142    0.126079513025
  143   -0.086324497055
  144   -0.064558354767
  145   -0.063433347087
  146    1.320781458646
  147   -0.029095497925
  148   -0.105720069929
  149   -1.204964992523
  150    0.047468700911
  151   -0.008549464578
  152   -0.075867000540
  153    0.075602797221
  154   -0.003700045342
  155    0.003363468929
  156    0.011011658843
  157    0.001559474088
  158   -0.007549244764
  159    0.008138221614
  160    0.001073783074
  161    0.007061756281
  162    0.016642852344
  163    0.004612380736
  164    0.016842281516
  165    0.069442240248
  166    0.008833507917
  167    0.013823433170
  168    0.013942512753
  169   -0.004801876177
  170   -0.039783795467
  171    0.057453867242
  172    0.003838943761
  173    0.000858803069
  174    0.004594297088
  175    0.000730394224
  176   -0.006796444431
  177    0.069191112187
  178   -0.013608479666
  179    0.008487923392
  180    0.015150401055
  181    0.002155046981
  182   -0.003059054092
  183    0.014530155059
  184    0.003083175940
  185    0.003850647688
  186    0.011021023492
  187    0.473113170097
  188    1.168738523213
  189   -0.199870751228
  190    0.381170542465
  191   -0.076283285072
  192    0.126461211471
  193    0.366063710547
  194    0.879357158197
  195   -0.148202825555
  196   -0.181946563865
  197   -0.225666983450
  198    0.212802600956
 Sym=     1a
 Ene= 3.41442318109547E+00
Spin= Alpha
 Occup= 0
  1     -0.081918256676
  2      0.132293515993
  3     -1.709102342410
  4      7.596469187136
  5      0.859579579101
  6      0.021239329420
  7      0.047571448691
  8     -0.098368803326
  9     -0.399015701491
  10    -0.430133398711
  11     1.406900530737
  12    -0.303840506173
  13    -0.133718512225
  14     0.889515751133
  15    -0.030560369212
  16     0.030912205392
  17    -0.000351836180
  18     0.004586410029
  19     0.002862342584
  20    -0.039470292496
  21     0.856406987986
  22    -0.904563088636
  23     0.048156100650
  24     0.081842635331
  25    -0.210704334147
  26     0.754931054724
  27     0.007183031054
  28     0.005879646408
  29    -0.119959824908
  30     0.010724049432
  31     0.085115106724
  32     1.346346270395
  33    -0.020361096865
  34    -0.093003480155
  35    -1.185403276557
  36     0.020288453575
  37    -0.001260644567
  38     0.078205482809
  39     0.141604036913
  40    -3.305812138111
  41    -0.488052939107
  42    -0.162964974148
  43     0.006656323155
  44     0.121917089490
  45    -1.987735842096
  46     0.157683916243
  47     1.120913510793
  48    -0.345329813313
  49     0.004446341430
  50     0.094191070687
  51    -0.038168518218
  52     0.033651788247
  53     0.004516729971
  54     0.007337407783
  55     0.057623341868
  56    -0.001133141402
  57    -0.560834665788
  58     0.446918428516
  59     0.113916237272
  60     0.116519778508
  61     0.569915572988
  62    -0.158760977885
  63    -0.067600048157
  64    -0.033889116886
  65    -0.081238812918
  66     0.093717654330
  67     0.046177166385
  68     0.146056858745
  69    -0.003022672554
  70    -0.000710144953
  71    -0.037063553887
  72    -0.042467071317
  73    -0.002247885635
  74     0.285915032895
  75     0.063484613396
  76    -0.000790979649
  77     0.054982740142
  78     0.083165571746
  79     0.000097288897
  80     0.058641613809
  81     0.108184899518
  82    -2.435790439035
  83    -0.328698283031
  84     0.120444712384
  85     0.021882874750
  86     0.086035671734
  87     1.573643545845
  88     0.838972244325
  89     0.403460051496
  90     0.247968354581
  91     0.127322882113
  92    -0.120393245056
  93    -0.033904228339
  94     0.022158961600
  95     0.011745266739
  96    -0.023370612123
  97    -0.035375809003
  98    -0.011654781408
  99    -0.426826178835
  100    0.072148863931
  101    0.354677314904
  102   -0.533034860088
  103   -0.207281702749
  104   -0.154307577504
  105    0.039412234655
  106   -0.071302080001
  107   -0.050502363740
  108    0.049916444554
  109    0.173860679814
  110    0.039911046742
  111   -0.102793506053
  112   -0.078198901122
  113    0.027844984267
  114    0.054447347894
  115    0.001735901054
  116    0.033652755578
  117    0.061818805544
  118   -1.293979529887
  119   -0.107886863113
  120   -0.003201169890
  121   -0.066404778030
  122   -0.047346379547
  123   -0.034234038535
  124    0.112996852369
  125   -1.248903718420
  126    0.039797179642
  127    0.202260383622
  128   -0.119478704509
  129    0.013823740988
  130    0.010687264695
  131   -0.024511005683
  132   -0.001812483694
  133   -0.001289981297
  134   -0.025533545788
  135    0.342704061455
  136    0.255416493213
  137   -0.598120554668
  138    0.023539561923
  139   -0.034464426988
  140    0.086825025764
  141    0.006660309284
  142   -0.047326053429
  143   -0.188391818897
  144   -0.000760900172
  145    0.011228713047
  146    0.121026616398
  147   -0.008174842414
  148    0.052265850497
  149    0.131727531677
  150    0.001126019908
  151    0.019836821801
  152   -0.036079817707
  153    0.061913277795
  154    0.016878912858
  155   -0.015664391096
  156   -0.003210518510
  157    0.007242422203
  158    0.123732880822
  159   -0.011535109858
  160   -0.063907923139
  161   -0.004563459738
  162   -0.039571788954
  163    0.017543003603
  164   -0.088480421157
  165   -0.003085906251
  166    0.008605061744
  167    0.003587788046
  168    0.007688587208
  169    0.025010768435
  170    0.034757360780
  171   -0.009688054117
  172    0.010938747767
  173   -0.029530125840
  174   -0.017485484354
  175    0.023817583730
  176   -0.009118984716
  177   -0.046077815590
  178    0.022142049001
  179   -0.009525505328
  180    0.010271308038
  181    0.012132969800
  182   -0.087227276710
  183   -0.072438804862
  184    0.018594637304
  185    0.008804985176
  186   -0.022031708268
  187    0.009022467225
  188   -0.131967443144
  189    0.107869125260
  190    0.001437824523
  191   -0.018146657162
  192   -0.034114409637
  193    0.004134011931
  194   -0.126378397652
  195    0.080839729646
  196    0.003316671387
  197   -0.006894682968
  198   -0.030249577939
 Sym=     1a
 Ene= 3.42478864637455E+00
Spin= Alpha
 Occup= 0
  1      0.071366339885
  2     -0.103126495535
  3      1.053340608293
  4     -2.930241374071
  5     -0.322414948001
  6     -0.241272093135
  7      0.029214366739
  8      0.170527837983
  9      1.028370121652
  10    -0.132624322211
  11    -1.132856150513
  12    -0.553677580383
  13    -0.231033905528
  14    -0.254720341315
  15    -0.014230942437
  16    -0.009858297594
  17     0.024089240031
  18    -0.004240206584
  19     0.001438014625
  20    -0.011985631599
  21    -0.694384767814
  22     0.902414399009
  23    -0.208029631195
  24     0.097551848629
  25     1.059668748007
  26    -0.138964723807
  27     0.135115986615
  28     0.039093692471
  29     0.198732709095
  30    -0.217059296517
  31    -0.061744598758
  32    -0.409606860919
  33     0.035782177965
  34     0.009294906445
  35     0.142978952786
  36     0.021972222005
  37     0.022806753853
  38    -0.055271535143
  39     0.010662412076
  40     2.163256757744
  41    -0.040101023596
  42     0.201081413034
  43    -0.021653215220
  44    -0.070081086950
  45     1.860066866702
  46    -0.144937851291
  47    -0.584465220839
  48    -0.941558755562
  49     0.274074524665
  50     0.144842733291
  51     0.011409247673
  52    -0.021760144960
  53     0.010350897287
  54    -0.007132218043
  55    -1.390473209484
  56     0.010118393559
  57     0.369241739869
  58    -0.187720101639
  59    -0.181521638230
  60    -0.015123640741
  61     0.868290678867
  62    -0.006066636987
  63     0.046468871870
  64     0.011950507762
  65    -0.025513546132
  66    -0.084910707505
  67    -0.008751282935
  68     0.036455878235
  69     0.022566173702
  70    -0.007282005697
  71    -0.002225864136
  72     0.010146322307
  73     0.027693094895
  74     0.145200923601
  75    -0.014694009911
  76    -0.003860936580
  77     0.020772544427
  78    -0.012441867416
  79    -0.009805804876
  80     0.018107439724
  81    -0.230868152618
  82     0.846716469908
  83     0.267363456650
  84     0.000493339342
  85     0.009318844947
  86     0.027193401931
  87    -0.317009521000
  88    -0.211515186910
  89    -0.345642276054
  90    -0.232594565831
  91     0.036525057101
  92    -0.104648637422
  93     0.025535817957
  94    -0.009824122654
  95    -0.015711695303
  96     0.009746893974
  97     0.013580509153
  98     0.000882355893
  99     0.029196734858
  100   -0.096278986396
  101    0.067082251538
  102    0.120467740984
  103    0.060275638782
  104    0.055570222267
  105   -0.023005745850
  106    0.013856367422
  107    0.000430941618
  108    0.010459081088
  109   -0.027880843742
  110   -0.014002288181
  111    0.020406365869
  112    0.009290576055
  113    0.013424119330
  114   -0.002834751892
  115   -0.003881014738
  116    0.007609573716
  117   -0.118896160604
  118    0.412708325912
  119   -0.066099237202
  120   -0.020168325110
  121   -0.022768023123
  122   -0.007471204687
  123    0.337691724784
  124    0.323022030065
  125    0.094810612269
  126    0.068954068647
  127    0.025502994388
  128    0.053446197473
  129   -0.021178421238
  130    0.003221189958
  131    0.017957231280
  132   -0.001172854247
  133    0.014861150790
  134    0.010656423017
  135    0.125463028705
  136   -0.143030790291
  137    0.017567761586
  138    0.178146302282
  139    0.082755215894
  140    0.137057960239
  141   -0.027735270561
  142   -0.010333609167
  143    0.011845720401
  144    0.007746449238
  145   -0.008361738128
  146   -0.023202027373
  147    0.029464320971
  148    0.022225729659
  149    0.007309325738
  150    0.015574616403
  151   -0.019651461487
  152    0.139335008642
  153    0.065873203300
  154   -0.038348038930
  155   -0.006370441969
  156   -0.023878073361
  157   -0.032931168651
  158    0.121178862343
  159    0.155319110086
  160    0.004495827190
  161    0.007160417926
  162    0.009772432571
  163   -0.033646362601
  164   -0.023931027385
  165    0.048625582925
  166    0.014219267395
  167    0.006898718559
  168    0.009362472651
  169    0.004200455923
  170    0.016041592099
  171   -0.175675490114
  172   -0.100643989058
  173   -0.024019505600
  174   -0.004139013957
  175    0.015187950924
  176    0.045382696837
  177   -0.692440075850
  178    0.434350264701
  179   -0.028892739788
  180    0.322860206345
  181   -0.011732730344
  182   -0.002300827928
  183    0.128537886572
  184   -0.061380375043
  185   -0.017362497685
  186    0.019580817322
  187   -0.009484479116
  188   -0.034125692232
  189    0.081280215853
  190   -0.007187100460
  191    0.033887577063
  192   -0.008263375172
  193   -0.040749587900
  194   -0.185714981048
  195    0.044184548650
  196    0.013307274489
  197    0.010176535092
  198   -0.045025207341
 Sym=     1a
 Ene= 3.43464126380025E+00
Spin= Alpha
 Occup= 0
  1     -0.001289214080
  2     -0.060597252438
  3      0.078453155019
  4      1.286153357677
  5      0.204159269009
  6      0.133642325167
  7      0.048050092298
  8      0.044523067542
  9      1.415076664363
  10     0.700738437665
  11     0.579490575165
  12     0.950309536250
  13     0.436937779905
  14     0.434221290454
  15     0.018654431643
  16    -0.028521050672
  17     0.009866619029
  18     0.001557738113
  19     0.020776792487
  20     0.023457214029
  21     0.444384150323
  22    -0.019126712620
  23    -0.425257437703
  24     0.503237587957
  25     0.295795472126
  26    -0.025417619235
  27     0.039112326359
  28    -0.090589139411
  29    -0.079271477538
  30     0.044347829075
  31     0.197969191081
  32     0.059415346405
  33    -0.096822521373
  34    -0.076431106834
  35     0.046938501066
  36     0.047397250600
  37    -0.003410880067
  38     0.017697631160
  39    -0.141882869778
  40     0.473614215049
  41     0.230699211014
  42    -0.014390855051
  43     0.007215198295
  44     0.019388220791
  45     0.169043068799
  46     0.005198359349
  47    -0.101398885174
  48     0.133745276414
  49    -0.095084908096
  50    -0.178912500191
  51    -0.003426411606
  52     0.006109692634
  53    -0.002683281028
  54     0.001559689132
  55     0.003849291828
  56     0.002341173889
  57     0.042269104702
  58    -0.051470025298
  59     0.009200920596
  60    -0.007353792611
  61    -0.020010520594
  62    -0.020043942789
  63    -0.004883598444
  64     0.004531460931
  65    -0.011683995357
  66     0.000177957435
  67     0.004594889427
  68     0.012808961219
  69     0.006374077422
  70    -0.010674482235
  71     0.002866763501
  72     0.021167129914
  73    -0.002699954258
  74    -0.018019463294
  75     0.023682715495
  76    -0.015673958171
  77    -0.005591407056
  78    -0.005540471371
  79     0.052155704327
  80    -0.011067045925
  81     0.919569800479
  82    -4.474354419154
  83    -0.963813977013
  84    -0.064755646668
  85     0.001914159597
  86    -0.046442707795
  87     0.802283569765
  88    -0.015892680313
  89     0.460075571076
  90     0.506200569334
  91     0.124927347204
  92     0.267783629969
  93     0.003582905983
  94    -0.001858139057
  95    -0.001724766926
  96    -0.002189791311
  97     0.013328903854
  98    -0.003704509305
  99    -0.139344393651
  100    0.218531327581
  101   -0.079186933930
  102   -0.023533840817
  103   -0.295076180690
  104   -0.217638525758
  105    0.066558009968
  106    0.077329564117
  107   -0.008706888145
  108   -0.054323671722
  109    0.021500572105
  110    1.300374500467
  111   -0.034973269119
  112   -0.125249069327
  113   -1.288692984208
  114    0.143684379731
  115   -0.000601690567
  116    0.016883523205
  117   -0.150475775290
  118    0.668033266762
  119    0.264690132390
  120    0.007127987181
  121   -0.004927555127
  122   -0.028392817272
  123   -0.052837780463
  124    0.122593910049
  125    0.296581517209
  126   -0.082966848793
  127    0.023355407113
  128    0.252719534495
  129    0.000793853245
  130    0.005444117369
  131   -0.006237970614
  132    0.005312541925
  133   -0.001459815593
  134   -0.004582727102
  135   -0.014798303366
  136   -0.059673352218
  137    0.074471655584
  138   -0.049277412358
  139    0.059924065249
  140    0.050364581550
  141    0.001719106074
  142    0.000943390548
  143    0.004221696244
  144   -0.003318784987
  145    0.010333429101
  146    0.003175872796
  147    0.001012362161
  148   -0.011599120338
  149   -0.008839872665
  150    0.002650744234
  151    0.424500967899
  152    1.017275376701
  153   -0.179756263208
  154    0.096360923698
  155   -0.188719604675
  156   -0.325131643576
  157    0.281088583943
  158    0.676812080007
  159   -0.080439653756
  160   -0.204010293048
  161    0.208000589047
  162   -0.085780887825
  163    0.339597598091
  164    0.827789398011
  165   -0.134490467987
  166   -0.162367153525
  167   -0.221853804026
  168    0.231192848509
  169   -0.000563654061
  170   -0.013908314405
  171    0.098541000391
  172   -0.015495237482
  173    0.000202257353
  174    0.003119626033
  175   -0.000862911471
  176   -0.036108016481
  177    0.078540618196
  178   -0.005550527958
  179   -0.006003088204
  180   -0.002999285572
  181   -0.008309295356
  182   -0.021461938925
  183    0.039390041415
  184   -0.005589039364
  185   -0.010965447497
  186   -0.006376390779
  187   -0.010158261273
  188   -0.087331382923
  189    0.104112422115
  190   -0.016244035481
  191   -0.004838975414
  192   -0.006562095457
  193    0.005026399346
  194    0.008323407793
  195    0.105297517240
  196   -0.009537894404
  197   -0.001382645234
  198   -0.012019089016
 Sym=     1a
 Ene= 3.51127719609869E+00
Spin= Alpha
 Occup= 0
  1      0.016874142951
  2     -0.027501055507
  3      0.350706802732
  4     -1.532900242895
  5     -0.180724660342
  6     -0.028953272297
  7      0.007964619648
  8      0.027664834190
  9      0.371355030452
  10    -0.105492731879
  11    -0.408898112805
  12     0.215202847621
  13    -0.089265012531
  14    -0.254459697559
  15    -0.001504417591
  16    -0.006752708874
  17     0.008257126465
  18     0.032852848377
  19    -0.015339273049
  20    -0.003878425209
  21    -0.110538900469
  22     0.201286277949
  23    -0.090747377480
  24    -0.414823056270
  25     0.291371326216
  26     0.016759181851
  27    -1.041385358687
  28     0.008692659069
  29    -0.015969640763
  30    -0.314121094467
  31    -0.053151051412
  32    -0.005384099741
  33     1.711286166144
  34     0.041488625462
  35     0.026809621135
  36     0.115491331319
  37     0.000719385615
  38    -0.023334378059
  39    -0.043495786328
  40     1.025738934052
  41     0.181417624816
  42     0.060700182625
  43    -0.003377221100
  44    -0.030130175735
  45     0.844311997045
  46    -0.175375760814
  47     0.143218433214
  48     0.189141080376
  49     0.053796859400
  50     0.085002342368
  51     0.027036256730
  52    -0.010616457415
  53    -0.016419799315
  54     0.000807766081
  55    -0.008603772266
  56    -0.000122705565
  57     0.594843566630
  58    -0.082689662585
  59    -0.512153904045
  60    -0.109468545736
  61     0.090989810070
  62     0.007058099485
  63     0.290154313513
  64     0.001947382745
  65     0.083781971800
  66    -0.058779977355
  67    -0.029420759556
  68    -0.073857170393
  69    -0.330502884034
  70     0.026808071438
  71    -0.038548140147
  72    -0.002865757179
  73     0.001174296574
  74    -0.019542344363
  75    -0.023969239129
  76    -0.003853226488
  77    -0.001781880752
  78    -0.001741499856
  79    -0.000163578130
  80    -0.009507690186
  81    -0.012504955565
  82     0.342532648176
  83     0.027184979923
  84    -0.006065305010
  85    -0.012013043544
  86    -0.026199378320
  87    -0.092077527263
  88     0.109066535276
  89    -0.514178637783
  90     0.005746625560
  91     0.014006006642
  92    -0.078104669279
  93    -0.009583406436
  94    -0.002104338082
  95     0.011687744518
  96     0.004408186074
  97     0.017611800238
  98     0.004838755573
  99    -0.225827919940
  100   -0.096513682740
  101    0.322341602680
  102   -0.128467409163
  103    0.398933615000
  104    0.172625003350
  105    0.207190853784
  106   -0.015561046509
  107    0.062279920135
  108   -0.000851075096
  109    0.112123764641
  110   -0.115803428929
  111   -0.277124624930
  112   -0.091246429964
  113    0.032246147896
  114   -0.086674128445
  115   -0.000569586314
  116   -0.003657996588
  117   -0.003162512563
  118    0.088977695412
  119   -0.016084747317
  120    0.004025932170
  121    0.005671229300
  122    0.000999246922
  123   -0.531632417401
  124    0.048339771682
  125    0.104458425856
  126   -0.241966409105
  127   -0.043457647527
  128    0.001089927149
  129   -0.002429220306
  130   -0.001262056210
  131    0.003691276516
  132   -0.005642178997
  133   -0.016276066103
  134    0.002150951592
  135   -0.021835312081
  136   -0.006602271400
  137    0.028437583481
  138   -0.324567103765
  139   -0.437486586000
  140    0.051980561168
  141    0.180642378120
  142   -0.003899252535
  143    0.003567680202
  144   -0.049550789427
  145   -0.010122499837
  146   -0.008824745797
  147   -0.192806392828
  148    0.015353896076
  149    0.004038200524
  150   -0.234668374094
  151   -0.034126377962
  152    0.011602861090
  153   -0.012584683020
  154   -0.005026418312
  155    0.003617576033
  156   -0.010609490298
  157    0.000595352459
  158    0.078879536139
  159   -0.004549313153
  160   -0.028528244228
  161    0.001455728846
  162    0.003624735598
  163    0.037025013440
  164   -0.063867734095
  165    0.002350103097
  166    0.030581072623
  167    0.011748541292
  168   -0.000318293366
  169    0.022106571885
  170   -0.080615898878
  171   -0.000531053012
  172   -0.016582366395
  173    0.009022704070
  174    0.028193979775
  175   -0.054601811703
  176    0.101603581532
  177    0.024682157669
  178    0.029932683892
  179   -0.002112042523
  180   -0.018303723789
  181   -0.012080267572
  182   -0.083678467265
  183    0.030136073178
  184   -0.038276445490
  185   -0.014770703225
  186    0.021928518643
  187    0.047097073599
  188   -0.167139590466
  189   -0.046766250200
  190   -0.004278573307
  191   -0.026891132272
  192   -0.050794629669
  193   -0.044257683297
  194    0.180515925138
  195   -0.002982980298
  196   -0.003175967091
  197    0.031211475944
  198    0.051355644491
 Sym=     1a
 Ene= 3.63319099713910E+00
Spin= Alpha
 Occup= 0
  1     -0.006252027577
  2     -0.067196027319
  3     -0.040973805213
  4      2.294766054542
  5      0.409270732654
  6     -0.174008425745
  7      0.010680088072
  8      0.106776758883
  9     -1.818101165842
  10     0.215018311511
  11     1.125209438268
  12    -1.225281396856
  13     0.196460498365
  14     0.736058525083
  15     0.028398593898
  16    -0.029388356294
  17     0.000989762396
  18    -0.003776791740
  19    -0.038816901566
  20     0.011063468358
  21     0.479937953456
  22    -0.347014565204
  23    -0.132923388252
  24    -0.108837304725
  25    -0.590748847272
  26    -0.007361825594
  27    -0.072596644147
  28    -0.043794772859
  29    -0.111004559690
  30     0.120488102894
  31     0.060212661997
  32     0.169132559459
  33    -0.023089484143
  34    -0.001455808493
  35    -0.020204314691
  36    -0.037091758347
  37     0.069893279365
  38    -0.023277689878
  39     1.246244100625
  40    -5.878679285532
  41    -1.317164762792
  42     0.095164341776
  43    -0.013821562122
  44    -0.066350271069
  45    -1.073217019694
  46     0.176743214926
  47     0.765424223288
  48    -0.651434802204
  49     0.068338029414
  50     0.418518444138
  51     0.001679587828
  52    -0.000977171669
  53    -0.000702416159
  54     0.000287821718
  55    -0.010704904571
  56    -0.005439877761
  57    -0.282676110218
  58     0.285472977373
  59    -0.002796867155
  60     0.039862183454
  61     0.319635514405
  62    -0.058617344802
  63     0.000815993127
  64     0.082907439863
  65    -0.020184625249
  66    -0.012838482550
  67    -0.017906999760
  68     1.418354372609
  69     0.011743712889
  70    -0.093325003065
  71    -1.391273856114
  72    -0.038619849637
  73    -0.009505862000
  74    -0.039948676358
  75     0.043429690211
  76     0.012365089814
  77    -0.006868732342
  78    -0.002337207478
  79    -0.003753709311
  80     0.023769725093
  81    -0.163105639729
  82     0.463233047767
  83     0.271494310829
  84     0.015998676180
  85     0.012083961597
  86     0.017866049984
  87    -0.075062725890
  88    -0.058780726951
  89    -0.085258828930
  90    -0.173044144881
  91    -0.164642292602
  92    -0.181164825662
  93    -0.002945707416
  94     0.003909742677
  95    -0.000964035261
  96    -0.004815535173
  97    -0.005250172117
  98    -0.000655884666
  99    -0.029753492513
  100    0.003146323701
  101    0.026607168812
  102    0.035340706029
  103    0.029687843731
  104    0.015425204777
  105    0.020350984296
  106    0.000799292727
  107   -0.010232971064
  108   -0.006705699903
  109    0.000470360199
  110    0.011835117801
  111   -0.020598010675
  112   -0.001542723923
  113    0.001893853546
  114   -0.020891565605
  115   -0.003197591980
  116    0.024890064223
  117   -0.176831071904
  118    0.555267733004
  119    0.293156415298
  120   -0.007986740550
  121   -0.010367185738
  122   -0.027294372790
  123    0.064007315478
  124    0.067730946568
  125    0.158958850801
  126    0.112142251120
  127    0.069984124189
  128    0.280054006353
  129    0.003671163752
  130    0.002171520892
  131   -0.005842684644
  132   -0.003387744002
  133   -0.000560812972
  134   -0.005364956909
  135   -0.016964972008
  136   -0.023857991005
  137    0.040822963013
  138    0.035824891273
  139    0.037896861847
  140    0.008831054626
  141   -0.022489292179
  142   -0.003403528242
  143    0.002749892372
  144    0.009279145448
  145    0.011590934840
  146    0.002882193409
  147    0.020893406198
  148   -0.007024622532
  149   -0.006571561174
  150    0.010664373117
  151   -0.005640928518
  152   -0.057717852999
  153    0.130935259984
  154    0.009175831850
  155    0.006946594176
  156    0.007335168510
  157   -0.012436129997
  158   -0.043918642072
  159    0.043862126373
  160    0.009619009225
  161   -0.011164911457
  162   -0.004828911634
  163   -0.000088667252
  164   -0.043487016462
  165    0.123041438883
  166    0.011453672692
  167    0.000275682856
  168   -0.005732107018
  169    0.430390171941
  170    1.006421145590
  171   -0.175677414341
  172   -0.010971209235
  173   -0.224833558081
  174   -0.332544905218
  175    0.466581580194
  176    1.131607038173
  177   -0.190017897154
  178    0.364378455259
  179   -0.054434385874
  180    0.218171740190
  181    0.411519979208
  182    1.051876468958
  183   -0.121749848509
  184    0.057846985878
  185    0.364343180348
  186   -0.156939042904
  187   -0.005476525933
  188   -0.064644256464
  189    0.135561436973
  190   -0.004815681287
  191   -0.003141203453
  192   -0.014503825575
  193   -0.003300702032
  194   -0.052520605220
  195    0.130563531552
  196    0.011274238559
  197    0.000601937784
  198   -0.010127078314
 Sym=     1a
 Ene= 3.78617445434775E+00
Spin= Alpha
 Occup= 0
  1      0.400136988797
  2     -0.822083506185
  3      1.410484092230
  4      2.683840950345
  5      22.635176051274
  6      0.003534377281
  7     -0.022993826118
  8      0.009398110712
  9      0.000328187387
  10    -0.006544237805
  11     0.003166383992
  12    -0.027012973169
  13     0.159164022916
  14    -0.059673015678
  15    -0.084060566078
  16     0.134515529888
  17    -0.050454963810
  18    -0.039658226394
  19     0.016508930836
  20    -0.107846336983
  21     1.012558881986
  22    -1.620732953312
  23     0.608174071326
  24     0.477886513714
  25    -0.198699312195
  26     1.299410262844
  27     0.009163014954
  28    -0.003389291587
  29    -0.117001361406
  30     0.017449919031
  31     0.076807718336
  32     0.188810826488
  33    -0.029743393620
  34    -0.072260506505
  35    -0.031837027950
  36     0.019859544185
  37     0.067313850019
  38    -0.163455746381
  39     1.214812948519
  40    -4.304150380967
  41    -5.492002039202
  42     0.174047584696
  43    -0.017377747755
  44    -0.107334920425
  45    -1.735864586751
  46     0.044062383149
  47     1.135722662482
  48    -2.344394801747
  49    -0.632092768099
  50     1.906124620227
  51     0.010044307183
  52    -0.006611979230
  53    -0.003432327953
  54    -0.003254808692
  55    -0.017317137860
  56    -0.002437890046
  57    -0.586391612893
  58     0.596846430107
  59    -0.010454817214
  60     0.008903084686
  61     0.679939096379
  62    -0.187009015054
  63    -0.066469362837
  64    -0.007428937507
  65    -0.023734289940
  66     0.113505680549
  67    -0.021376391763
  68     0.171797483989
  69    -0.024327672314
  70     0.031343357323
  71    -0.139954592567
  72    -0.056986719296
  73     0.051161109155
  74    -0.050277914300
  75    -1.116658748947
  76    -0.009761483550
  77     0.032778792891
  78    -0.086240386941
  79     0.067335492530
  80    -0.163490912812
  81     1.214763140884
  82    -4.303319389185
  83    -5.491057282769
  84    -0.177764502782
  85    -0.060997582192
  86    -0.082421123085
  87     1.812689056748
  88     0.484286116794
  89     0.885621148881
  90     2.681009116744
  91    -0.018383134357
  92     1.528578356681
  93     0.011662317269
  94    -0.004375911904
  95    -0.007286405365
  96     0.007984255548
  97     0.014758699489
  98     0.000675218104
  99    -0.649300117119
  100    0.514801811779
  101    0.134498305340
  102   -0.387739070711
  103   -0.501650398647
  104   -0.303311482465
  105    0.095533908450
  106   -0.069527575761
  107   -0.023066804057
  108   -0.101498734199
  109    0.087388233798
  110    0.112410477179
  111   -0.026673453870
  112    0.005892797629
  113   -0.081463112042
  114    0.129719436855
  115    0.067296693753
  116   -0.163434256759
  117    1.214841267469
  118   -4.304732712250
  119   -5.484481675617
  120    0.003536135862
  121    0.079907479326
  122    0.188926617544
  123   -0.014291239086
  124   -0.936340233925
  125   -1.851281310224
  126    0.073829548118
  127   -2.024461688080
  128   -2.327370229894
  129   -0.014278580815
  130   -0.000900776173
  131    0.015179356988
  132   -0.001210357138
  133    0.001113253606
  134    0.011306875907
  135    0.305195766846
  136    0.377214620825
  137   -0.682410387671
  138   -0.059832038955
  139    0.004654540229
  140   -0.702467189321
  141    0.022609964519
  142    0.165108501768
  143   -0.088901811653
  144   -0.032700043116
  145   -0.024137104190
  146    0.096904083751
  147    0.002365592536
  148   -0.197379195980
  149    0.022370212757
  150   -0.003579822710
  151   -0.028857145387
  152    0.457038142063
  153    0.013337585670
  154   -0.018384856971
  155   -0.057743495699
  156   -0.066392951407
  157    0.051191463877
  158   -0.050857193720
  159   -1.116692530173
  160    0.048947085826
  161    0.078772535781
  162    0.002776067738
  163   -0.027889510818
  164    0.456385808034
  165   -0.004049523908
  166   -0.077974931245
  167   -0.024001087800
  168    0.038542644868
  169   -0.028136800994
  170    0.457697202750
  171    0.000022080149
  172    0.021940234223
  173   -0.053471134445
  174   -0.069441724820
  175   -0.028693223352
  176    0.455477210170
  177    0.008297068688
  178    0.085838360662
  179   -0.003295231653
  180    0.025961656031
  181    0.051251649903
  182   -0.051093681692
  183   -1.117328370275
  184   -0.066184252989
  185    0.064253482325
  186    0.010362579545
  187   -0.027978502083
  188    0.457507995456
  189   -0.002870796934
  190    0.067054857142
  191    0.007390253665
  192    0.060161511124
  193   -0.028691075188
  194    0.455753628670
  195    0.008141443263
  196   -0.057135174469
  197   -0.007285162400
  198    0.068857255469
 Sym=     1a
 Ene= 1.48966496391849E+01
Spin= Alpha
 Occup= 0
  1     -1.156263759911
  2      1.200705444061
  3      3.685183912996
  4     -21.213676754049
  5      11.164114424466
  6      0.001704343002
  7     -0.010830436684
  8      0.004606883716
  9     -0.069342446649
  10     0.449664405325
  11    -0.186585913477
  12    -0.029805250150
  13     0.208325879970
  14    -0.084901537403
  15    -0.092283130526
  16     0.147653237460
  17    -0.055370106934
  18    -0.043510223223
  19     0.018170198737
  20    -0.118267788680
  21    -1.344958071739
  22     2.152937281282
  23    -0.807979209543
  24    -0.635370147158
  25     0.262809664957
  26    -1.725884307875
  27    -0.043328902218
  28    -0.009489146062
  29     0.424523901347
  30    -0.053405846093
  31    -0.267435274595
  32    -0.722882587035
  33     0.111537668543
  34     0.280166299981
  35     0.153324006144
  36    -0.082798548359
  37     0.002907509167
  38     0.003795080564
  39    -1.678227230574
  40     8.517840511734
  41    -6.138644059201
  42    -0.153858049363
  43    -0.006405587010
  44     0.106501522538
  45     3.938781601069
  46    -0.172462586775
  47    -2.547924568474
  48    -0.811891509966
  49    -0.198333172474
  50     0.648871794107
  51     0.117230488556
  52    -0.096359956514
  53    -0.020870532042
  54    -0.022017947553
  55    -0.171598569449
  56     0.000760588490
  57     0.977087494232
  58    -0.941632012728
  59    -0.035455481504
  60    -0.122198244439
  61    -1.081469775170
  62     0.341050716993
  63     0.074287528113
  64     0.005919819903
  65     0.111308246365
  66    -0.154600518594
  67    -0.020879180480
  68    -0.351760709439
  69     0.054933340950
  70     0.012936908650
  71     0.202425026242
  72     0.052320705540
  73    -0.024274428621
  74     0.018277229385
  75     0.376730590701
  76     0.005402701530
  77    -0.108473337473
  78    -0.111572319601
  79     0.002962279984
  80     0.003734852438
  81    -1.678738352219
  82     8.521950711721
  83    -6.145914694126
  84     0.164388315606
  85     0.032757327753
  86     0.083479364722
  87    -4.100175269923
  88    -1.164260400920
  89    -1.971368012178
  90     0.921623162685
  91     0.014663714565
  92     0.522786509596
  93     0.132812407138
  94    -0.073572551865
  95    -0.059239855273
  96     0.085648375275
  97     0.139749127760
  98     0.031761623237
  99     1.023608291778
  100   -0.760001158395
  101   -0.263607133383
  102    0.723956235135
  103    0.782419433472
  104    0.515014554672
  105   -0.128750719322
  106    0.085478956073
  107    0.111261074972
  108    0.120971875477
  109   -0.158429656397
  110   -0.279596375778
  111    0.051765340857
  112    0.043747602542
  113    0.130323979646
  114   -0.175215583677
  115    0.002990853299
  116    0.003669383961
  117   -1.678028135998
  118    8.521122680674
  119   -6.137160178407
  120   -0.000057872947
  121   -0.094554196557
  122   -0.161445441593
  123    0.049695647355
  124    2.054323061685
  125    4.223220309663
  126    0.023092374753
  127   -0.678516845356
  128   -0.809893858622
  129   -0.119371762165
  130   -0.039264533802
  131    0.158636295967
  132   -0.001965051446
  133    0.006209800603
  134    0.135293689506
  135   -0.517973829916
  136   -0.672424182333
  137    1.190398012249
  138    0.097977083540
  139    0.008070121029
  140    1.047640508198
  141   -0.034953565780
  142   -0.207517742176
  143    0.187835040558
  144    0.029479472740
  145   -0.024536058025
  146   -0.256146808367
  147    0.017415656744
  148    0.302950324851
  149    0.004139656820
  150   -0.010915003145
  151   -0.084031393664
  152   -0.233381745333
  153    0.885194360371
  154    0.028047877392
  155    0.107958037895
  156    0.069410920818
  157   -0.024324538515
  158    0.018497242881
  159    0.377731372067
  160    0.133384823117
  161   -0.009144583876
  162    0.079723545100
  163   -0.083184626227
  164   -0.224629931492
  165    0.879371367650
  166    0.097417400737
  167    0.068283932341
  168   -0.052241342842
  169   -0.083308784500
  170   -0.226312296900
  171    0.878757139107
  172   -0.044148953182
  173    0.098554473573
  174    0.072618577498
  175   -0.083653563497
  176   -0.230533155938
  177    0.883252032313
  178   -0.118352765516
  179    0.040578298788
  180   -0.037931762910
  181   -0.024390234900
  182    0.017698788284
  183    0.377518897731
  184   -0.114722793889
  185   -0.039941737907
  186    0.097504806773
  187   -0.083180381277
  188   -0.226176885426
  189    0.878875885015
  190   -0.082213307265
  191    0.021359469051
  192   -0.098543964612
  193   -0.083655661141
  194   -0.231288334963
  195    0.883817124526
  196    0.061605317870
  197    0.038557086338
  198   -0.108774348031
 Sym=     1a
 Ene= 2.14367322024775E+01
Spin= Alpha
 Occup= 0
  1     -0.022980950357
  2      0.012611966774
  3     -0.554519299589
  4      2.973886793280
  5      1.586822081072
  6     -0.000402278049
  7     -0.006681907454
  8     -0.016499874981
  9      0.005324148601
  10    -0.181308225914
  11    -0.281460701323
  12    -0.045362672204
  13    -0.737613297671
  14    -1.976464391353
  15    -0.056077401984
  16    -0.017283239030
  17     0.073360641014
  18    -0.001637998969
  19     0.003994701788
  20     0.054645904422
  21     0.326498557858
  22    -0.396168693303
  23     0.069670135445
  24     0.129856420947
  25    -0.062902629928
  26     0.334094417364
  27     0.003491848012
  28     0.038072932573
  29    -0.103854496108
  30     0.010908324768
  31     0.070952768195
  32     0.143592270490
  33    -0.015593130481
  34    -0.122032967396
  35    -0.004256842650
  36     0.005535113636
  37     0.000437593313
  38    -0.005238604246
  39     0.248822294054
  40    -1.351323262767
  41     1.560367235206
  42     0.000980989613
  43    -0.010486838352
  44    -0.025666257359
  45    -0.464117929928
  46     0.114734255288
  47     0.504598247694
  48     0.292700929776
  49    -0.181132577975
  50    -0.022870208292
  51    -0.026402031643
  52     0.011391637557
  53     0.015010394086
  54     0.000082465308
  55     0.014584444507
  56    -0.002102916250
  57    -0.059365607531
  58     0.148286781626
  59    -0.088921174095
  60     0.036940786727
  61     0.197578802785
  62    -0.016454711536
  63     0.006373416353
  64    -0.002625674345
  65    -0.012146600802
  66     0.016137822842
  67    -0.000312304167
  68     0.046391949476
  69    -0.024688658170
  70     0.003835015961
  71    -0.030095574422
  72    -0.008132274400
  73     0.037975076342
  74     0.422982328328
  75     0.537386603138
  76    -0.030565617956
  77     0.233726978033
  78    -0.033108115281
  79     0.000485941198
  80    -0.005359716914
  81     0.249859611835
  82    -1.355638529930
  83     1.553961676708
  84    -0.002137904098
  85    -0.010685725870
  86    -0.025810083066
  87     0.491836681840
  88     0.230702058890
  89     0.440275979139
  90    -0.236268595301
  91    -0.243932114639
  92     0.012921251371
  93    -0.026691496621
  94     0.008883414311
  95     0.017808082310
  96    -0.011377515982
  97    -0.006685803252
  98    -0.003981468774
  99    -0.078477350745
  100    0.120452552146
  101   -0.041975201401
  102   -0.102120052040
  103   -0.188408990782
  104   -0.055999710073
  105    0.005086207891
  106   -0.011657362944
  107   -0.017520513009
  108   -0.014677878295
  109    0.012644865150
  110    0.043103925321
  111    0.007854014340
  112    0.002995128439
  113   -0.019597690468
  114    0.028439467429
  115   -1.385897584730
  116    1.674948521572
  117   -0.806436251750
  118   -1.094051455974
  119   -4.830886171004
  120    0.000110709058
  121    0.026906108496
  122    0.046024473274
  123   -0.009232424558
  124   -0.259422988970
  125   -0.566466156260
  126   -0.035546432590
  127   -0.379989337612
  128   -1.159948173468
  129   -0.009800098196
  130    0.005718592613
  131    0.004081505583
  132   -0.001547090561
  133    0.000256266447
  134    0.007865039342
  135    0.023734193382
  136    0.179357085065
  137   -0.203091278447
  138   -0.034378198620
  139    0.002656626897
  140   -0.168145488016
  141    0.058077704124
  142    0.165048458534
  143   -0.101360579966
  144   -0.055304835964
  145   -0.086993397703
  146    0.201558050921
  147   -0.022614580675
  148   -0.134442346016
  149   -0.065568562695
  150    0.035316997171
  151    0.001082908967
  152   -0.010863915973
  153   -0.057859675188
  154   -0.001044918595
  155   -0.000213642363
  156    0.003668020508
  157    0.017808629624
  158   -0.033336095780
  159   -0.329548351031
  160   -0.014150699838
  161    0.014377473088
  162    0.004525439249
  163    0.020049587102
  164    0.032523955562
  165   -0.169367036665
  166   -0.032677969545
  167   -0.007896734664
  168    0.007334683445
  169    0.001001785237
  170   -0.012392594489
  171   -0.056487554004
  172    0.001610354660
  173    0.000350310288
  174    0.003486755980
  175    0.019819923371
  176    0.032292100121
  177   -0.165621065391
  178    0.034278566198
  179    0.000598380718
  180    0.002456037973
  181    0.017952893181
  182   -0.029328950135
  183   -0.333773674609
  184    0.010724753279
  185    0.018253143528
  186    0.002211289251
  187    0.070868706433
  188    0.521142755087
  189    0.351693477919
  190    0.223589903130
  191   -0.033982980474
  192    0.128534919092
  193    0.071016212991
  194    0.522094125413
  195    0.351117461963
  196   -0.189511544421
  197   -0.083722576130
  198    0.157725133680
 Sym=     1a
 Ene= 2.14371358002122E+01
Spin= Alpha
 Occup= 0
  1     -0.022951830826
  2      0.012601409551
  3     -0.555153579128
  4      2.976617433821
  5      1.590627159500
  6      0.015301336896
  7      0.005428808489
  8      0.006768219508
  9      0.293103107789
  10     0.046958950456
  11     0.160030496945
  12     1.812968676050
  13     0.711742201562
  14     0.815479988950
  15     0.056716755598
  16    -0.027230950945
  17    -0.029485804653
  18     0.041394302338
  19     0.061459785474
  20     0.012759711351
  21     0.234219793506
  22    -0.437206591257
  23     0.202986797751
  24     0.058060115908
  25    -0.092894679060
  26     0.329010740615
  27     0.038003145361
  28    -0.041001976020
  29    -0.102755211943
  30    -0.030909600614
  31     0.087140731022
  32     0.163860801173
  33    -0.020076969218
  34    -0.032130807667
  35    -0.026000217804
  36     0.042168044345
  37     0.000496219924
  38    -0.005378025575
  39     0.250453823766
  40    -1.358261362166
  41     1.553136961174
  42     0.025006166891
  43     0.008213976408
  44     0.009665381366
  45    -0.666021087809
  46    -0.041177568065
  47     0.212440083981
  48     0.227905400661
  49    -0.225794605968
  50    -0.112833804829
  51    -0.005748200033
  52     0.014236252006
  53    -0.008488051973
  54     0.011676538009
  55     0.023526030685
  56    -0.006084483466
  57    -0.194330195997
  58     0.106984346599
  59     0.087345849398
  60    -0.054951443520
  61     0.151758241378
  62    -0.012512358105
  63    -0.023486534841
  64     0.008157958056
  65    -0.015472455989
  66     0.027458782194
  67    -0.004083030734
  68     0.046608765236
  69     0.004051710881
  70    -0.006862018529
  71    -0.025850287214
  72     0.002304799428
  73     0.017915611564
  74    -0.029157960510
  75    -0.333755222152
  76    -0.016159294154
  77     0.013813349447
  78     0.001392107878
  79    -1.385898315560
  80     1.675008774271
  81    -0.806573244335
  82    -1.095443390010
  83    -4.834296349001
  84    -0.046926582066
  85    -0.009418996897
  86    -0.023682732742
  87     0.545449661974
  88     0.169119112640
  89     0.257623236663
  90     1.040394092833
  91     0.455657908694
  92     0.451101890653
  93     0.005990217229
  94    -0.002226268568
  95    -0.003763948661
  96    -0.000458112133
  97     0.010729819236
  98    -0.003252987102
  99    -0.170762741348
  100    0.152576283556
  101    0.018186457792
  102   -0.141544585715
  103   -0.080318662048
  104   -0.131740940789
  105    0.070275454744
  106    0.027599510716
  107    0.001571148041
  108   -0.038775271382
  109    0.044036336121
  110    0.164872288661
  111   -0.055509144992
  112   -0.081064965384
  113   -0.166980204954
  114    0.139007441944
  115    0.000418106389
  116   -0.005213923531
  117    0.248476073995
  118   -1.349142640119
  119    1.559150409896
  120    0.023224689419
  121    0.008727697790
  122    0.012282673990
  123   -0.200214119189
  124   -0.301640446485
  125   -0.591717127165
  126   -0.027598954034
  127   -0.081736267473
  128    0.334098256371
  129    0.011981278533
  130    0.011688915624
  131   -0.023670194157
  132    0.008114872201
  133    0.010675410715
  134   -0.013256469483
  135    0.101542227079
  136    0.036164689045
  137   -0.137706916124
  138   -0.081828323524
  139   -0.069658322166
  140   -0.175302136553
  141    0.012607379940
  142    0.029818938442
  143   -0.016418747147
  144    0.000615780979
  145    0.003933768308
  146    0.030794807798
  147   -0.017530356118
  148   -0.043940072332
  149   -0.008766746962
  150   -0.007129826281
  151    0.071103445106
  152    0.520871247959
  153    0.351706943157
  154    0.021074309589
  155   -0.190341921107
  156   -0.176103370527
  157    0.038011294019
  158    0.422883580257
  159    0.536993230285
  160   -0.084271774970
  161    0.193087482264
  162   -0.110797141647
  163    0.070744047244
  164    0.520874858941
  165    0.353092074423
  166   -0.178642927680
  167   -0.077800649460
  168    0.172180725571
  169    0.020027873921
  170    0.032962492741
  171   -0.168751117624
  172    0.014282200217
  173   -0.015193271559
  174   -0.027438776703
  175    0.001100627785
  176   -0.011223589748
  177   -0.058507947168
  178   -0.002005082252
  179   -0.002684017103
  180   -0.001893865303
  181    0.017866173917
  182   -0.032440974521
  183   -0.330178638682
  184   -0.004047926109
  185    0.006205927438
  186   -0.019480352577
  187    0.001036894621
  188   -0.012406628277
  189   -0.056607135232
  190   -0.003430274914
  191   -0.001774864764
  192    0.000279814799
  193    0.019783233990
  194    0.032470302996
  195   -0.164865292933
  196   -0.018182929411
  197    0.003595385588
  198    0.028946821363
 Sym=     1a
 Ene= 2.14376624114992E+01
Spin= Alpha
 Occup= 0
  1     -0.022887463292
  2      0.012536736886
  3     -0.555084868114
  4      2.976089245699
  5      1.590124815300
  6     -0.015024254195
  7      0.001798329456
  8      0.009146363313
  9     -0.273401891082
  10    -0.026374756893
  11     0.192934328081
  12    -1.805243925407
  13     0.262283000005
  14     1.067632897707
  15     0.051660039528
  16    -0.039263798545
  17    -0.012396240983
  18    -0.015046210083
  19    -0.075734366625
  20    -0.000236349092
  21     0.217867488463
  22    -0.410623974790
  23     0.192756486327
  24     0.179076849658
  25     0.003480374510
  26     0.332974786735
  27    -0.019968656625
  28    -0.011876518804
  29    -0.099552353369
  30     0.068156149069
  31     0.045786251595
  32     0.175959875160
  33    -0.041365384890
  34    -0.029852229566
  35    -0.042396377488
  36     0.001280703763
  37    -1.385899875158
  38     1.675098828470
  39    -0.807601691618
  40    -1.091752548614
  41    -4.839781327467
  42     0.043836293892
  43     0.001732799164
  44    -0.030405698077
  45    -0.526896522595
  46     0.036679185288
  47     0.334411538708
  48    -1.048047007595
  49     0.197037522982
  50     0.598402267167
  51     0.002718910952
  52    -0.001773510280
  53    -0.000945400672
  54     0.001577145870
  55    -0.010733847278
  56    -0.006090575623
  57    -0.178865411223
  58     0.187804214923
  59    -0.008938803700
  60     0.023048301449
  61     0.141510450206
  62    -0.116035726803
  63    -0.014234839626
  64     0.039072447560
  65    -0.009436213208
  66     0.005613088701
  67    -0.005509810761
  68     0.223880231087
  69     0.013484952731
  70    -0.046911378513
  71    -0.211220222578
  72    -0.038253817411
  73     0.017894877274
  74    -0.032458683007
  75    -0.330808573297
  76     0.012549020487
  77     0.016658971861
  78    -0.000524799037
  79     0.000418410737
  80    -0.005214797259
  81     0.249148913889
  82    -1.352741508908
  83     1.559163007220
  84    -0.024298780643
  85     0.001803351543
  86     0.013280063279
  87     0.674248812706
  88     0.127360358765
  89     0.114031196421
  90    -0.181320450806
  91    -0.281132643857
  92    -0.086627401916
  93    -0.005039866010
  94     0.007989788858
  95    -0.002949922848
  96    -0.017358351185
  97    -0.021487954214
  98    -0.009556260024
  99    -0.225634548687
  100    0.108596295997
  101    0.117038252690
  102   -0.041408178701
  103   -0.091893246891
  104   -0.042720646059
  105    0.032249388645
  106   -0.007381753811
  107   -0.011895903248
  108   -0.027022791073
  109    0.021017693742
  110    0.035035469629
  111   -0.016244304073
  112   -0.011114031753
  113   -0.019075440639
  114    0.013501968441
  115    0.000447705322
  116   -0.005312788549
  117    0.250024343311
  118   -1.356912451836
  119    1.557626392660
  120   -0.022890219065
  121    0.003364660212
  122    0.015691953281
  123    0.183689097453
  124   -0.259037376593
  125   -0.623098089822
  126    0.090785233335
  127   -0.065820047709
  128    0.322479495092
  129    0.012983982546
  130    0.008036671698
  131   -0.021020654244
  132   -0.009469074799
  133   -0.012980125204
  134   -0.014905835657
  135    0.086867926219
  136    0.070137061639
  137   -0.157004987858
  138    0.069208319432
  139    0.073139198160
  140   -0.170316286806
  141   -0.004815120581
  142    0.027113695182
  143   -0.022000579530
  144   -0.008810295496
  145    0.005808924062
  146    0.033656523388
  147    0.015270457659
  148   -0.042185763391
  149   -0.004139648564
  150    0.010459586402
  151    0.019825441815
  152    0.032610337012
  153   -0.164650443002
  154   -0.013899380138
  155   -0.018468136497
  156   -0.025477695431
  157    0.017985162577
  158   -0.028418966424
  159   -0.334181250783
  160   -0.000696328367
  161    0.007476396837
  162   -0.020094614014
  163    0.001022919311
  164   -0.012628967421
  165   -0.056860986446
  166    0.002306377522
  167   -0.001971256447
  168   -0.002388874948
  169    0.070832229745
  170    0.520259138081
  171    0.353357242502
  172    0.001966289685
  173   -0.193646541617
  174   -0.173361432331
  175    0.070876731598
  176    0.521328461733
  177    0.352639867552
  178    0.214829446445
  179   -0.027484091576
  180    0.144172714080
  181    0.037955597607
  182    0.422754121674
  183    0.538045809527
  184    0.017797590940
  185    0.205170653591
  186   -0.119202692536
  187    0.020010738291
  188    0.032753360698
  189   -0.168499606489
  190    0.020715377173
  191    0.008213039570
  192    0.026283952261
  193    0.001098461509
  194   -0.011597449993
  195   -0.058488158837
  196    0.003726684965
  197   -0.001057677344
  198   -0.000212943641
