13
Coordinates from ORCA-job ./tbutyl E -157.560198163592
  C          -2.48642672657736     -0.10568173438007      0.16945915679956
  C          -3.71769376455628     -0.01792603661219      0.94730632187534
  H          -2.36273758628306     -1.78978938204604     -0.97091021465408
  C          -1.21721325800012      0.29154248610485      0.76954964128383
  C          -2.50638562433198     -0.70994201877523     -1.15829459767277
  H          -1.32656764542863      1.04546536964438      1.54674983832340
  H          -0.85309445089890     -0.62276499903534      1.27284388955384
  H          -0.45880512582687      0.55613159191427      0.03517744426716
  H          -3.68945249711613      0.75747231824639      1.71041598322032
  H          -4.61335549269944      0.03576082407051      0.33130070140090
  H          -3.77103039089416     -0.98129874838851      1.48657183458279
  H          -3.46707739278861     -0.61347808921555     -1.66055309660282
  H          -1.67453416459843     -0.39745590152747     -1.78668636237749
