[Molden Format]
[Title]
PNAOs

[Atoms] AU
C    1   6         -4.6986655653        -0.1997095353         0.3202313972 
C    2   6         -7.0254230648        -0.0338752999         1.7901495133 
H    3   1         -4.4649269644        -3.3822117695        -1.8347544063 
C    4   6         -2.3001997042         0.5509354551         1.4542380685 
C    5   6         -4.7363824160        -1.3415959864        -2.1888595720 
H    6   1         -2.5068495480         1.9756432311         2.9229335921 
H    7   1         -1.6121148786        -1.1768552940         2.4053263625 
H    8   1         -0.8670160367         1.0509364031         0.0664757358 
H    9   1         -6.9720548037         1.4314152355         3.2322177834 
H   10   1         -8.7179784396         0.0675781638         0.6260675936 
H   11   1         -7.1262146815        -1.8543858900         2.8092136458 
H   12   1         -6.5518267575        -1.1593055778        -3.1379905834 
H   13   1         -3.1644109730        -0.7510828042        -3.3763479121 
[GTO]
  1 0 
s   6 1.0  
    13575.3496820000         0.0006064549 
     2035.2333680000         0.0046979088 
      463.2256235900         0.0243324776 
      131.2001959800         0.0973999683 
       42.8530158910         0.3019558425 
       15.5841857660         0.6623360915 
s   2 1.0  
        6.2067138508         0.6559530853 
        2.5764896527         0.3758563329 
s   1 1.0  
        0.5769633942         1.0000000000 
s   1 1.0  
        0.2297283136         1.0000000000 
s   1 1.0  
        0.0951644400         1.0000000003 
p   4 1.0  
       34.6972322440         0.0113272200 
        7.9582622826         0.0761696592 
        2.3780826883         0.3019225220 
        0.8143320818         0.7278502735 
p   1 1.0  
        0.2888754725         0.9999999999 
p   1 1.0  
        0.1005682367         0.9999999995 
d   1 1.0  
        1.0970000000         1.0000000000 
d   1 1.0  
        0.3180000000         1.0000000000 
f   1 1.0  
        0.7610000000         1.0000000000 

  2 0 
s   6 1.0  
    13575.3496820000         0.0006064549 
     2035.2333680000         0.0046979088 
      463.2256235900         0.0243324776 
      131.2001959800         0.0973999683 
       42.8530158910         0.3019558425 
       15.5841857660         0.6623360915 
s   2 1.0  
        6.2067138508         0.6559530853 
        2.5764896527         0.3758563329 
s   1 1.0  
        0.5769633942         1.0000000000 
s   1 1.0  
        0.2297283136         1.0000000000 
s   1 1.0  
        0.0951644400         1.0000000003 
p   4 1.0  
       34.6972322440         0.0113272200 
        7.9582622826         0.0761696592 
        2.3780826883         0.3019225220 
        0.8143320818         0.7278502735 
p   1 1.0  
        0.2888754725         0.9999999999 
p   1 1.0  
        0.1005682367         0.9999999995 
d   1 1.0  
        1.0970000000         1.0000000000 
d   1 1.0  
        0.3180000000         1.0000000000 
f   1 1.0  
        0.7610000000         1.0000000000 

  3 0 
s   3 1.0  
       34.0613410000         0.0254393072 
        5.1235746000         0.1900859489 
        1.1646626000         0.8524411301 
s   1 1.0  
        0.3272304100         1.0000000002 
s   1 1.0  
        0.1030724100         1.0000000001 
p   1 1.0  
        0.8000000000         1.0000000000 

  4 0 
s   6 1.0  
    13575.3496820000         0.0006064549 
     2035.2333680000         0.0046979088 
      463.2256235900         0.0243324776 
      131.2001959800         0.0973999683 
       42.8530158910         0.3019558425 
       15.5841857660         0.6623360915 
s   2 1.0  
        6.2067138508         0.6559530853 
        2.5764896527         0.3758563329 
s   1 1.0  
        0.5769633942         1.0000000000 
s   1 1.0  
        0.2297283136         1.0000000000 
s   1 1.0  
        0.0951644400         1.0000000003 
p   4 1.0  
       34.6972322440         0.0113272200 
        7.9582622826         0.0761696592 
        2.3780826883         0.3019225220 
        0.8143320818         0.7278502735 
p   1 1.0  
        0.2888754725         0.9999999999 
p   1 1.0  
        0.1005682367         0.9999999995 
d   1 1.0  
        1.0970000000         1.0000000000 
d   1 1.0  
        0.3180000000         1.0000000000 
f   1 1.0  
        0.7610000000         1.0000000000 

  5 0 
s   6 1.0  
    13575.3496820000         0.0006064549 
     2035.2333680000         0.0046979088 
      463.2256235900         0.0243324776 
      131.2001959800         0.0973999683 
       42.8530158910         0.3019558425 
       15.5841857660         0.6623360915 
s   2 1.0  
        6.2067138508         0.6559530853 
        2.5764896527         0.3758563329 
s   1 1.0  
        0.5769633942         1.0000000000 
s   1 1.0  
        0.2297283136         1.0000000000 
s   1 1.0  
        0.0951644400         1.0000000003 
p   4 1.0  
       34.6972322440         0.0113272200 
        7.9582622826         0.0761696592 
        2.3780826883         0.3019225220 
        0.8143320818         0.7278502735 
p   1 1.0  
        0.2888754725         0.9999999999 
p   1 1.0  
        0.1005682367         0.9999999995 
d   1 1.0  
        1.0970000000         1.0000000000 
d   1 1.0  
        0.3180000000         1.0000000000 
f   1 1.0  
        0.7610000000         1.0000000000 

  6 0 
s   3 1.0  
       34.0613410000         0.0254393072 
        5.1235746000         0.1900859489 
        1.1646626000         0.8524411301 
s   1 1.0  
        0.3272304100         1.0000000002 
s   1 1.0  
        0.1030724100         1.0000000001 
p   1 1.0  
        0.8000000000         1.0000000000 

  7 0 
s   3 1.0  
       34.0613410000         0.0254393072 
        5.1235746000         0.1900859489 
        1.1646626000         0.8524411301 
s   1 1.0  
        0.3272304100         1.0000000002 
s   1 1.0  
        0.1030724100         1.0000000001 
p   1 1.0  
        0.8000000000         1.0000000000 

  8 0 
s   3 1.0  
       34.0613410000         0.0254393072 
        5.1235746000         0.1900859489 
        1.1646626000         0.8524411301 
s   1 1.0  
        0.3272304100         1.0000000002 
s   1 1.0  
        0.1030724100         1.0000000001 
p   1 1.0  
        0.8000000000         1.0000000000 

  9 0 
s   3 1.0  
       34.0613410000         0.0254393072 
        5.1235746000         0.1900859489 
        1.1646626000         0.8524411301 
s   1 1.0  
        0.3272304100         1.0000000002 
s   1 1.0  
        0.1030724100         1.0000000001 
p   1 1.0  
        0.8000000000         1.0000000000 

 10 0 
s   3 1.0  
       34.0613410000         0.0254393072 
        5.1235746000         0.1900859489 
        1.1646626000         0.8524411301 
s   1 1.0  
        0.3272304100         1.0000000002 
s   1 1.0  
        0.1030724100         1.0000000001 
p   1 1.0  
        0.8000000000         1.0000000000 

 11 0 
s   3 1.0  
       34.0613410000         0.0254393072 
        5.1235746000         0.1900859489 
        1.1646626000         0.8524411301 
s   1 1.0  
        0.3272304100         1.0000000002 
s   1 1.0  
        0.1030724100         1.0000000001 
p   1 1.0  
        0.8000000000         1.0000000000 

 12 0 
s   3 1.0  
       34.0613410000         0.0254393072 
        5.1235746000         0.1900859489 
        1.1646626000         0.8524411301 
s   1 1.0  
        0.3272304100         1.0000000002 
s   1 1.0  
        0.1030724100         1.0000000001 
p   1 1.0  
        0.8000000000         1.0000000000 

 13 0 
s   3 1.0  
       34.0613410000         0.0254393072 
        5.1235746000         0.1900859489 
        1.1646626000         0.8524411301 
s   1 1.0  
        0.3272304100         1.0000000002 
s   1 1.0  
        0.1030724100         1.0000000001 
p   1 1.0  
        0.8000000000         1.0000000000 

[5D]
[7F]
[MO]
 Sym=     1a
 Ene=  1.95057781324130E+01
Spin= Alpha
 Occup= 0.000003
  1      -1.362424695069
  2       1.474743826067
  3      -0.450143586311
  4       0.047924024848
  5       0.035020100383
  6       0.000000000000
  7       0.000000000000
  8       0.000000000000
  9       0.000000000000
 10       0.000000000000
 11       0.000000000000
 12       0.000000000000
 13       0.000000000000
 14       0.000000000000
 15       0.000000000000
 16       0.000000000000
 17       0.000000000000
 18       0.000000000000
 19       0.000000000000
 20       0.000000000000
 21       0.000000000000
 22       0.000000000000
 23       0.000000000000
 24       0.000000000000
 25       0.000000000000
 26       0.000000000000
 27       0.000000000000
 28       0.000000000000
 29       0.000000000000
 30       0.000000000000
 31       0.000000000000
 32       0.000000000000
 33       0.000000000000
 34       0.000000000000
 35       0.000000000000
 36       0.000000000000
 37       0.000000000000
 38       0.000000000000
 39       0.000000000000
 40       0.000000000000
 41       0.000000000000
 42       0.000000000000
 43       0.000000000000
 44       0.000000000000
 45       0.000000000000
 46       0.000000000000
 47       0.000000000000
 48       0.000000000000
 49       0.000000000000
 50       0.000000000000
 51       0.000000000000
 52       0.000000000000
 53       0.000000000000
 54       0.000000000000
 55       0.000000000000
 56       0.000000000000
 57       0.000000000000
 58       0.000000000000
 59       0.000000000000
 60       0.000000000000
 61       0.000000000000
 62       0.000000000000
 63       0.000000000000
 64       0.000000000000
 65       0.000000000000
 66       0.000000000000
 67       0.000000000000
 68       0.000000000000
 69       0.000000000000
 70       0.000000000000
 71       0.000000000000
 72       0.000000000000
 73       0.000000000000
 74       0.000000000000
 75       0.000000000000
 76       0.000000000000
 77       0.000000000000
 78       0.000000000000
 79       0.000000000000
 80       0.000000000000
 81       0.000000000000
 82       0.000000000000
 83       0.000000000000
 84       0.000000000000
 85       0.000000000000
 86       0.000000000000
 87       0.000000000000
 88       0.000000000000
 89       0.000000000000
 90       0.000000000000
 91       0.000000000000
 92       0.000000000000
 93       0.000000000000
 94       0.000000000000
 95       0.000000000000
 96       0.000000000000
 97       0.000000000000
 98       0.000000000000
 99       0.000000000000
100       0.000000000000
101       0.000000000000
102       0.000000000000
103       0.000000000000
104       0.000000000000
105       0.000000000000
106       0.000000000000
107       0.000000000000
108       0.000000000000
109       0.000000000000
110       0.000000000000
111       0.000000000000
112       0.000000000000
113       0.000000000000
114       0.000000000000
115       0.000000000000
116       0.000000000000
117       0.000000000000
118       0.000000000000
119       0.000000000000
120       0.000000000000
121       0.000000000000
122       0.000000000000
123       0.000000000000
124       0.000000000000
125       0.000000000000
126       0.000000000000
127       0.000000000000
128       0.000000000000
129       0.000000000000
130       0.000000000000
131       0.000000000000
132       0.000000000000
133       0.000000000000
134       0.000000000000
135       0.000000000000
136       0.000000000000
137       0.000000000000
138       0.000000000000
139       0.000000000000
140       0.000000000000
141       0.000000000000
142       0.000000000000
143       0.000000000000
144       0.000000000000
145       0.000000000000
146       0.000000000000
147       0.000000000000
148       0.000000000000
149       0.000000000000
150       0.000000000000
151       0.000000000000
152       0.000000000000
153       0.000000000000
154       0.000000000000
155       0.000000000000
156       0.000000000000
157       0.000000000000
158       0.000000000000
159       0.000000000000
160       0.000000000000
161       0.000000000000
162       0.000000000000
163       0.000000000000
164       0.000000000000
165       0.000000000000
166       0.000000000000
167       0.000000000000
168       0.000000000000
169       0.000000000000
170       0.000000000000
171       0.000000000000
172       0.000000000000
173       0.000000000000
174       0.000000000000
175       0.000000000000
176       0.000000000000
177       0.000000000000
178       0.000000000000
 Sym=     1a
 Ene=  2.34813216901918E+00
Spin= Alpha
 Occup= 0.014614
  1       0.235565171231
  2      -0.891426661938
  3       3.123860396590
  4      -3.737546819928
  5       1.482257280673
  6       0.000000000000
  7       0.000000000000
  8       0.000000000000
  9       0.000000000000
 10       0.000000000000
 11       0.000000000000
 12       0.000000000000
 13       0.000000000000
 14       0.000000000000
 15       0.000000000000
 16       0.000000000000
 17       0.000000000000
 18       0.000000000000
 19       0.000000000000
 20       0.000000000000
 21       0.000000000000
 22       0.000000000000
 23       0.000000000000
 24       0.000000000000
 25       0.000000000000
 26       0.000000000000
 27       0.000000000000
 28       0.000000000000
 29       0.000000000000
 30       0.000000000000
 31       0.000000000000
 32       0.000000000000
 33       0.000000000000
 34       0.000000000000
 35       0.000000000000
 36       0.000000000000
 37       0.000000000000
 38       0.000000000000
 39       0.000000000000
 40       0.000000000000
 41       0.000000000000
 42       0.000000000000
 43       0.000000000000
 44       0.000000000000
 45       0.000000000000
 46       0.000000000000
 47       0.000000000000
 48       0.000000000000
 49       0.000000000000
 50       0.000000000000
 51       0.000000000000
 52       0.000000000000
 53       0.000000000000
 54       0.000000000000
 55       0.000000000000
 56       0.000000000000
 57       0.000000000000
 58       0.000000000000
 59       0.000000000000
 60       0.000000000000
 61       0.000000000000
 62       0.000000000000
 63       0.000000000000
 64       0.000000000000
 65       0.000000000000
 66       0.000000000000
 67       0.000000000000
 68       0.000000000000
 69       0.000000000000
 70       0.000000000000
 71       0.000000000000
 72       0.000000000000
 73       0.000000000000
 74       0.000000000000
 75       0.000000000000
 76       0.000000000000
 77       0.000000000000
 78       0.000000000000
 79       0.000000000000
 80       0.000000000000
 81       0.000000000000
 82       0.000000000000
 83       0.000000000000
 84       0.000000000000
 85       0.000000000000
 86       0.000000000000
 87       0.000000000000
 88       0.000000000000
 89       0.000000000000
 90       0.000000000000
 91       0.000000000000
 92       0.000000000000
 93       0.000000000000
 94       0.000000000000
 95       0.000000000000
 96       0.000000000000
 97       0.000000000000
 98       0.000000000000
 99       0.000000000000
100       0.000000000000
101       0.000000000000
102       0.000000000000
103       0.000000000000
104       0.000000000000
105       0.000000000000
106       0.000000000000
107       0.000000000000
108       0.000000000000
109       0.000000000000
110       0.000000000000
111       0.000000000000
112       0.000000000000
113       0.000000000000
114       0.000000000000
115       0.000000000000
116       0.000000000000
117       0.000000000000
118       0.000000000000
119       0.000000000000
120       0.000000000000
121       0.000000000000
122       0.000000000000
123       0.000000000000
124       0.000000000000
125       0.000000000000
126       0.000000000000
127       0.000000000000
128       0.000000000000
129       0.000000000000
130       0.000000000000
131       0.000000000000
132       0.000000000000
133       0.000000000000
134       0.000000000000
135       0.000000000000
136       0.000000000000
137       0.000000000000
138       0.000000000000
139       0.000000000000
140       0.000000000000
141       0.000000000000
142       0.000000000000
143       0.000000000000
144       0.000000000000
145       0.000000000000
146       0.000000000000
147       0.000000000000
148       0.000000000000
149       0.000000000000
150       0.000000000000
151       0.000000000000
152       0.000000000000
153       0.000000000000
154       0.000000000000
155       0.000000000000
156       0.000000000000
157       0.000000000000
158       0.000000000000
159       0.000000000000
160       0.000000000000
161       0.000000000000
162       0.000000000000
163       0.000000000000
164       0.000000000000
165       0.000000000000
166       0.000000000000
167       0.000000000000
168       0.000000000000
169       0.000000000000
170       0.000000000000
171       0.000000000000
172       0.000000000000
173       0.000000000000
174       0.000000000000
175       0.000000000000
176       0.000000000000
177       0.000000000000
178       0.000000000000
 Sym=     1a
 Ene= -4.44104706515473E-01
Spin= Alpha
 Occup= 0.977979
  1       0.060309249615
  2       0.029033146618
  3       0.401920374111
  4      -2.274533371228
  5       2.257911402086
  6       0.000000000000
  7       0.000000000000
  8       0.000000000000
  9       0.000000000000
 10       0.000000000000
 11       0.000000000000
 12       0.000000000000
 13       0.000000000000
 14       0.000000000000
 15       0.000000000000
 16       0.000000000000
 17       0.000000000000
 18       0.000000000000
 19       0.000000000000
 20       0.000000000000
 21       0.000000000000
 22       0.000000000000
 23       0.000000000000
 24       0.000000000000
 25       0.000000000000
 26       0.000000000000
 27       0.000000000000
 28       0.000000000000
 29       0.000000000000
 30       0.000000000000
 31       0.000000000000
 32       0.000000000000
 33       0.000000000000
 34       0.000000000000
 35       0.000000000000
 36       0.000000000000
 37       0.000000000000
 38       0.000000000000
 39       0.000000000000
 40       0.000000000000
 41       0.000000000000
 42       0.000000000000
 43       0.000000000000
 44       0.000000000000
 45       0.000000000000
 46       0.000000000000
 47       0.000000000000
 48       0.000000000000
 49       0.000000000000
 50       0.000000000000
 51       0.000000000000
 52       0.000000000000
 53       0.000000000000
 54       0.000000000000
 55       0.000000000000
 56       0.000000000000
 57       0.000000000000
 58       0.000000000000
 59       0.000000000000
 60       0.000000000000
 61       0.000000000000
 62       0.000000000000
 63       0.000000000000
 64       0.000000000000
 65       0.000000000000
 66       0.000000000000
 67       0.000000000000
 68       0.000000000000
 69       0.000000000000
 70       0.000000000000
 71       0.000000000000
 72       0.000000000000
 73       0.000000000000
 74       0.000000000000
 75       0.000000000000
 76       0.000000000000
 77       0.000000000000
 78       0.000000000000
 79       0.000000000000
 80       0.000000000000
 81       0.000000000000
 82       0.000000000000
 83       0.000000000000
 84       0.000000000000
 85       0.000000000000
 86       0.000000000000
 87       0.000000000000
 88       0.000000000000
 89       0.000000000000
 90       0.000000000000
 91       0.000000000000
 92       0.000000000000
 93       0.000000000000
 94       0.000000000000
 95       0.000000000000
 96       0.000000000000
 97       0.000000000000
 98       0.000000000000
 99       0.000000000000
100       0.000000000000
101       0.000000000000
102       0.000000000000
103       0.000000000000
104       0.000000000000
105       0.000000000000
106       0.000000000000
107       0.000000000000
108       0.000000000000
109       0.000000000000
110       0.000000000000
111       0.000000000000
112       0.000000000000
113       0.000000000000
114       0.000000000000
115       0.000000000000
116       0.000000000000
117       0.000000000000
118       0.000000000000
119       0.000000000000
120       0.000000000000
121       0.000000000000
122       0.000000000000
123       0.000000000000
124       0.000000000000
125       0.000000000000
126       0.000000000000
127       0.000000000000
128       0.000000000000
129       0.000000000000
130       0.000000000000
131       0.000000000000
132       0.000000000000
133       0.000000000000
134       0.000000000000
135       0.000000000000
136       0.000000000000
137       0.000000000000
138       0.000000000000
139       0.000000000000
140       0.000000000000
141       0.000000000000
142       0.000000000000
143       0.000000000000
144       0.000000000000
145       0.000000000000
146       0.000000000000
147       0.000000000000
148       0.000000000000
149       0.000000000000
150       0.000000000000
151       0.000000000000
152       0.000000000000
153       0.000000000000
154       0.000000000000
155       0.000000000000
156       0.000000000000
157       0.000000000000
158       0.000000000000
159       0.000000000000
160       0.000000000000
161       0.000000000000
162       0.000000000000
163       0.000000000000
164       0.000000000000
165       0.000000000000
166       0.000000000000
167       0.000000000000
168       0.000000000000
169       0.000000000000
170       0.000000000000
171       0.000000000000
172       0.000000000000
173       0.000000000000
174       0.000000000000
175       0.000000000000
176       0.000000000000
177       0.000000000000
178       0.000000000000
 Sym=     1a
 Ene= -1.09944152180271E+00
Spin= Alpha
 Occup= 1.884111
  1       0.109202556656
  2       0.174441961882
  3      -0.030133728980
  4      -1.077351594912
  5       0.081448900421
  6       0.000000000000
  7       0.000000000000
  8       0.000000000000
  9       0.000000000000
 10       0.000000000000
 11       0.000000000000
 12       0.000000000000
 13       0.000000000000
 14       0.000000000000
 15       0.000000000000
 16       0.000000000000
 17       0.000000000000
 18       0.000000000000
 19       0.000000000000
 20       0.000000000000
 21       0.000000000000
 22       0.000000000000
 23       0.000000000000
 24       0.000000000000
 25       0.000000000000
 26       0.000000000000
 27       0.000000000000
 28       0.000000000000
 29       0.000000000000
 30       0.000000000000
 31       0.000000000000
 32       0.000000000000
 33       0.000000000000
 34       0.000000000000
 35       0.000000000000
 36       0.000000000000
 37       0.000000000000
 38       0.000000000000
 39       0.000000000000
 40       0.000000000000
 41       0.000000000000
 42       0.000000000000
 43       0.000000000000
 44       0.000000000000
 45       0.000000000000
 46       0.000000000000
 47       0.000000000000
 48       0.000000000000
 49       0.000000000000
 50       0.000000000000
 51       0.000000000000
 52       0.000000000000
 53       0.000000000000
 54       0.000000000000
 55       0.000000000000
 56       0.000000000000
 57       0.000000000000
 58       0.000000000000
 59       0.000000000000
 60       0.000000000000
 61       0.000000000000
 62       0.000000000000
 63       0.000000000000
 64       0.000000000000
 65       0.000000000000
 66       0.000000000000
 67       0.000000000000
 68       0.000000000000
 69       0.000000000000
 70       0.000000000000
 71       0.000000000000
 72       0.000000000000
 73       0.000000000000
 74       0.000000000000
 75       0.000000000000
 76       0.000000000000
 77       0.000000000000
 78       0.000000000000
 79       0.000000000000
 80       0.000000000000
 81       0.000000000000
 82       0.000000000000
 83       0.000000000000
 84       0.000000000000
 85       0.000000000000
 86       0.000000000000
 87       0.000000000000
 88       0.000000000000
 89       0.000000000000
 90       0.000000000000
 91       0.000000000000
 92       0.000000000000
 93       0.000000000000
 94       0.000000000000
 95       0.000000000000
 96       0.000000000000
 97       0.000000000000
 98       0.000000000000
 99       0.000000000000
100       0.000000000000
101       0.000000000000
102       0.000000000000
103       0.000000000000
104       0.000000000000
105       0.000000000000
106       0.000000000000
107       0.000000000000
108       0.000000000000
109       0.000000000000
110       0.000000000000
111       0.000000000000
112       0.000000000000
113       0.000000000000
114       0.000000000000
115       0.000000000000
116       0.000000000000
117       0.000000000000
118       0.000000000000
119       0.000000000000
120       0.000000000000
121       0.000000000000
122       0.000000000000
123       0.000000000000
124       0.000000000000
125       0.000000000000
126       0.000000000000
127       0.000000000000
128       0.000000000000
129       0.000000000000
130       0.000000000000
131       0.000000000000
132       0.000000000000
133       0.000000000000
134       0.000000000000
135       0.000000000000
136       0.000000000000
137       0.000000000000
138       0.000000000000
139       0.000000000000
140       0.000000000000
141       0.000000000000
142       0.000000000000
143       0.000000000000
144       0.000000000000
145       0.000000000000
146       0.000000000000
147       0.000000000000
148       0.000000000000
149       0.000000000000
150       0.000000000000
151       0.000000000000
152       0.000000000000
153       0.000000000000
154       0.000000000000
155       0.000000000000
156       0.000000000000
157       0.000000000000
158       0.000000000000
159       0.000000000000
160       0.000000000000
161       0.000000000000
162       0.000000000000
163       0.000000000000
164       0.000000000000
165       0.000000000000
166       0.000000000000
167       0.000000000000
168       0.000000000000
169       0.000000000000
170       0.000000000000
171       0.000000000000
172       0.000000000000
173       0.000000000000
174       0.000000000000
175       0.000000000000
176       0.000000000000
177       0.000000000000
178       0.000000000000
 Sym=     1a
 Ene= -1.06117258896543E+01
Spin= Alpha
 Occup= 1.999991
  1      -0.467597487717
  2      -0.610260902290
  3      -0.029955356056
  4       0.019038090200
  5      -0.005823897705
  6       0.000000000000
  7       0.000000000000
  8       0.000000000000
  9       0.000000000000
 10       0.000000000000
 11       0.000000000000
 12       0.000000000000
 13       0.000000000000
 14       0.000000000000
 15       0.000000000000
 16       0.000000000000
 17       0.000000000000
 18       0.000000000000
 19       0.000000000000
 20       0.000000000000
 21       0.000000000000
 22       0.000000000000
 23       0.000000000000
 24       0.000000000000
 25       0.000000000000
 26       0.000000000000
 27       0.000000000000
 28       0.000000000000
 29       0.000000000000
 30       0.000000000000
 31       0.000000000000
 32       0.000000000000
 33       0.000000000000
 34       0.000000000000
 35       0.000000000000
 36       0.000000000000
 37       0.000000000000
 38       0.000000000000
 39       0.000000000000
 40       0.000000000000
 41       0.000000000000
 42       0.000000000000
 43       0.000000000000
 44       0.000000000000
 45       0.000000000000
 46       0.000000000000
 47       0.000000000000
 48       0.000000000000
 49       0.000000000000
 50       0.000000000000
 51       0.000000000000
 52       0.000000000000
 53       0.000000000000
 54       0.000000000000
 55       0.000000000000
 56       0.000000000000
 57       0.000000000000
 58       0.000000000000
 59       0.000000000000
 60       0.000000000000
 61       0.000000000000
 62       0.000000000000
 63       0.000000000000
 64       0.000000000000
 65       0.000000000000
 66       0.000000000000
 67       0.000000000000
 68       0.000000000000
 69       0.000000000000
 70       0.000000000000
 71       0.000000000000
 72       0.000000000000
 73       0.000000000000
 74       0.000000000000
 75       0.000000000000
 76       0.000000000000
 77       0.000000000000
 78       0.000000000000
 79       0.000000000000
 80       0.000000000000
 81       0.000000000000
 82       0.000000000000
 83       0.000000000000
 84       0.000000000000
 85       0.000000000000
 86       0.000000000000
 87       0.000000000000
 88       0.000000000000
 89       0.000000000000
 90       0.000000000000
 91       0.000000000000
 92       0.000000000000
 93       0.000000000000
 94       0.000000000000
 95       0.000000000000
 96       0.000000000000
 97       0.000000000000
 98       0.000000000000
 99       0.000000000000
100       0.000000000000
101       0.000000000000
102       0.000000000000
103       0.000000000000
104       0.000000000000
105       0.000000000000
106       0.000000000000
107       0.000000000000
108       0.000000000000
109       0.000000000000
110       0.000000000000
111       0.000000000000
112       0.000000000000
113       0.000000000000
114       0.000000000000
115       0.000000000000
116       0.000000000000
117       0.000000000000
118       0.000000000000
119       0.000000000000
120       0.000000000000
121       0.000000000000
122       0.000000000000
123       0.000000000000
124       0.000000000000
125       0.000000000000
126       0.000000000000
127       0.000000000000
128       0.000000000000
129       0.000000000000
130       0.000000000000
131       0.000000000000
132       0.000000000000
133       0.000000000000
134       0.000000000000
135       0.000000000000
136       0.000000000000
137       0.000000000000
138       0.000000000000
139       0.000000000000
140       0.000000000000
141       0.000000000000
142       0.000000000000
143       0.000000000000
144       0.000000000000
145       0.000000000000
146       0.000000000000
147       0.000000000000
148       0.000000000000
149       0.000000000000
150       0.000000000000
151       0.000000000000
152       0.000000000000
153       0.000000000000
154       0.000000000000
155       0.000000000000
156       0.000000000000
157       0.000000000000
158       0.000000000000
159       0.000000000000
160       0.000000000000
161       0.000000000000
162       0.000000000000
163       0.000000000000
164       0.000000000000
165       0.000000000000
166       0.000000000000
167       0.000000000000
168       0.000000000000
169       0.000000000000
170       0.000000000000
171       0.000000000000
172       0.000000000000
173       0.000000000000
174       0.000000000000
175       0.000000000000
176       0.000000000000
177       0.000000000000
178       0.000000000000
 Sym=     1a
 Ene=  9.73369816439881E-01
Spin= Alpha
 Occup= 0.009128
  1       0.000000000000
  2       0.000000000000
  3       0.000000000000
  4       0.000000000000
  5       0.000000000000
  6      -1.350609270145
  7       0.000000000000
  8       0.000000000000
  9       1.440767690465
 10       0.000000000000
 11       0.000000000000
 12      -0.600637817948
 13       0.000000000000
 14       0.000000000000
 15       0.000000000000
 16       0.000000000000
 17       0.000000000000
 18       0.000000000000
 19       0.000000000000
 20       0.000000000000
 21       0.000000000000
 22       0.000000000000
 23       0.000000000000
 24       0.000000000000
 25       0.000000000000
 26       0.000000000000
 27       0.000000000000
 28       0.000000000000
 29       0.000000000000
 30       0.000000000000
 31       0.000000000000
 32       0.000000000000
 33       0.000000000000
 34       0.000000000000
 35       0.000000000000
 36       0.000000000000
 37       0.000000000000
 38       0.000000000000
 39       0.000000000000
 40       0.000000000000
 41       0.000000000000
 42       0.000000000000
 43       0.000000000000
 44       0.000000000000
 45       0.000000000000
 46       0.000000000000
 47       0.000000000000
 48       0.000000000000
 49       0.000000000000
 50       0.000000000000
 51       0.000000000000
 52       0.000000000000
 53       0.000000000000
 54       0.000000000000
 55       0.000000000000
 56       0.000000000000
 57       0.000000000000
 58       0.000000000000
 59       0.000000000000
 60       0.000000000000
 61       0.000000000000
 62       0.000000000000
 63       0.000000000000
 64       0.000000000000
 65       0.000000000000
 66       0.000000000000
 67       0.000000000000
 68       0.000000000000
 69       0.000000000000
 70       0.000000000000
 71       0.000000000000
 72       0.000000000000
 73       0.000000000000
 74       0.000000000000
 75       0.000000000000
 76       0.000000000000
 77       0.000000000000
 78       0.000000000000
 79       0.000000000000
 80       0.000000000000
 81       0.000000000000
 82       0.000000000000
 83       0.000000000000
 84       0.000000000000
 85       0.000000000000
 86       0.000000000000
 87       0.000000000000
 88       0.000000000000
 89       0.000000000000
 90       0.000000000000
 91       0.000000000000
 92       0.000000000000
 93       0.000000000000
 94       0.000000000000
 95       0.000000000000
 96       0.000000000000
 97       0.000000000000
 98       0.000000000000
 99       0.000000000000
100       0.000000000000
101       0.000000000000
102       0.000000000000
103       0.000000000000
104       0.000000000000
105       0.000000000000
106       0.000000000000
107       0.000000000000
108       0.000000000000
109       0.000000000000
110       0.000000000000
111       0.000000000000
112       0.000000000000
113       0.000000000000
114       0.000000000000
115       0.000000000000
116       0.000000000000
117       0.000000000000
118       0.000000000000
119       0.000000000000
120       0.000000000000
121       0.000000000000
122       0.000000000000
123       0.000000000000
124       0.000000000000
125       0.000000000000
126       0.000000000000
127       0.000000000000
128       0.000000000000
129       0.000000000000
130       0.000000000000
131       0.000000000000
132       0.000000000000
133       0.000000000000
134       0.000000000000
135       0.000000000000
136       0.000000000000
137       0.000000000000
138       0.000000000000
139       0.000000000000
140       0.000000000000
141       0.000000000000
142       0.000000000000
143       0.000000000000
144       0.000000000000
145       0.000000000000
146       0.000000000000
147       0.000000000000
148       0.000000000000
149       0.000000000000
150       0.000000000000
151       0.000000000000
152       0.000000000000
153       0.000000000000
154       0.000000000000
155       0.000000000000
156       0.000000000000
157       0.000000000000
158       0.000000000000
159       0.000000000000
160       0.000000000000
161       0.000000000000
162       0.000000000000
163       0.000000000000
164       0.000000000000
165       0.000000000000
166       0.000000000000
167       0.000000000000
168       0.000000000000
169       0.000000000000
170       0.000000000000
171       0.000000000000
172       0.000000000000
173       0.000000000000
174       0.000000000000
175       0.000000000000
176       0.000000000000
177       0.000000000000
178       0.000000000000
 Sym=     1a
 Ene=  1.12818233007065E+00
Spin= Alpha
 Occup= 0.009128
  1       0.000000000000
  2       0.000000000000
  3       0.000000000000
  4       0.000000000000
  5       0.000000000000
  6       0.000000000000
  7      -1.350609270145
  8       0.000000000000
  9       0.000000000000
 10       1.440767690465
 11       0.000000000000
 12       0.000000000000
 13      -0.600637817948
 14       0.000000000000
 15       0.000000000000
 16       0.000000000000
 17       0.000000000000
 18       0.000000000000
 19       0.000000000000
 20       0.000000000000
 21       0.000000000000
 22       0.000000000000
 23       0.000000000000
 24       0.000000000000
 25       0.000000000000
 26       0.000000000000
 27       0.000000000000
 28       0.000000000000
 29       0.000000000000
 30       0.000000000000
 31       0.000000000000
 32       0.000000000000
 33       0.000000000000
 34       0.000000000000
 35       0.000000000000
 36       0.000000000000
 37       0.000000000000
 38       0.000000000000
 39       0.000000000000
 40       0.000000000000
 41       0.000000000000
 42       0.000000000000
 43       0.000000000000
 44       0.000000000000
 45       0.000000000000
 46       0.000000000000
 47       0.000000000000
 48       0.000000000000
 49       0.000000000000
 50       0.000000000000
 51       0.000000000000
 52       0.000000000000
 53       0.000000000000
 54       0.000000000000
 55       0.000000000000
 56       0.000000000000
 57       0.000000000000
 58       0.000000000000
 59       0.000000000000
 60       0.000000000000
 61       0.000000000000
 62       0.000000000000
 63       0.000000000000
 64       0.000000000000
 65       0.000000000000
 66       0.000000000000
 67       0.000000000000
 68       0.000000000000
 69       0.000000000000
 70       0.000000000000
 71       0.000000000000
 72       0.000000000000
 73       0.000000000000
 74       0.000000000000
 75       0.000000000000
 76       0.000000000000
 77       0.000000000000
 78       0.000000000000
 79       0.000000000000
 80       0.000000000000
 81       0.000000000000
 82       0.000000000000
 83       0.000000000000
 84       0.000000000000
 85       0.000000000000
 86       0.000000000000
 87       0.000000000000
 88       0.000000000000
 89       0.000000000000
 90       0.000000000000
 91       0.000000000000
 92       0.000000000000
 93       0.000000000000
 94       0.000000000000
 95       0.000000000000
 96       0.000000000000
 97       0.000000000000
 98       0.000000000000
 99       0.000000000000
100       0.000000000000
101       0.000000000000
102       0.000000000000
103       0.000000000000
104       0.000000000000
105       0.000000000000
106       0.000000000000
107       0.000000000000
108       0.000000000000
109       0.000000000000
110       0.000000000000
111       0.000000000000
112       0.000000000000
113       0.000000000000
114       0.000000000000
115       0.000000000000
116       0.000000000000
117       0.000000000000
118       0.000000000000
119       0.000000000000
120       0.000000000000
121       0.000000000000
122       0.000000000000
123       0.000000000000
124       0.000000000000
125       0.000000000000
126       0.000000000000
127       0.000000000000
128       0.000000000000
129       0.000000000000
130       0.000000000000
131       0.000000000000
132       0.000000000000
133       0.000000000000
134       0.000000000000
135       0.000000000000
136       0.000000000000
137       0.000000000000
138       0.000000000000
139       0.000000000000
140       0.000000000000
141       0.000000000000
142       0.000000000000
143       0.000000000000
144       0.000000000000
145       0.000000000000
146       0.000000000000
147       0.000000000000
148       0.000000000000
149       0.000000000000
150       0.000000000000
151       0.000000000000
152       0.000000000000
153       0.000000000000
154       0.000000000000
155       0.000000000000
156       0.000000000000
157       0.000000000000
158       0.000000000000
159       0.000000000000
160       0.000000000000
161       0.000000000000
162       0.000000000000
163       0.000000000000
164       0.000000000000
165       0.000000000000
166       0.000000000000
167       0.000000000000
168       0.000000000000
169       0.000000000000
170       0.000000000000
171       0.000000000000
172       0.000000000000
173       0.000000000000
174       0.000000000000
175       0.000000000000
176       0.000000000000
177       0.000000000000
178       0.000000000000
 Sym=     1a
 Ene=  9.97118358778248E-01
Spin= Alpha
 Occup= 0.009128
  1       0.000000000000
  2       0.000000000000
  3       0.000000000000
  4       0.000000000000
  5       0.000000000000
  6       0.000000000000
  7       0.000000000000
  8      -1.350609270145
  9       0.000000000000
 10       0.000000000000
 11       1.440767690465
 12       0.000000000000
 13       0.000000000000
 14      -0.600637817948
 15       0.000000000000
 16       0.000000000000
 17       0.000000000000
 18       0.000000000000
 19       0.000000000000
 20       0.000000000000
 21       0.000000000000
 22       0.000000000000
 23       0.000000000000
 24       0.000000000000
 25       0.000000000000
 26       0.000000000000
 27       0.000000000000
 28       0.000000000000
 29       0.000000000000
 30       0.000000000000
 31       0.000000000000
 32       0.000000000000
 33       0.000000000000
 34       0.000000000000
 35       0.000000000000
 36       0.000000000000
 37       0.000000000000
 38       0.000000000000
 39       0.000000000000
 40       0.000000000000
 41       0.000000000000
 42       0.000000000000
 43       0.000000000000
 44       0.000000000000
 45       0.000000000000
 46       0.000000000000
 47       0.000000000000
 48       0.000000000000
 49       0.000000000000
 50       0.000000000000
 51       0.000000000000
 52       0.000000000000
 53       0.000000000000
 54       0.000000000000
 55       0.000000000000
 56       0.000000000000
 57       0.000000000000
 58       0.000000000000
 59       0.000000000000
 60       0.000000000000
 61       0.000000000000
 62       0.000000000000
 63       0.000000000000
 64       0.000000000000
 65       0.000000000000
 66       0.000000000000
 67       0.000000000000
 68       0.000000000000
 69       0.000000000000
 70       0.000000000000
 71       0.000000000000
 72       0.000000000000
 73       0.000000000000
 74       0.000000000000
 75       0.000000000000
 76       0.000000000000
 77       0.000000000000
 78       0.000000000000
 79       0.000000000000
 80       0.000000000000
 81       0.000000000000
 82       0.000000000000
 83       0.000000000000
 84       0.000000000000
 85       0.000000000000
 86       0.000000000000
 87       0.000000000000
 88       0.000000000000
 89       0.000000000000
 90       0.000000000000
 91       0.000000000000
 92       0.000000000000
 93       0.000000000000
 94       0.000000000000
 95       0.000000000000
 96       0.000000000000
 97       0.000000000000
 98       0.000000000000
 99       0.000000000000
100       0.000000000000
101       0.000000000000
102       0.000000000000
103       0.000000000000
104       0.000000000000
105       0.000000000000
106       0.000000000000
107       0.000000000000
108       0.000000000000
109       0.000000000000
110       0.000000000000
111       0.000000000000
112       0.000000000000
113       0.000000000000
114       0.000000000000
115       0.000000000000
116       0.000000000000
117       0.000000000000
118       0.000000000000
119       0.000000000000
120       0.000000000000
121       0.000000000000
122       0.000000000000
123       0.000000000000
124       0.000000000000
125       0.000000000000
126       0.000000000000
127       0.000000000000
128       0.000000000000
129       0.000000000000
130       0.000000000000
131       0.000000000000
132       0.000000000000
133       0.000000000000
134       0.000000000000
135       0.000000000000
136       0.000000000000
137       0.000000000000
138       0.000000000000
139       0.000000000000
140       0.000000000000
141       0.000000000000
142       0.000000000000
143       0.000000000000
144       0.000000000000
145       0.000000000000
146       0.000000000000
147       0.000000000000
148       0.000000000000
149       0.000000000000
150       0.000000000000
151       0.000000000000
152       0.000000000000
153       0.000000000000
154       0.000000000000
155       0.000000000000
156       0.000000000000
157       0.000000000000
158       0.000000000000
159       0.000000000000
160       0.000000000000
161       0.000000000000
162       0.000000000000
163       0.000000000000
164       0.000000000000
165       0.000000000000
166       0.000000000000
167       0.000000000000
168       0.000000000000
169       0.000000000000
170       0.000000000000
171       0.000000000000
172       0.000000000000
173       0.000000000000
174       0.000000000000
175       0.000000000000
176       0.000000000000
177       0.000000000000
178       0.000000000000
 Sym=     1a
 Ene= -3.41979068156970E-01
Spin= Alpha
 Occup= 0.854874
  1       0.000000000000
  2       0.000000000000
  3       0.000000000000
  4       0.000000000000
  5       0.000000000000
  6      -0.120198731113
  7       0.000000000000
  8       0.000000000000
  9      -1.133446681476
 10       0.000000000000
 11       0.000000000000
 12       1.334808531748
 13       0.000000000000
 14       0.000000000000
 15       0.000000000000
 16       0.000000000000
 17       0.000000000000
 18       0.000000000000
 19       0.000000000000
 20       0.000000000000
 21       0.000000000000
 22       0.000000000000
 23       0.000000000000
 24       0.000000000000
 25       0.000000000000
 26       0.000000000000
 27       0.000000000000
 28       0.000000000000
 29       0.000000000000
 30       0.000000000000
 31       0.000000000000
 32       0.000000000000
 33       0.000000000000
 34       0.000000000000
 35       0.000000000000
 36       0.000000000000
 37       0.000000000000
 38       0.000000000000
 39       0.000000000000
 40       0.000000000000
 41       0.000000000000
 42       0.000000000000
 43       0.000000000000
 44       0.000000000000
 45       0.000000000000
 46       0.000000000000
 47       0.000000000000
 48       0.000000000000
 49       0.000000000000
 50       0.000000000000
 51       0.000000000000
 52       0.000000000000
 53       0.000000000000
 54       0.000000000000
 55       0.000000000000
 56       0.000000000000
 57       0.000000000000
 58       0.000000000000
 59       0.000000000000
 60       0.000000000000
 61       0.000000000000
 62       0.000000000000
 63       0.000000000000
 64       0.000000000000
 65       0.000000000000
 66       0.000000000000
 67       0.000000000000
 68       0.000000000000
 69       0.000000000000
 70       0.000000000000
 71       0.000000000000
 72       0.000000000000
 73       0.000000000000
 74       0.000000000000
 75       0.000000000000
 76       0.000000000000
 77       0.000000000000
 78       0.000000000000
 79       0.000000000000
 80       0.000000000000
 81       0.000000000000
 82       0.000000000000
 83       0.000000000000
 84       0.000000000000
 85       0.000000000000
 86       0.000000000000
 87       0.000000000000
 88       0.000000000000
 89       0.000000000000
 90       0.000000000000
 91       0.000000000000
 92       0.000000000000
 93       0.000000000000
 94       0.000000000000
 95       0.000000000000
 96       0.000000000000
 97       0.000000000000
 98       0.000000000000
 99       0.000000000000
100       0.000000000000
101       0.000000000000
102       0.000000000000
103       0.000000000000
104       0.000000000000
105       0.000000000000
106       0.000000000000
107       0.000000000000
108       0.000000000000
109       0.000000000000
110       0.000000000000
111       0.000000000000
112       0.000000000000
113       0.000000000000
114       0.000000000000
115       0.000000000000
116       0.000000000000
117       0.000000000000
118       0.000000000000
119       0.000000000000
120       0.000000000000
121       0.000000000000
122       0.000000000000
123       0.000000000000
124       0.000000000000
125       0.000000000000
126       0.000000000000
127       0.000000000000
128       0.000000000000
129       0.000000000000
130       0.000000000000
131       0.000000000000
132       0.000000000000
133       0.000000000000
134       0.000000000000
135       0.000000000000
136       0.000000000000
137       0.000000000000
138       0.000000000000
139       0.000000000000
140       0.000000000000
141       0.000000000000
142       0.000000000000
143       0.000000000000
144       0.000000000000
145       0.000000000000
146       0.000000000000
147       0.000000000000
148       0.000000000000
149       0.000000000000
150       0.000000000000
151       0.000000000000
152       0.000000000000
153       0.000000000000
154       0.000000000000
155       0.000000000000
156       0.000000000000
157       0.000000000000
158       0.000000000000
159       0.000000000000
160       0.000000000000
161       0.000000000000
162       0.000000000000
163       0.000000000000
164       0.000000000000
165       0.000000000000
166       0.000000000000
167       0.000000000000
168       0.000000000000
169       0.000000000000
170       0.000000000000
171       0.000000000000
172       0.000000000000
173       0.000000000000
174       0.000000000000
175       0.000000000000
176       0.000000000000
177       0.000000000000
178       0.000000000000
 Sym=     1a
 Ene= -1.63788045860361E-02
Spin= Alpha
 Occup= 0.854874
  1       0.000000000000
  2       0.000000000000
  3       0.000000000000
  4       0.000000000000
  5       0.000000000000
  6       0.000000000000
  7      -0.120198731113
  8       0.000000000000
  9       0.000000000000
 10      -1.133446681476
 11       0.000000000000
 12       0.000000000000
 13       1.334808531748
 14       0.000000000000
 15       0.000000000000
 16       0.000000000000
 17       0.000000000000
 18       0.000000000000
 19       0.000000000000
 20       0.000000000000
 21       0.000000000000
 22       0.000000000000
 23       0.000000000000
 24       0.000000000000
 25       0.000000000000
 26       0.000000000000
 27       0.000000000000
 28       0.000000000000
 29       0.000000000000
 30       0.000000000000
 31       0.000000000000
 32       0.000000000000
 33       0.000000000000
 34       0.000000000000
 35       0.000000000000
 36       0.000000000000
 37       0.000000000000
 38       0.000000000000
 39       0.000000000000
 40       0.000000000000
 41       0.000000000000
 42       0.000000000000
 43       0.000000000000
 44       0.000000000000
 45       0.000000000000
 46       0.000000000000
 47       0.000000000000
 48       0.000000000000
 49       0.000000000000
 50       0.000000000000
 51       0.000000000000
 52       0.000000000000
 53       0.000000000000
 54       0.000000000000
 55       0.000000000000
 56       0.000000000000
 57       0.000000000000
 58       0.000000000000
 59       0.000000000000
 60       0.000000000000
 61       0.000000000000
 62       0.000000000000
 63       0.000000000000
 64       0.000000000000
 65       0.000000000000
 66       0.000000000000
 67       0.000000000000
 68       0.000000000000
 69       0.000000000000
 70       0.000000000000
 71       0.000000000000
 72       0.000000000000
 73       0.000000000000
 74       0.000000000000
 75       0.000000000000
 76       0.000000000000
 77       0.000000000000
 78       0.000000000000
 79       0.000000000000
 80       0.000000000000
 81       0.000000000000
 82       0.000000000000
 83       0.000000000000
 84       0.000000000000
 85       0.000000000000
 86       0.000000000000
 87       0.000000000000
 88       0.000000000000
 89       0.000000000000
 90       0.000000000000
 91       0.000000000000
 92       0.000000000000
 93       0.000000000000
 94       0.000000000000
 95       0.000000000000
 96       0.000000000000
 97       0.000000000000
 98       0.000000000000
 99       0.000000000000
100       0.000000000000
101       0.000000000000
102       0.000000000000
103       0.000000000000
104       0.000000000000
105       0.000000000000
106       0.000000000000
107       0.000000000000
108       0.000000000000
109       0.000000000000
110       0.000000000000
111       0.000000000000
112       0.000000000000
113       0.000000000000
114       0.000000000000
115       0.000000000000
116       0.000000000000
117       0.000000000000
118       0.000000000000
119       0.000000000000
120       0.000000000000
121       0.000000000000
122       0.000000000000
123       0.000000000000
124       0.000000000000
125       0.000000000000
126       0.000000000000
127       0.000000000000
128       0.000000000000
129       0.000000000000
130       0.000000000000
131       0.000000000000
132       0.000000000000
133       0.000000000000
134       0.000000000000
135       0.000000000000
136       0.000000000000
137       0.000000000000
138       0.000000000000
139       0.000000000000
140       0.000000000000
141       0.000000000000
142       0.000000000000
143       0.000000000000
144       0.000000000000
145       0.000000000000
146       0.000000000000
147       0.000000000000
148       0.000000000000
149       0.000000000000
150       0.000000000000
151       0.000000000000
152       0.000000000000
153       0.000000000000
154       0.000000000000
155       0.000000000000
156       0.000000000000
157       0.000000000000
158       0.000000000000
159       0.000000000000
160       0.000000000000
161       0.000000000000
162       0.000000000000
163       0.000000000000
164       0.000000000000
165       0.000000000000
166       0.000000000000
167       0.000000000000
168       0.000000000000
169       0.000000000000
170       0.000000000000
171       0.000000000000
172       0.000000000000
173       0.000000000000
174       0.000000000000
175       0.000000000000
176       0.000000000000
177       0.000000000000
178       0.000000000000
 Sym=     1a
 Ene= -2.91850454019362E-01
Spin= Alpha
 Occup= 0.854874
  1       0.000000000000
  2       0.000000000000
  3       0.000000000000
  4       0.000000000000
  5       0.000000000000
  6       0.000000000000
  7       0.000000000000
  8      -0.120198731113
  9       0.000000000000
 10       0.000000000000
 11      -1.133446681476
 12       0.000000000000
 13       0.000000000000
 14       1.334808531748
 15       0.000000000000
 16       0.000000000000
 17       0.000000000000
 18       0.000000000000
 19       0.000000000000
 20       0.000000000000
 21       0.000000000000
 22       0.000000000000
 23       0.000000000000
 24       0.000000000000
 25       0.000000000000
 26       0.000000000000
 27       0.000000000000
 28       0.000000000000
 29       0.000000000000
 30       0.000000000000
 31       0.000000000000
 32       0.000000000000
 33       0.000000000000
 34       0.000000000000
 35       0.000000000000
 36       0.000000000000
 37       0.000000000000
 38       0.000000000000
 39       0.000000000000
 40       0.000000000000
 41       0.000000000000
 42       0.000000000000
 43       0.000000000000
 44       0.000000000000
 45       0.000000000000
 46       0.000000000000
 47       0.000000000000
 48       0.000000000000
 49       0.000000000000
 50       0.000000000000
 51       0.000000000000
 52       0.000000000000
 53       0.000000000000
 54       0.000000000000
 55       0.000000000000
 56       0.000000000000
 57       0.000000000000
 58       0.000000000000
 59       0.000000000000
 60       0.000000000000
 61       0.000000000000
 62       0.000000000000
 63       0.000000000000
 64       0.000000000000
 65       0.000000000000
 66       0.000000000000
 67       0.000000000000
 68       0.000000000000
 69       0.000000000000
 70       0.000000000000
 71       0.000000000000
 72       0.000000000000
 73       0.000000000000
 74       0.000000000000
 75       0.000000000000
 76       0.000000000000
 77       0.000000000000
 78       0.000000000000
 79       0.000000000000
 80       0.000000000000
 81       0.000000000000
 82       0.000000000000
 83       0.000000000000
 84       0.000000000000
 85       0.000000000000
 86       0.000000000000
 87       0.000000000000
 88       0.000000000000
 89       0.000000000000
 90       0.000000000000
 91       0.000000000000
 92       0.000000000000
 93       0.000000000000
 94       0.000000000000
 95       0.000000000000
 96       0.000000000000
 97       0.000000000000
 98       0.000000000000
 99       0.000000000000
100       0.000000000000
101       0.000000000000
102       0.000000000000
103       0.000000000000
104       0.000000000000
105       0.000000000000
106       0.000000000000
107       0.000000000000
108       0.000000000000
109       0.000000000000
110       0.000000000000
111       0.000000000000
112       0.000000000000
113       0.000000000000
114       0.000000000000
115       0.000000000000
116       0.000000000000
117       0.000000000000
118       0.000000000000
119       0.000000000000
120       0.000000000000
121       0.000000000000
122       0.000000000000
123       0.000000000000
124       0.000000000000
125       0.000000000000
126       0.000000000000
127       0.000000000000
128       0.000000000000
129       0.000000000000
130       0.000000000000
131       0.000000000000
132       0.000000000000
133       0.000000000000
134       0.000000000000
135       0.000000000000
136       0.000000000000
137       0.000000000000
138       0.000000000000
139       0.000000000000
140       0.000000000000
141       0.000000000000
142       0.000000000000
143       0.000000000000
144       0.000000000000
145       0.000000000000
146       0.000000000000
147       0.000000000000
148       0.000000000000
149       0.000000000000
150       0.000000000000
151       0.000000000000
152       0.000000000000
153       0.000000000000
154       0.000000000000
155       0.000000000000
156       0.000000000000
157       0.000000000000
158       0.000000000000
159       0.000000000000
160       0.000000000000
161       0.000000000000
162       0.000000000000
163       0.000000000000
164       0.000000000000
165       0.000000000000
166       0.000000000000
167       0.000000000000
168       0.000000000000
169       0.000000000000
170       0.000000000000
171       0.000000000000
172       0.000000000000
173       0.000000000000
174       0.000000000000
175       0.000000000000
176       0.000000000000
177       0.000000000000
178       0.000000000000
 Sym=     1a
 Ene= -9.52334663623996E-01
Spin= Alpha
 Occup= 1.525555
  1       0.000000000000
  2       0.000000000000
  3       0.000000000000
  4       0.000000000000
  5       0.000000000000
  6       0.201473706519
  7       0.000000000000
  8       0.000000000000
  9       0.500494448121
 10       0.000000000000
 11       0.000000000000
 12       0.456207807129
 13       0.000000000000
 14       0.000000000000
 15       0.000000000000
 16       0.000000000000
 17       0.000000000000
 18       0.000000000000
 19       0.000000000000
 20       0.000000000000
 21       0.000000000000
 22       0.000000000000
 23       0.000000000000
 24       0.000000000000
 25       0.000000000000
 26       0.000000000000
 27       0.000000000000
 28       0.000000000000
 29       0.000000000000
 30       0.000000000000
 31       0.000000000000
 32       0.000000000000
 33       0.000000000000
 34       0.000000000000
 35       0.000000000000
 36       0.000000000000
 37       0.000000000000
 38       0.000000000000
 39       0.000000000000
 40       0.000000000000
 41       0.000000000000
 42       0.000000000000
 43       0.000000000000
 44       0.000000000000
 45       0.000000000000
 46       0.000000000000
 47       0.000000000000
 48       0.000000000000
 49       0.000000000000
 50       0.000000000000
 51       0.000000000000
 52       0.000000000000
 53       0.000000000000
 54       0.000000000000
 55       0.000000000000
 56       0.000000000000
 57       0.000000000000
 58       0.000000000000
 59       0.000000000000
 60       0.000000000000
 61       0.000000000000
 62       0.000000000000
 63       0.000000000000
 64       0.000000000000
 65       0.000000000000
 66       0.000000000000
 67       0.000000000000
 68       0.000000000000
 69       0.000000000000
 70       0.000000000000
 71       0.000000000000
 72       0.000000000000
 73       0.000000000000
 74       0.000000000000
 75       0.000000000000
 76       0.000000000000
 77       0.000000000000
 78       0.000000000000
 79       0.000000000000
 80       0.000000000000
 81       0.000000000000
 82       0.000000000000
 83       0.000000000000
 84       0.000000000000
 85       0.000000000000
 86       0.000000000000
 87       0.000000000000
 88       0.000000000000
 89       0.000000000000
 90       0.000000000000
 91       0.000000000000
 92       0.000000000000
 93       0.000000000000
 94       0.000000000000
 95       0.000000000000
 96       0.000000000000
 97       0.000000000000
 98       0.000000000000
 99       0.000000000000
100       0.000000000000
101       0.000000000000
102       0.000000000000
103       0.000000000000
104       0.000000000000
105       0.000000000000
106       0.000000000000
107       0.000000000000
108       0.000000000000
109       0.000000000000
110       0.000000000000
111       0.000000000000
112       0.000000000000
113       0.000000000000
114       0.000000000000
115       0.000000000000
116       0.000000000000
117       0.000000000000
118       0.000000000000
119       0.000000000000
120       0.000000000000
121       0.000000000000
122       0.000000000000
123       0.000000000000
124       0.000000000000
125       0.000000000000
126       0.000000000000
127       0.000000000000
128       0.000000000000
129       0.000000000000
130       0.000000000000
131       0.000000000000
132       0.000000000000
133       0.000000000000
134       0.000000000000
135       0.000000000000
136       0.000000000000
137       0.000000000000
138       0.000000000000
139       0.000000000000
140       0.000000000000
141       0.000000000000
142       0.000000000000
143       0.000000000000
144       0.000000000000
145       0.000000000000
146       0.000000000000
147       0.000000000000
148       0.000000000000
149       0.000000000000
150       0.000000000000
151       0.000000000000
152       0.000000000000
153       0.000000000000
154       0.000000000000
155       0.000000000000
156       0.000000000000
157       0.000000000000
158       0.000000000000
159       0.000000000000
160       0.000000000000
161       0.000000000000
162       0.000000000000
163       0.000000000000
164       0.000000000000
165       0.000000000000
166       0.000000000000
167       0.000000000000
168       0.000000000000
169       0.000000000000
170       0.000000000000
171       0.000000000000
172       0.000000000000
173       0.000000000000
174       0.000000000000
175       0.000000000000
176       0.000000000000
177       0.000000000000
178       0.000000000000
 Sym=     1a
 Ene= -5.47568141041991E-01
Spin= Alpha
 Occup= 1.525555
  1       0.000000000000
  2       0.000000000000
  3       0.000000000000
  4       0.000000000000
  5       0.000000000000
  6       0.000000000000
  7       0.201473706519
  8       0.000000000000
  9       0.000000000000
 10       0.500494448121
 11       0.000000000000
 12       0.000000000000
 13       0.456207807129
 14       0.000000000000
 15       0.000000000000
 16       0.000000000000
 17       0.000000000000
 18       0.000000000000
 19       0.000000000000
 20       0.000000000000
 21       0.000000000000
 22       0.000000000000
 23       0.000000000000
 24       0.000000000000
 25       0.000000000000
 26       0.000000000000
 27       0.000000000000
 28       0.000000000000
 29       0.000000000000
 30       0.000000000000
 31       0.000000000000
 32       0.000000000000
 33       0.000000000000
 34       0.000000000000
 35       0.000000000000
 36       0.000000000000
 37       0.000000000000
 38       0.000000000000
 39       0.000000000000
 40       0.000000000000
 41       0.000000000000
 42       0.000000000000
 43       0.000000000000
 44       0.000000000000
 45       0.000000000000
 46       0.000000000000
 47       0.000000000000
 48       0.000000000000
 49       0.000000000000
 50       0.000000000000
 51       0.000000000000
 52       0.000000000000
 53       0.000000000000
 54       0.000000000000
 55       0.000000000000
 56       0.000000000000
 57       0.000000000000
 58       0.000000000000
 59       0.000000000000
 60       0.000000000000
 61       0.000000000000
 62       0.000000000000
 63       0.000000000000
 64       0.000000000000
 65       0.000000000000
 66       0.000000000000
 67       0.000000000000
 68       0.000000000000
 69       0.000000000000
 70       0.000000000000
 71       0.000000000000
 72       0.000000000000
 73       0.000000000000
 74       0.000000000000
 75       0.000000000000
 76       0.000000000000
 77       0.000000000000
 78       0.000000000000
 79       0.000000000000
 80       0.000000000000
 81       0.000000000000
 82       0.000000000000
 83       0.000000000000
 84       0.000000000000
 85       0.000000000000
 86       0.000000000000
 87       0.000000000000
 88       0.000000000000
 89       0.000000000000
 90       0.000000000000
 91       0.000000000000
 92       0.000000000000
 93       0.000000000000
 94       0.000000000000
 95       0.000000000000
 96       0.000000000000
 97       0.000000000000
 98       0.000000000000
 99       0.000000000000
100       0.000000000000
101       0.000000000000
102       0.000000000000
103       0.000000000000
104       0.000000000000
105       0.000000000000
106       0.000000000000
107       0.000000000000
108       0.000000000000
109       0.000000000000
110       0.000000000000
111       0.000000000000
112       0.000000000000
113       0.000000000000
114       0.000000000000
115       0.000000000000
116       0.000000000000
117       0.000000000000
118       0.000000000000
119       0.000000000000
120       0.000000000000
121       0.000000000000
122       0.000000000000
123       0.000000000000
124       0.000000000000
125       0.000000000000
126       0.000000000000
127       0.000000000000
128       0.000000000000
129       0.000000000000
130       0.000000000000
131       0.000000000000
132       0.000000000000
133       0.000000000000
134       0.000000000000
135       0.000000000000
136       0.000000000000
137       0.000000000000
138       0.000000000000
139       0.000000000000
140       0.000000000000
141       0.000000000000
142       0.000000000000
143       0.000000000000
144       0.000000000000
145       0.000000000000
146       0.000000000000
147       0.000000000000
148       0.000000000000
149       0.000000000000
150       0.000000000000
151       0.000000000000
152       0.000000000000
153       0.000000000000
154       0.000000000000
155       0.000000000000
156       0.000000000000
157       0.000000000000
158       0.000000000000
159       0.000000000000
160       0.000000000000
161       0.000000000000
162       0.000000000000
163       0.000000000000
164       0.000000000000
165       0.000000000000
166       0.000000000000
167       0.000000000000
168       0.000000000000
169       0.000000000000
170       0.000000000000
171       0.000000000000
172       0.000000000000
173       0.000000000000
174       0.000000000000
175       0.000000000000
176       0.000000000000
177       0.000000000000
178       0.000000000000
 Sym=     1a
 Ene= -8.90135650160738E-01
Spin= Alpha
 Occup= 1.525555
  1       0.000000000000
  2       0.000000000000
  3       0.000000000000
  4       0.000000000000
  5       0.000000000000
  6       0.000000000000
  7       0.000000000000
  8       0.201473706519
  9       0.000000000000
 10       0.000000000000
 11       0.500494448121
 12       0.000000000000
 13       0.000000000000
 14       0.456207807129
 15       0.000000000000
 16       0.000000000000
 17       0.000000000000
 18       0.000000000000
 19       0.000000000000
 20       0.000000000000
 21       0.000000000000
 22       0.000000000000
 23       0.000000000000
 24       0.000000000000
 25       0.000000000000
 26       0.000000000000
 27       0.000000000000
 28       0.000000000000
 29       0.000000000000
 30       0.000000000000
 31       0.000000000000
 32       0.000000000000
 33       0.000000000000
 34       0.000000000000
 35       0.000000000000
 36       0.000000000000
 37       0.000000000000
 38       0.000000000000
 39       0.000000000000
 40       0.000000000000
 41       0.000000000000
 42       0.000000000000
 43       0.000000000000
 44       0.000000000000
 45       0.000000000000
 46       0.000000000000
 47       0.000000000000
 48       0.000000000000
 49       0.000000000000
 50       0.000000000000
 51       0.000000000000
 52       0.000000000000
 53       0.000000000000
 54       0.000000000000
 55       0.000000000000
 56       0.000000000000
 57       0.000000000000
 58       0.000000000000
 59       0.000000000000
 60       0.000000000000
 61       0.000000000000
 62       0.000000000000
 63       0.000000000000
 64       0.000000000000
 65       0.000000000000
 66       0.000000000000
 67       0.000000000000
 68       0.000000000000
 69       0.000000000000
 70       0.000000000000
 71       0.000000000000
 72       0.000000000000
 73       0.000000000000
 74       0.000000000000
 75       0.000000000000
 76       0.000000000000
 77       0.000000000000
 78       0.000000000000
 79       0.000000000000
 80       0.000000000000
 81       0.000000000000
 82       0.000000000000
 83       0.000000000000
 84       0.000000000000
 85       0.000000000000
 86       0.000000000000
 87       0.000000000000
 88       0.000000000000
 89       0.000000000000
 90       0.000000000000
 91       0.000000000000
 92       0.000000000000
 93       0.000000000000
 94       0.000000000000
 95       0.000000000000
 96       0.000000000000
 97       0.000000000000
 98       0.000000000000
 99       0.000000000000
100       0.000000000000
101       0.000000000000
102       0.000000000000
103       0.000000000000
104       0.000000000000
105       0.000000000000
106       0.000000000000
107       0.000000000000
108       0.000000000000
109       0.000000000000
110       0.000000000000
111       0.000000000000
112       0.000000000000
113       0.000000000000
114       0.000000000000
115       0.000000000000
116       0.000000000000
117       0.000000000000
118       0.000000000000
119       0.000000000000
120       0.000000000000
121       0.000000000000
122       0.000000000000
123       0.000000000000
124       0.000000000000
125       0.000000000000
126       0.000000000000
127       0.000000000000
128       0.000000000000
129       0.000000000000
130       0.000000000000
131       0.000000000000
132       0.000000000000
133       0.000000000000
134       0.000000000000
135       0.000000000000
136       0.000000000000
137       0.000000000000
138       0.000000000000
139       0.000000000000
140       0.000000000000
141       0.000000000000
142       0.000000000000
143       0.000000000000
144       0.000000000000
145       0.000000000000
146       0.000000000000
147       0.000000000000
148       0.000000000000
149       0.000000000000
150       0.000000000000
151       0.000000000000
152       0.000000000000
153       0.000000000000
154       0.000000000000
155       0.000000000000
156       0.000000000000
157       0.000000000000
158       0.000000000000
159       0.000000000000
160       0.000000000000
161       0.000000000000
162       0.000000000000
163       0.000000000000
164       0.000000000000
165       0.000000000000
166       0.000000000000
167       0.000000000000
168       0.000000000000
169       0.000000000000
170       0.000000000000
171       0.000000000000
172       0.000000000000
173       0.000000000000
174       0.000000000000
175       0.000000000000
176       0.000000000000
177       0.000000000000
178       0.000000000000
 Sym=     1a
 Ene=  2.49375781536138E+00
Spin= Alpha
 Occup= 0.010887
  1       0.000000000000
  2       0.000000000000
  3       0.000000000000
  4       0.000000000000
  5       0.000000000000
  6       0.000000000000
  7       0.000000000000
  8       0.000000000000
  9       0.000000000000
 10       0.000000000000
 11       0.000000000000
 12       0.000000000000
 13       0.000000000000
 14       0.000000000000
 15      -1.120536787594
 16       0.000000000000
 17       0.000000000000
 18       0.000000000000
 19       0.000000000000
 20       0.280693864885
 21       0.000000000000
 22       0.000000000000
 23       0.000000000000
 24       0.000000000000
 25       0.000000000000
 26       0.000000000000
 27       0.000000000000
 28       0.000000000000
 29       0.000000000000
 30       0.000000000000
 31       0.000000000000
 32       0.000000000000
 33       0.000000000000
 34       0.000000000000
 35       0.000000000000
 36       0.000000000000
 37       0.000000000000
 38       0.000000000000
 39       0.000000000000
 40       0.000000000000
 41       0.000000000000
 42       0.000000000000
 43       0.000000000000
 44       0.000000000000
 45       0.000000000000
 46       0.000000000000
 47       0.000000000000
 48       0.000000000000
 49       0.000000000000
 50       0.000000000000
 51       0.000000000000
 52       0.000000000000
 53       0.000000000000
 54       0.000000000000
 55       0.000000000000
 56       0.000000000000
 57       0.000000000000
 58       0.000000000000
 59       0.000000000000
 60       0.000000000000
 61       0.000000000000
 62       0.000000000000
 63       0.000000000000
 64       0.000000000000
 65       0.000000000000
 66       0.000000000000
 67       0.000000000000
 68       0.000000000000
 69       0.000000000000
 70       0.000000000000
 71       0.000000000000
 72       0.000000000000
 73       0.000000000000
 74       0.000000000000
 75       0.000000000000
 76       0.000000000000
 77       0.000000000000
 78       0.000000000000
 79       0.000000000000
 80       0.000000000000
 81       0.000000000000
 82       0.000000000000
 83       0.000000000000
 84       0.000000000000
 85       0.000000000000
 86       0.000000000000
 87       0.000000000000
 88       0.000000000000
 89       0.000000000000
 90       0.000000000000
 91       0.000000000000
 92       0.000000000000
 93       0.000000000000
 94       0.000000000000
 95       0.000000000000
 96       0.000000000000
 97       0.000000000000
 98       0.000000000000
 99       0.000000000000
100       0.000000000000
101       0.000000000000
102       0.000000000000
103       0.000000000000
104       0.000000000000
105       0.000000000000
106       0.000000000000
107       0.000000000000
108       0.000000000000
109       0.000000000000
110       0.000000000000
111       0.000000000000
112       0.000000000000
113       0.000000000000
114       0.000000000000
115       0.000000000000
116       0.000000000000
117       0.000000000000
118       0.000000000000
119       0.000000000000
120       0.000000000000
121       0.000000000000
122       0.000000000000
123       0.000000000000
124       0.000000000000
125       0.000000000000
126       0.000000000000
127       0.000000000000
128       0.000000000000
129       0.000000000000
130       0.000000000000
131       0.000000000000
132       0.000000000000
133       0.000000000000
134       0.000000000000
135       0.000000000000
136       0.000000000000
137       0.000000000000
138       0.000000000000
139       0.000000000000
140       0.000000000000
141       0.000000000000
142       0.000000000000
143       0.000000000000
144       0.000000000000
145       0.000000000000
146       0.000000000000
147       0.000000000000
148       0.000000000000
149       0.000000000000
150       0.000000000000
151       0.000000000000
152       0.000000000000
153       0.000000000000
154       0.000000000000
155       0.000000000000
156       0.000000000000
157       0.000000000000
158       0.000000000000
159       0.000000000000
160       0.000000000000
161       0.000000000000
162       0.000000000000
163       0.000000000000
164       0.000000000000
165       0.000000000000
166       0.000000000000
167       0.000000000000
168       0.000000000000
169       0.000000000000
170       0.000000000000
171       0.000000000000
172       0.000000000000
173       0.000000000000
174       0.000000000000
175       0.000000000000
176       0.000000000000
177       0.000000000000
178       0.000000000000
 Sym=     1a
 Ene=  2.46873451082165E+00
Spin= Alpha
 Occup= 0.010887
  1       0.000000000000
  2       0.000000000000
  3       0.000000000000
  4       0.000000000000
  5       0.000000000000
  6       0.000000000000
  7       0.000000000000
  8       0.000000000000
  9       0.000000000000
 10       0.000000000000
 11       0.000000000000
 12       0.000000000000
 13       0.000000000000
 14       0.000000000000
 15       0.000000000000
 16      -1.120536787594
 17       0.000000000000
 18       0.000000000000
 19       0.000000000000
 20       0.000000000000
 21       0.280693864885
 22       0.000000000000
 23       0.000000000000
 24       0.000000000000
 25       0.000000000000
 26       0.000000000000
 27       0.000000000000
 28       0.000000000000
 29       0.000000000000
 30       0.000000000000
 31       0.000000000000
 32       0.000000000000
 33       0.000000000000
 34       0.000000000000
 35       0.000000000000
 36       0.000000000000
 37       0.000000000000
 38       0.000000000000
 39       0.000000000000
 40       0.000000000000
 41       0.000000000000
 42       0.000000000000
 43       0.000000000000
 44       0.000000000000
 45       0.000000000000
 46       0.000000000000
 47       0.000000000000
 48       0.000000000000
 49       0.000000000000
 50       0.000000000000
 51       0.000000000000
 52       0.000000000000
 53       0.000000000000
 54       0.000000000000
 55       0.000000000000
 56       0.000000000000
 57       0.000000000000
 58       0.000000000000
 59       0.000000000000
 60       0.000000000000
 61       0.000000000000
 62       0.000000000000
 63       0.000000000000
 64       0.000000000000
 65       0.000000000000
 66       0.000000000000
 67       0.000000000000
 68       0.000000000000
 69       0.000000000000
 70       0.000000000000
 71       0.000000000000
 72       0.000000000000
 73       0.000000000000
 74       0.000000000000
 75       0.000000000000
 76       0.000000000000
 77       0.000000000000
 78       0.000000000000
 79       0.000000000000
 80       0.000000000000
 81       0.000000000000
 82       0.000000000000
 83       0.000000000000
 84       0.000000000000
 85       0.000000000000
 86       0.000000000000
 87       0.000000000000
 88       0.000000000000
 89       0.000000000000
 90       0.000000000000
 91       0.000000000000
 92       0.000000000000
 93       0.000000000000
 94       0.000000000000
 95       0.000000000000
 96       0.000000000000
 97       0.000000000000
 98       0.000000000000
 99       0.000000000000
100       0.000000000000
101       0.000000000000
102       0.000000000000
103       0.000000000000
104       0.000000000000
105       0.000000000000
106       0.000000000000
107       0.000000000000
108       0.000000000000
109       0.000000000000
110       0.000000000000
111       0.000000000000
112       0.000000000000
113       0.000000000000
114       0.000000000000
115       0.000000000000
116       0.000000000000
117       0.000000000000
118       0.000000000000
119       0.000000000000
120       0.000000000000
121       0.000000000000
122       0.000000000000
123       0.000000000000
124       0.000000000000
125       0.000000000000
126       0.000000000000
127       0.000000000000
128       0.000000000000
129       0.000000000000
130       0.000000000000
131       0.000000000000
132       0.000000000000
133       0.000000000000
134       0.000000000000
135       0.000000000000
136       0.000000000000
137       0.000000000000
138       0.000000000000
139       0.000000000000
140       0.000000000000
141       0.000000000000
142       0.000000000000
143       0.000000000000
144       0.000000000000
145       0.000000000000
146       0.000000000000
147       0.000000000000
148       0.000000000000
149       0.000000000000
150       0.000000000000
151       0.000000000000
152       0.000000000000
153       0.000000000000
154       0.000000000000
155       0.000000000000
156       0.000000000000
157       0.000000000000
158       0.000000000000
159       0.000000000000
160       0.000000000000
161       0.000000000000
162       0.000000000000
163       0.000000000000
164       0.000000000000
165       0.000000000000
166       0.000000000000
167       0.000000000000
168       0.000000000000
169       0.000000000000
170       0.000000000000
171       0.000000000000
172       0.000000000000
173       0.000000000000
174       0.000000000000
175       0.000000000000
176       0.000000000000
177       0.000000000000
178       0.000000000000
 Sym=     1a
 Ene=  2.51644430912110E+00
Spin= Alpha
 Occup= 0.010887
  1       0.000000000000
  2       0.000000000000
  3       0.000000000000
  4       0.000000000000
  5       0.000000000000
  6       0.000000000000
  7       0.000000000000
  8       0.000000000000
  9       0.000000000000
 10       0.000000000000
 11       0.000000000000
 12       0.000000000000
 13       0.000000000000
 14       0.000000000000
 15       0.000000000000
 16       0.000000000000
 17      -1.120536787594
 18       0.000000000000
 19       0.000000000000
 20       0.000000000000
 21       0.000000000000
 22       0.280693864885
 23       0.000000000000
 24       0.000000000000
 25       0.000000000000
 26       0.000000000000
 27       0.000000000000
 28       0.000000000000
 29       0.000000000000
 30       0.000000000000
 31       0.000000000000
 32       0.000000000000
 33       0.000000000000
 34       0.000000000000
 35       0.000000000000
 36       0.000000000000
 37       0.000000000000
 38       0.000000000000
 39       0.000000000000
 40       0.000000000000
 41       0.000000000000
 42       0.000000000000
 43       0.000000000000
 44       0.000000000000
 45       0.000000000000
 46       0.000000000000
 47       0.000000000000
 48       0.000000000000
 49       0.000000000000
 50       0.000000000000
 51       0.000000000000
 52       0.000000000000
 53       0.000000000000
 54       0.000000000000
 55       0.000000000000
 56       0.000000000000
 57       0.000000000000
 58       0.000000000000
 59       0.000000000000
 60       0.000000000000
 61       0.000000000000
 62       0.000000000000
 63       0.000000000000
 64       0.000000000000
 65       0.000000000000
 66       0.000000000000
 67       0.000000000000
 68       0.000000000000
 69       0.000000000000
 70       0.000000000000
 71       0.000000000000
 72       0.000000000000
 73       0.000000000000
 74       0.000000000000
 75       0.000000000000
 76       0.000000000000
 77       0.000000000000
 78       0.000000000000
 79       0.000000000000
 80       0.000000000000
 81       0.000000000000
 82       0.000000000000
 83       0.000000000000
 84       0.000000000000
 85       0.000000000000
 86       0.000000000000
 87       0.000000000000
 88       0.000000000000
 89       0.000000000000
 90       0.000000000000
 91       0.000000000000
 92       0.000000000000
 93       0.000000000000
 94       0.000000000000
 95       0.000000000000
 96       0.000000000000
 97       0.000000000000
 98       0.000000000000
 99       0.000000000000
100       0.000000000000
101       0.000000000000
102       0.000000000000
103       0.000000000000
104       0.000000000000
105       0.000000000000
106       0.000000000000
107       0.000000000000
108       0.000000000000
109       0.000000000000
110       0.000000000000
111       0.000000000000
112       0.000000000000
113       0.000000000000
114       0.000000000000
115       0.000000000000
116       0.000000000000
117       0.000000000000
118       0.000000000000
119       0.000000000000
120       0.000000000000
121       0.000000000000
122       0.000000000000
123       0.000000000000
124       0.000000000000
125       0.000000000000
126       0.000000000000
127       0.000000000000
128       0.000000000000
129       0.000000000000
130       0.000000000000
131       0.000000000000
132       0.000000000000
133       0.000000000000
134       0.000000000000
135       0.000000000000
136       0.000000000000
137       0.000000000000
138       0.000000000000
139       0.000000000000
140       0.000000000000
141       0.000000000000
142       0.000000000000
143       0.000000000000
144       0.000000000000
145       0.000000000000
146       0.000000000000
147       0.000000000000
148       0.000000000000
149       0.000000000000
150       0.000000000000
151       0.000000000000
152       0.000000000000
153       0.000000000000
154       0.000000000000
155       0.000000000000
156       0.000000000000
157       0.000000000000
158       0.000000000000
159       0.000000000000
160       0.000000000000
161       0.000000000000
162       0.000000000000
163       0.000000000000
164       0.000000000000
165       0.000000000000
166       0.000000000000
167       0.000000000000
168       0.000000000000
169       0.000000000000
170       0.000000000000
171       0.000000000000
172       0.000000000000
173       0.000000000000
174       0.000000000000
175       0.000000000000
176       0.000000000000
177       0.000000000000
178       0.000000000000
 Sym=     1a
 Ene=  2.50395257645989E+00
Spin= Alpha
 Occup= 0.010887
  1       0.000000000000
  2       0.000000000000
  3       0.000000000000
  4       0.000000000000
  5       0.000000000000
  6       0.000000000000
  7       0.000000000000
  8       0.000000000000
  9       0.000000000000
 10       0.000000000000
 11       0.000000000000
 12       0.000000000000
 13       0.000000000000
 14       0.000000000000
 15       0.000000000000
 16       0.000000000000
 17       0.000000000000
 18      -1.120536787594
 19       0.000000000000
 20       0.000000000000
 21       0.000000000000
 22       0.000000000000
 23       0.280693864885
 24       0.000000000000
 25       0.000000000000
 26       0.000000000000
 27       0.000000000000
 28       0.000000000000
 29       0.000000000000
 30       0.000000000000
 31       0.000000000000
 32       0.000000000000
 33       0.000000000000
 34       0.000000000000
 35       0.000000000000
 36       0.000000000000
 37       0.000000000000
 38       0.000000000000
 39       0.000000000000
 40       0.000000000000
 41       0.000000000000
 42       0.000000000000
 43       0.000000000000
 44       0.000000000000
 45       0.000000000000
 46       0.000000000000
 47       0.000000000000
 48       0.000000000000
 49       0.000000000000
 50       0.000000000000
 51       0.000000000000
 52       0.000000000000
 53       0.000000000000
 54       0.000000000000
 55       0.000000000000
 56       0.000000000000
 57       0.000000000000
 58       0.000000000000
 59       0.000000000000
 60       0.000000000000
 61       0.000000000000
 62       0.000000000000
 63       0.000000000000
 64       0.000000000000
 65       0.000000000000
 66       0.000000000000
 67       0.000000000000
 68       0.000000000000
 69       0.000000000000
 70       0.000000000000
 71       0.000000000000
 72       0.000000000000
 73       0.000000000000
 74       0.000000000000
 75       0.000000000000
 76       0.000000000000
 77       0.000000000000
 78       0.000000000000
 79       0.000000000000
 80       0.000000000000
 81       0.000000000000
 82       0.000000000000
 83       0.000000000000
 84       0.000000000000
 85       0.000000000000
 86       0.000000000000
 87       0.000000000000
 88       0.000000000000
 89       0.000000000000
 90       0.000000000000
 91       0.000000000000
 92       0.000000000000
 93       0.000000000000
 94       0.000000000000
 95       0.000000000000
 96       0.000000000000
 97       0.000000000000
 98       0.000000000000
 99       0.000000000000
100       0.000000000000
101       0.000000000000
102       0.000000000000
103       0.000000000000
104       0.000000000000
105       0.000000000000
106       0.000000000000
107       0.000000000000
108       0.000000000000
109       0.000000000000
110       0.000000000000
111       0.000000000000
112       0.000000000000
113       0.000000000000
114       0.000000000000
115       0.000000000000
116       0.000000000000
117       0.000000000000
118       0.000000000000
119       0.000000000000
120       0.000000000000
121       0.000000000000
122       0.000000000000
123       0.000000000000
124       0.000000000000
125       0.000000000000
126       0.000000000000
127       0.000000000000
128       0.000000000000
129       0.000000000000
130       0.000000000000
131       0.000000000000
132       0.000000000000
133       0.000000000000
134       0.000000000000
135       0.000000000000
136       0.000000000000
137       0.000000000000
138       0.000000000000
139       0.000000000000
140       0.000000000000
141       0.000000000000
142       0.000000000000
143       0.000000000000
144       0.000000000000
145       0.000000000000
146       0.000000000000
147       0.000000000000
148       0.000000000000
149       0.000000000000
150       0.000000000000
151       0.000000000000
152       0.000000000000
153       0.000000000000
154       0.000000000000
155       0.000000000000
156       0.000000000000
157       0.000000000000
158       0.000000000000
159       0.000000000000
160       0.000000000000
161       0.000000000000
162       0.000000000000
163       0.000000000000
164       0.000000000000
165       0.000000000000
166       0.000000000000
167       0.000000000000
168       0.000000000000
169       0.000000000000
170       0.000000000000
171       0.000000000000
172       0.000000000000
173       0.000000000000
174       0.000000000000
175       0.000000000000
176       0.000000000000
177       0.000000000000
178       0.000000000000
 Sym=     1a
 Ene=  2.52075845496853E+00
Spin= Alpha
 Occup= 0.010887
  1       0.000000000000
  2       0.000000000000
  3       0.000000000000
  4       0.000000000000
  5       0.000000000000
  6       0.000000000000
  7       0.000000000000
  8       0.000000000000
  9       0.000000000000
 10       0.000000000000
 11       0.000000000000
 12       0.000000000000
 13       0.000000000000
 14       0.000000000000
 15       0.000000000000
 16       0.000000000000
 17       0.000000000000
 18       0.000000000000
 19      -1.120536787594
 20       0.000000000000
 21       0.000000000000
 22       0.000000000000
 23       0.000000000000
 24       0.280693864885
 25       0.000000000000
 26       0.000000000000
 27       0.000000000000
 28       0.000000000000
 29       0.000000000000
 30       0.000000000000
 31       0.000000000000
 32       0.000000000000
 33       0.000000000000
 34       0.000000000000
 35       0.000000000000
 36       0.000000000000
 37       0.000000000000
 38       0.000000000000
 39       0.000000000000
 40       0.000000000000
 41       0.000000000000
 42       0.000000000000
 43       0.000000000000
 44       0.000000000000
 45       0.000000000000
 46       0.000000000000
 47       0.000000000000
 48       0.000000000000
 49       0.000000000000
 50       0.000000000000
 51       0.000000000000
 52       0.000000000000
 53       0.000000000000
 54       0.000000000000
 55       0.000000000000
 56       0.000000000000
 57       0.000000000000
 58       0.000000000000
 59       0.000000000000
 60       0.000000000000
 61       0.000000000000
 62       0.000000000000
 63       0.000000000000
 64       0.000000000000
 65       0.000000000000
 66       0.000000000000
 67       0.000000000000
 68       0.000000000000
 69       0.000000000000
 70       0.000000000000
 71       0.000000000000
 72       0.000000000000
 73       0.000000000000
 74       0.000000000000
 75       0.000000000000
 76       0.000000000000
 77       0.000000000000
 78       0.000000000000
 79       0.000000000000
 80       0.000000000000
 81       0.000000000000
 82       0.000000000000
 83       0.000000000000
 84       0.000000000000
 85       0.000000000000
 86       0.000000000000
 87       0.000000000000
 88       0.000000000000
 89       0.000000000000
 90       0.000000000000
 91       0.000000000000
 92       0.000000000000
 93       0.000000000000
 94       0.000000000000
 95       0.000000000000
 96       0.000000000000
 97       0.000000000000
 98       0.000000000000
 99       0.000000000000
100       0.000000000000
101       0.000000000000
102       0.000000000000
103       0.000000000000
104       0.000000000000
105       0.000000000000
106       0.000000000000
107       0.000000000000
108       0.000000000000
109       0.000000000000
110       0.000000000000
111       0.000000000000
112       0.000000000000
113       0.000000000000
114       0.000000000000
115       0.000000000000
116       0.000000000000
117       0.000000000000
118       0.000000000000
119       0.000000000000
120       0.000000000000
121       0.000000000000
122       0.000000000000
123       0.000000000000
124       0.000000000000
125       0.000000000000
126       0.000000000000
127       0.000000000000
128       0.000000000000
129       0.000000000000
130       0.000000000000
131       0.000000000000
132       0.000000000000
133       0.000000000000
134       0.000000000000
135       0.000000000000
136       0.000000000000
137       0.000000000000
138       0.000000000000
139       0.000000000000
140       0.000000000000
141       0.000000000000
142       0.000000000000
143       0.000000000000
144       0.000000000000
145       0.000000000000
146       0.000000000000
147       0.000000000000
148       0.000000000000
149       0.000000000000
150       0.000000000000
151       0.000000000000
152       0.000000000000
153       0.000000000000
154       0.000000000000
155       0.000000000000
156       0.000000000000
157       0.000000000000
158       0.000000000000
159       0.000000000000
160       0.000000000000
161       0.000000000000
162       0.000000000000
163       0.000000000000
164       0.000000000000
165       0.000000000000
166       0.000000000000
167       0.000000000000
168       0.000000000000
169       0.000000000000
170       0.000000000000
171       0.000000000000
172       0.000000000000
173       0.000000000000
174       0.000000000000
175       0.000000000000
176       0.000000000000
177       0.000000000000
178       0.000000000000
 Sym=     1a
 Ene=  1.32204989704355E-01
Spin= Alpha
 Occup= 0.546666
  1       0.000000000000
  2       0.000000000000
  3       0.000000000000
  4       0.000000000000
  5       0.000000000000
  6       0.000000000000
  7       0.000000000000
  8       0.000000000000
  9       0.000000000000
 10       0.000000000000
 11       0.000000000000
 12       0.000000000000
 13       0.000000000000
 14       0.000000000000
 15      -0.371847159399
 16       0.000000000000
 17       0.000000000000
 18       0.000000000000
 19       0.000000000000
 20       1.146771100316
 21       0.000000000000
 22       0.000000000000
 23       0.000000000000
 24       0.000000000000
 25       0.000000000000
 26       0.000000000000
 27       0.000000000000
 28       0.000000000000
 29       0.000000000000
 30       0.000000000000
 31       0.000000000000
 32       0.000000000000
 33       0.000000000000
 34       0.000000000000
 35       0.000000000000
 36       0.000000000000
 37       0.000000000000
 38       0.000000000000
 39       0.000000000000
 40       0.000000000000
 41       0.000000000000
 42       0.000000000000
 43       0.000000000000
 44       0.000000000000
 45       0.000000000000
 46       0.000000000000
 47       0.000000000000
 48       0.000000000000
 49       0.000000000000
 50       0.000000000000
 51       0.000000000000
 52       0.000000000000
 53       0.000000000000
 54       0.000000000000
 55       0.000000000000
 56       0.000000000000
 57       0.000000000000
 58       0.000000000000
 59       0.000000000000
 60       0.000000000000
 61       0.000000000000
 62       0.000000000000
 63       0.000000000000
 64       0.000000000000
 65       0.000000000000
 66       0.000000000000
 67       0.000000000000
 68       0.000000000000
 69       0.000000000000
 70       0.000000000000
 71       0.000000000000
 72       0.000000000000
 73       0.000000000000
 74       0.000000000000
 75       0.000000000000
 76       0.000000000000
 77       0.000000000000
 78       0.000000000000
 79       0.000000000000
 80       0.000000000000
 81       0.000000000000
 82       0.000000000000
 83       0.000000000000
 84       0.000000000000
 85       0.000000000000
 86       0.000000000000
 87       0.000000000000
 88       0.000000000000
 89       0.000000000000
 90       0.000000000000
 91       0.000000000000
 92       0.000000000000
 93       0.000000000000
 94       0.000000000000
 95       0.000000000000
 96       0.000000000000
 97       0.000000000000
 98       0.000000000000
 99       0.000000000000
100       0.000000000000
101       0.000000000000
102       0.000000000000
103       0.000000000000
104       0.000000000000
105       0.000000000000
106       0.000000000000
107       0.000000000000
108       0.000000000000
109       0.000000000000
110       0.000000000000
111       0.000000000000
112       0.000000000000
113       0.000000000000
114       0.000000000000
115       0.000000000000
116       0.000000000000
117       0.000000000000
118       0.000000000000
119       0.000000000000
120       0.000000000000
121       0.000000000000
122       0.000000000000
123       0.000000000000
124       0.000000000000
125       0.000000000000
126       0.000000000000
127       0.000000000000
128       0.000000000000
129       0.000000000000
130       0.000000000000
131       0.000000000000
132       0.000000000000
133       0.000000000000
134       0.000000000000
135       0.000000000000
136       0.000000000000
137       0.000000000000
138       0.000000000000
139       0.000000000000
140       0.000000000000
141       0.000000000000
142       0.000000000000
143       0.000000000000
144       0.000000000000
145       0.000000000000
146       0.000000000000
147       0.000000000000
148       0.000000000000
149       0.000000000000
150       0.000000000000
151       0.000000000000
152       0.000000000000
153       0.000000000000
154       0.000000000000
155       0.000000000000
156       0.000000000000
157       0.000000000000
158       0.000000000000
159       0.000000000000
160       0.000000000000
161       0.000000000000
162       0.000000000000
163       0.000000000000
164       0.000000000000
165       0.000000000000
166       0.000000000000
167       0.000000000000
168       0.000000000000
169       0.000000000000
170       0.000000000000
171       0.000000000000
172       0.000000000000
173       0.000000000000
174       0.000000000000
175       0.000000000000
176       0.000000000000
177       0.000000000000
178       0.000000000000
 Sym=     1a
 Ene= -9.89952868702585E-02
Spin= Alpha
 Occup= 0.546666
  1       0.000000000000
  2       0.000000000000
  3       0.000000000000
  4       0.000000000000
  5       0.000000000000
  6       0.000000000000
  7       0.000000000000
  8       0.000000000000
  9       0.000000000000
 10       0.000000000000
 11       0.000000000000
 12       0.000000000000
 13       0.000000000000
 14       0.000000000000
 15       0.000000000000
 16      -0.371847159399
 17       0.000000000000
 18       0.000000000000
 19       0.000000000000
 20       0.000000000000
 21       1.146771100316
 22       0.000000000000
 23       0.000000000000
 24       0.000000000000
 25       0.000000000000
 26       0.000000000000
 27       0.000000000000
 28       0.000000000000
 29       0.000000000000
 30       0.000000000000
 31       0.000000000000
 32       0.000000000000
 33       0.000000000000
 34       0.000000000000
 35       0.000000000000
 36       0.000000000000
 37       0.000000000000
 38       0.000000000000
 39       0.000000000000
 40       0.000000000000
 41       0.000000000000
 42       0.000000000000
 43       0.000000000000
 44       0.000000000000
 45       0.000000000000
 46       0.000000000000
 47       0.000000000000
 48       0.000000000000
 49       0.000000000000
 50       0.000000000000
 51       0.000000000000
 52       0.000000000000
 53       0.000000000000
 54       0.000000000000
 55       0.000000000000
 56       0.000000000000
 57       0.000000000000
 58       0.000000000000
 59       0.000000000000
 60       0.000000000000
 61       0.000000000000
 62       0.000000000000
 63       0.000000000000
 64       0.000000000000
 65       0.000000000000
 66       0.000000000000
 67       0.000000000000
 68       0.000000000000
 69       0.000000000000
 70       0.000000000000
 71       0.000000000000
 72       0.000000000000
 73       0.000000000000
 74       0.000000000000
 75       0.000000000000
 76       0.000000000000
 77       0.000000000000
 78       0.000000000000
 79       0.000000000000
 80       0.000000000000
 81       0.000000000000
 82       0.000000000000
 83       0.000000000000
 84       0.000000000000
 85       0.000000000000
 86       0.000000000000
 87       0.000000000000
 88       0.000000000000
 89       0.000000000000
 90       0.000000000000
 91       0.000000000000
 92       0.000000000000
 93       0.000000000000
 94       0.000000000000
 95       0.000000000000
 96       0.000000000000
 97       0.000000000000
 98       0.000000000000
 99       0.000000000000
100       0.000000000000
101       0.000000000000
102       0.000000000000
103       0.000000000000
104       0.000000000000
105       0.000000000000
106       0.000000000000
107       0.000000000000
108       0.000000000000
109       0.000000000000
110       0.000000000000
111       0.000000000000
112       0.000000000000
113       0.000000000000
114       0.000000000000
115       0.000000000000
116       0.000000000000
117       0.000000000000
118       0.000000000000
119       0.000000000000
120       0.000000000000
121       0.000000000000
122       0.000000000000
123       0.000000000000
124       0.000000000000
125       0.000000000000
126       0.000000000000
127       0.000000000000
128       0.000000000000
129       0.000000000000
130       0.000000000000
131       0.000000000000
132       0.000000000000
133       0.000000000000
134       0.000000000000
135       0.000000000000
136       0.000000000000
137       0.000000000000
138       0.000000000000
139       0.000000000000
140       0.000000000000
141       0.000000000000
142       0.000000000000
143       0.000000000000
144       0.000000000000
145       0.000000000000
146       0.000000000000
147       0.000000000000
148       0.000000000000
149       0.000000000000
150       0.000000000000
151       0.000000000000
152       0.000000000000
153       0.000000000000
154       0.000000000000
155       0.000000000000
156       0.000000000000
157       0.000000000000
158       0.000000000000
159       0.000000000000
160       0.000000000000
161       0.000000000000
162       0.000000000000
163       0.000000000000
164       0.000000000000
165       0.000000000000
166       0.000000000000
167       0.000000000000
168       0.000000000000
169       0.000000000000
170       0.000000000000
171       0.000000000000
172       0.000000000000
173       0.000000000000
174       0.000000000000
175       0.000000000000
176       0.000000000000
177       0.000000000000
178       0.000000000000
 Sym=     1a
 Ene=  2.72135682935427E-01
Spin= Alpha
 Occup= 0.546666
  1       0.000000000000
  2       0.000000000000
  3       0.000000000000
  4       0.000000000000
  5       0.000000000000
  6       0.000000000000
  7       0.000000000000
  8       0.000000000000
  9       0.000000000000
 10       0.000000000000
 11       0.000000000000
 12       0.000000000000
 13       0.000000000000
 14       0.000000000000
 15       0.000000000000
 16       0.000000000000
 17      -0.371847159399
 18       0.000000000000
 19       0.000000000000
 20       0.000000000000
 21       0.000000000000
 22       1.146771100316
 23       0.000000000000
 24       0.000000000000
 25       0.000000000000
 26       0.000000000000
 27       0.000000000000
 28       0.000000000000
 29       0.000000000000
 30       0.000000000000
 31       0.000000000000
 32       0.000000000000
 33       0.000000000000
 34       0.000000000000
 35       0.000000000000
 36       0.000000000000
 37       0.000000000000
 38       0.000000000000
 39       0.000000000000
 40       0.000000000000
 41       0.000000000000
 42       0.000000000000
 43       0.000000000000
 44       0.000000000000
 45       0.000000000000
 46       0.000000000000
 47       0.000000000000
 48       0.000000000000
 49       0.000000000000
 50       0.000000000000
 51       0.000000000000
 52       0.000000000000
 53       0.000000000000
 54       0.000000000000
 55       0.000000000000
 56       0.000000000000
 57       0.000000000000
 58       0.000000000000
 59       0.000000000000
 60       0.000000000000
 61       0.000000000000
 62       0.000000000000
 63       0.000000000000
 64       0.000000000000
 65       0.000000000000
 66       0.000000000000
 67       0.000000000000
 68       0.000000000000
 69       0.000000000000
 70       0.000000000000
 71       0.000000000000
 72       0.000000000000
 73       0.000000000000
 74       0.000000000000
 75       0.000000000000
 76       0.000000000000
 77       0.000000000000
 78       0.000000000000
 79       0.000000000000
 80       0.000000000000
 81       0.000000000000
 82       0.000000000000
 83       0.000000000000
 84       0.000000000000
 85       0.000000000000
 86       0.000000000000
 87       0.000000000000
 88       0.000000000000
 89       0.000000000000
 90       0.000000000000
 91       0.000000000000
 92       0.000000000000
 93       0.000000000000
 94       0.000000000000
 95       0.000000000000
 96       0.000000000000
 97       0.000000000000
 98       0.000000000000
 99       0.000000000000
100       0.000000000000
101       0.000000000000
102       0.000000000000
103       0.000000000000
104       0.000000000000
105       0.000000000000
106       0.000000000000
107       0.000000000000
108       0.000000000000
109       0.000000000000
110       0.000000000000
111       0.000000000000
112       0.000000000000
113       0.000000000000
114       0.000000000000
115       0.000000000000
116       0.000000000000
117       0.000000000000
118       0.000000000000
119       0.000000000000
120       0.000000000000
121       0.000000000000
122       0.000000000000
123       0.000000000000
124       0.000000000000
125       0.000000000000
126       0.000000000000
127       0.000000000000
128       0.000000000000
129       0.000000000000
130       0.000000000000
131       0.000000000000
132       0.000000000000
133       0.000000000000
134       0.000000000000
135       0.000000000000
136       0.000000000000
137       0.000000000000
138       0.000000000000
139       0.000000000000
140       0.000000000000
141       0.000000000000
142       0.000000000000
143       0.000000000000
144       0.000000000000
145       0.000000000000
146       0.000000000000
147       0.000000000000
148       0.000000000000
149       0.000000000000
150       0.000000000000
151       0.000000000000
152       0.000000000000
153       0.000000000000
154       0.000000000000
155       0.000000000000
156       0.000000000000
157       0.000000000000
158       0.000000000000
159       0.000000000000
160       0.000000000000
161       0.000000000000
162       0.000000000000
163       0.000000000000
164       0.000000000000
165       0.000000000000
166       0.000000000000
167       0.000000000000
168       0.000000000000
169       0.000000000000
170       0.000000000000
171       0.000000000000
172       0.000000000000
173       0.000000000000
174       0.000000000000
175       0.000000000000
176       0.000000000000
177       0.000000000000
178       0.000000000000
 Sym=     1a
 Ene=  1.48736566797947E-01
Spin= Alpha
 Occup= 0.546666
  1       0.000000000000
  2       0.000000000000
  3       0.000000000000
  4       0.000000000000
  5       0.000000000000
  6       0.000000000000
  7       0.000000000000
  8       0.000000000000
  9       0.000000000000
 10       0.000000000000
 11       0.000000000000
 12       0.000000000000
 13       0.000000000000
 14       0.000000000000
 15       0.000000000000
 16       0.000000000000
 17       0.000000000000
 18      -0.371847159399
 19       0.000000000000
 20       0.000000000000
 21       0.000000000000
 22       0.000000000000
 23       1.146771100316
 24       0.000000000000
 25       0.000000000000
 26       0.000000000000
 27       0.000000000000
 28       0.000000000000
 29       0.000000000000
 30       0.000000000000
 31       0.000000000000
 32       0.000000000000
 33       0.000000000000
 34       0.000000000000
 35       0.000000000000
 36       0.000000000000
 37       0.000000000000
 38       0.000000000000
 39       0.000000000000
 40       0.000000000000
 41       0.000000000000
 42       0.000000000000
 43       0.000000000000
 44       0.000000000000
 45       0.000000000000
 46       0.000000000000
 47       0.000000000000
 48       0.000000000000
 49       0.000000000000
 50       0.000000000000
 51       0.000000000000
 52       0.000000000000
 53       0.000000000000
 54       0.000000000000
 55       0.000000000000
 56       0.000000000000
 57       0.000000000000
 58       0.000000000000
 59       0.000000000000
 60       0.000000000000
 61       0.000000000000
 62       0.000000000000
 63       0.000000000000
 64       0.000000000000
 65       0.000000000000
 66       0.000000000000
 67       0.000000000000
 68       0.000000000000
 69       0.000000000000
 70       0.000000000000
 71       0.000000000000
 72       0.000000000000
 73       0.000000000000
 74       0.000000000000
 75       0.000000000000
 76       0.000000000000
 77       0.000000000000
 78       0.000000000000
 79       0.000000000000
 80       0.000000000000
 81       0.000000000000
 82       0.000000000000
 83       0.000000000000
 84       0.000000000000
 85       0.000000000000
 86       0.000000000000
 87       0.000000000000
 88       0.000000000000
 89       0.000000000000
 90       0.000000000000
 91       0.000000000000
 92       0.000000000000
 93       0.000000000000
 94       0.000000000000
 95       0.000000000000
 96       0.000000000000
 97       0.000000000000
 98       0.000000000000
 99       0.000000000000
100       0.000000000000
101       0.000000000000
102       0.000000000000
103       0.000000000000
104       0.000000000000
105       0.000000000000
106       0.000000000000
107       0.000000000000
108       0.000000000000
109       0.000000000000
110       0.000000000000
111       0.000000000000
112       0.000000000000
113       0.000000000000
114       0.000000000000
115       0.000000000000
116       0.000000000000
117       0.000000000000
118       0.000000000000
119       0.000000000000
120       0.000000000000
121       0.000000000000
122       0.000000000000
123       0.000000000000
124       0.000000000000
125       0.000000000000
126       0.000000000000
127       0.000000000000
128       0.000000000000
129       0.000000000000
130       0.000000000000
131       0.000000000000
132       0.000000000000
133       0.000000000000
134       0.000000000000
135       0.000000000000
136       0.000000000000
137       0.000000000000
138       0.000000000000
139       0.000000000000
140       0.000000000000
141       0.000000000000
142       0.000000000000
143       0.000000000000
144       0.000000000000
145       0.000000000000
146       0.000000000000
147       0.000000000000
148       0.000000000000
149       0.000000000000
150       0.000000000000
151       0.000000000000
152       0.000000000000
153       0.000000000000
154       0.000000000000
155       0.000000000000
156       0.000000000000
157       0.000000000000
158       0.000000000000
159       0.000000000000
160       0.000000000000
161       0.000000000000
162       0.000000000000
163       0.000000000000
164       0.000000000000
165       0.000000000000
166       0.000000000000
167       0.000000000000
168       0.000000000000
169       0.000000000000
170       0.000000000000
171       0.000000000000
172       0.000000000000
173       0.000000000000
174       0.000000000000
175       0.000000000000
176       0.000000000000
177       0.000000000000
178       0.000000000000
 Sym=     1a
 Ene=  3.67681516267686E-01
Spin= Alpha
 Occup= 0.546666
  1       0.000000000000
  2       0.000000000000
  3       0.000000000000
  4       0.000000000000
  5       0.000000000000
  6       0.000000000000
  7       0.000000000000
  8       0.000000000000
  9       0.000000000000
 10       0.000000000000
 11       0.000000000000
 12       0.000000000000
 13       0.000000000000
 14       0.000000000000
 15       0.000000000000
 16       0.000000000000
 17       0.000000000000
 18       0.000000000000
 19      -0.371847159399
 20       0.000000000000
 21       0.000000000000
 22       0.000000000000
 23       0.000000000000
 24       1.146771100316
 25       0.000000000000
 26       0.000000000000
 27       0.000000000000
 28       0.000000000000
 29       0.000000000000
 30       0.000000000000
 31       0.000000000000
 32       0.000000000000
 33       0.000000000000
 34       0.000000000000
 35       0.000000000000
 36       0.000000000000
 37       0.000000000000
 38       0.000000000000
 39       0.000000000000
 40       0.000000000000
 41       0.000000000000
 42       0.000000000000
 43       0.000000000000
 44       0.000000000000
 45       0.000000000000
 46       0.000000000000
 47       0.000000000000
 48       0.000000000000
 49       0.000000000000
 50       0.000000000000
 51       0.000000000000
 52       0.000000000000
 53       0.000000000000
 54       0.000000000000
 55       0.000000000000
 56       0.000000000000
 57       0.000000000000
 58       0.000000000000
 59       0.000000000000
 60       0.000000000000
 61       0.000000000000
 62       0.000000000000
 63       0.000000000000
 64       0.000000000000
 65       0.000000000000
 66       0.000000000000
 67       0.000000000000
 68       0.000000000000
 69       0.000000000000
 70       0.000000000000
 71       0.000000000000
 72       0.000000000000
 73       0.000000000000
 74       0.000000000000
 75       0.000000000000
 76       0.000000000000
 77       0.000000000000
 78       0.000000000000
 79       0.000000000000
 80       0.000000000000
 81       0.000000000000
 82       0.000000000000
 83       0.000000000000
 84       0.000000000000
 85       0.000000000000
 86       0.000000000000
 87       0.000000000000
 88       0.000000000000
 89       0.000000000000
 90       0.000000000000
 91       0.000000000000
 92       0.000000000000
 93       0.000000000000
 94       0.000000000000
 95       0.000000000000
 96       0.000000000000
 97       0.000000000000
 98       0.000000000000
 99       0.000000000000
100       0.000000000000
101       0.000000000000
102       0.000000000000
103       0.000000000000
104       0.000000000000
105       0.000000000000
106       0.000000000000
107       0.000000000000
108       0.000000000000
109       0.000000000000
110       0.000000000000
111       0.000000000000
112       0.000000000000
113       0.000000000000
114       0.000000000000
115       0.000000000000
116       0.000000000000
117       0.000000000000
118       0.000000000000
119       0.000000000000
120       0.000000000000
121       0.000000000000
122       0.000000000000
123       0.000000000000
124       0.000000000000
125       0.000000000000
126       0.000000000000
127       0.000000000000
128       0.000000000000
129       0.000000000000
130       0.000000000000
131       0.000000000000
132       0.000000000000
133       0.000000000000
134       0.000000000000
135       0.000000000000
136       0.000000000000
137       0.000000000000
138       0.000000000000
139       0.000000000000
140       0.000000000000
141       0.000000000000
142       0.000000000000
143       0.000000000000
144       0.000000000000
145       0.000000000000
146       0.000000000000
147       0.000000000000
148       0.000000000000
149       0.000000000000
150       0.000000000000
151       0.000000000000
152       0.000000000000
153       0.000000000000
154       0.000000000000
155       0.000000000000
156       0.000000000000
157       0.000000000000
158       0.000000000000
159       0.000000000000
160       0.000000000000
161       0.000000000000
162       0.000000000000
163       0.000000000000
164       0.000000000000
165       0.000000000000
166       0.000000000000
167       0.000000000000
168       0.000000000000
169       0.000000000000
170       0.000000000000
171       0.000000000000
172       0.000000000000
173       0.000000000000
174       0.000000000000
175       0.000000000000
176       0.000000000000
177       0.000000000000
178       0.000000000000
 Sym=     1a
 Ene=  2.26018108175847E+00
Spin= Alpha
 Occup= 0.040115
  1       0.000000000000
  2       0.000000000000
  3       0.000000000000
  4       0.000000000000
  5       0.000000000000
  6       0.000000000000
  7       0.000000000000
  8       0.000000000000
  9       0.000000000000
 10       0.000000000000
 11       0.000000000000
 12       0.000000000000
 13       0.000000000000
 14       0.000000000000
 15       0.000000000000
 16       0.000000000000
 17       0.000000000000
 18       0.000000000000
 19       0.000000000000
 20       0.000000000000
 21       0.000000000000
 22       0.000000000000
 23       0.000000000000
 24       0.000000000000
 25       1.000000000000
 26       0.000000000000
 27       0.000000000000
 28       0.000000000000
 29       0.000000000000
 30       0.000000000000
 31       0.000000000000
 32       0.000000000000
 33       0.000000000000
 34       0.000000000000
 35       0.000000000000
 36       0.000000000000
 37       0.000000000000
 38       0.000000000000
 39       0.000000000000
 40       0.000000000000
 41       0.000000000000
 42       0.000000000000
 43       0.000000000000
 44       0.000000000000
 45       0.000000000000
 46       0.000000000000
 47       0.000000000000
 48       0.000000000000
 49       0.000000000000
 50       0.000000000000
 51       0.000000000000
 52       0.000000000000
 53       0.000000000000
 54       0.000000000000
 55       0.000000000000
 56       0.000000000000
 57       0.000000000000
 58       0.000000000000
 59       0.000000000000
 60       0.000000000000
 61       0.000000000000
 62       0.000000000000
 63       0.000000000000
 64       0.000000000000
 65       0.000000000000
 66       0.000000000000
 67       0.000000000000
 68       0.000000000000
 69       0.000000000000
 70       0.000000000000
 71       0.000000000000
 72       0.000000000000
 73       0.000000000000
 74       0.000000000000
 75       0.000000000000
 76       0.000000000000
 77       0.000000000000
 78       0.000000000000
 79       0.000000000000
 80       0.000000000000
 81       0.000000000000
 82       0.000000000000
 83       0.000000000000
 84       0.000000000000
 85       0.000000000000
 86       0.000000000000
 87       0.000000000000
 88       0.000000000000
 89       0.000000000000
 90       0.000000000000
 91       0.000000000000
 92       0.000000000000
 93       0.000000000000
 94       0.000000000000
 95       0.000000000000
 96       0.000000000000
 97       0.000000000000
 98       0.000000000000
 99       0.000000000000
100       0.000000000000
101       0.000000000000
102       0.000000000000
103       0.000000000000
104       0.000000000000
105       0.000000000000
106       0.000000000000
107       0.000000000000
108       0.000000000000
109       0.000000000000
110       0.000000000000
111       0.000000000000
112       0.000000000000
113       0.000000000000
114       0.000000000000
115       0.000000000000
116       0.000000000000
117       0.000000000000
118       0.000000000000
119       0.000000000000
120       0.000000000000
121       0.000000000000
122       0.000000000000
123       0.000000000000
124       0.000000000000
125       0.000000000000
126       0.000000000000
127       0.000000000000
128       0.000000000000
129       0.000000000000
130       0.000000000000
131       0.000000000000
132       0.000000000000
133       0.000000000000
134       0.000000000000
135       0.000000000000
136       0.000000000000
137       0.000000000000
138       0.000000000000
139       0.000000000000
140       0.000000000000
141       0.000000000000
142       0.000000000000
143       0.000000000000
144       0.000000000000
145       0.000000000000
146       0.000000000000
147       0.000000000000
148       0.000000000000
149       0.000000000000
150       0.000000000000
151       0.000000000000
152       0.000000000000
153       0.000000000000
154       0.000000000000
155       0.000000000000
156       0.000000000000
157       0.000000000000
158       0.000000000000
159       0.000000000000
160       0.000000000000
161       0.000000000000
162       0.000000000000
163       0.000000000000
164       0.000000000000
165       0.000000000000
166       0.000000000000
167       0.000000000000
168       0.000000000000
169       0.000000000000
170       0.000000000000
171       0.000000000000
172       0.000000000000
173       0.000000000000
174       0.000000000000
175       0.000000000000
176       0.000000000000
177       0.000000000000
178       0.000000000000
 Sym=     1a
 Ene=  2.25037665611862E+00
Spin= Alpha
 Occup= 0.040115
  1       0.000000000000
  2       0.000000000000
  3       0.000000000000
  4       0.000000000000
  5       0.000000000000
  6       0.000000000000
  7       0.000000000000
  8       0.000000000000
  9       0.000000000000
 10       0.000000000000
 11       0.000000000000
 12       0.000000000000
 13       0.000000000000
 14       0.000000000000
 15       0.000000000000
 16       0.000000000000
 17       0.000000000000
 18       0.000000000000
 19       0.000000000000
 20       0.000000000000
 21       0.000000000000
 22       0.000000000000
 23       0.000000000000
 24       0.000000000000
 25       0.000000000000
 26       1.000000000000
 27       0.000000000000
 28       0.000000000000
 29       0.000000000000
 30       0.000000000000
 31       0.000000000000
 32       0.000000000000
 33       0.000000000000
 34       0.000000000000
 35       0.000000000000
 36       0.000000000000
 37       0.000000000000
 38       0.000000000000
 39       0.000000000000
 40       0.000000000000
 41       0.000000000000
 42       0.000000000000
 43       0.000000000000
 44       0.000000000000
 45       0.000000000000
 46       0.000000000000
 47       0.000000000000
 48       0.000000000000
 49       0.000000000000
 50       0.000000000000
 51       0.000000000000
 52       0.000000000000
 53       0.000000000000
 54       0.000000000000
 55       0.000000000000
 56       0.000000000000
 57       0.000000000000
 58       0.000000000000
 59       0.000000000000
 60       0.000000000000
 61       0.000000000000
 62       0.000000000000
 63       0.000000000000
 64       0.000000000000
 65       0.000000000000
 66       0.000000000000
 67       0.000000000000
 68       0.000000000000
 69       0.000000000000
 70       0.000000000000
 71       0.000000000000
 72       0.000000000000
 73       0.000000000000
 74       0.000000000000
 75       0.000000000000
 76       0.000000000000
 77       0.000000000000
 78       0.000000000000
 79       0.000000000000
 80       0.000000000000
 81       0.000000000000
 82       0.000000000000
 83       0.000000000000
 84       0.000000000000
 85       0.000000000000
 86       0.000000000000
 87       0.000000000000
 88       0.000000000000
 89       0.000000000000
 90       0.000000000000
 91       0.000000000000
 92       0.000000000000
 93       0.000000000000
 94       0.000000000000
 95       0.000000000000
 96       0.000000000000
 97       0.000000000000
 98       0.000000000000
 99       0.000000000000
100       0.000000000000
101       0.000000000000
102       0.000000000000
103       0.000000000000
104       0.000000000000
105       0.000000000000
106       0.000000000000
107       0.000000000000
108       0.000000000000
109       0.000000000000
110       0.000000000000
111       0.000000000000
112       0.000000000000
113       0.000000000000
114       0.000000000000
115       0.000000000000
116       0.000000000000
117       0.000000000000
118       0.000000000000
119       0.000000000000
120       0.000000000000
121       0.000000000000
122       0.000000000000
123       0.000000000000
124       0.000000000000
125       0.000000000000
126       0.000000000000
127       0.000000000000
128       0.000000000000
129       0.000000000000
130       0.000000000000
131       0.000000000000
132       0.000000000000
133       0.000000000000
134       0.000000000000
135       0.000000000000
136       0.000000000000
137       0.000000000000
138       0.000000000000
139       0.000000000000
140       0.000000000000
141       0.000000000000
142       0.000000000000
143       0.000000000000
144       0.000000000000
145       0.000000000000
146       0.000000000000
147       0.000000000000
148       0.000000000000
149       0.000000000000
150       0.000000000000
151       0.000000000000
152       0.000000000000
153       0.000000000000
154       0.000000000000
155       0.000000000000
156       0.000000000000
157       0.000000000000
158       0.000000000000
159       0.000000000000
160       0.000000000000
161       0.000000000000
162       0.000000000000
163       0.000000000000
164       0.000000000000
165       0.000000000000
166       0.000000000000
167       0.000000000000
168       0.000000000000
169       0.000000000000
170       0.000000000000
171       0.000000000000
172       0.000000000000
173       0.000000000000
174       0.000000000000
175       0.000000000000
176       0.000000000000
177       0.000000000000
178       0.000000000000
 Sym=     1a
 Ene=  2.31252296174400E+00
Spin= Alpha
 Occup= 0.040115
  1       0.000000000000
  2       0.000000000000
  3       0.000000000000
  4       0.000000000000
  5       0.000000000000
  6       0.000000000000
  7       0.000000000000
  8       0.000000000000
  9       0.000000000000
 10       0.000000000000
 11       0.000000000000
 12       0.000000000000
 13       0.000000000000
 14       0.000000000000
 15       0.000000000000
 16       0.000000000000
 17       0.000000000000
 18       0.000000000000
 19       0.000000000000
 20       0.000000000000
 21       0.000000000000
 22       0.000000000000
 23       0.000000000000
 24       0.000000000000
 25       0.000000000000
 26       0.000000000000
 27       1.000000000000
 28       0.000000000000
 29       0.000000000000
 30       0.000000000000
 31       0.000000000000
 32       0.000000000000
 33       0.000000000000
 34       0.000000000000
 35       0.000000000000
 36       0.000000000000
 37       0.000000000000
 38       0.000000000000
 39       0.000000000000
 40       0.000000000000
 41       0.000000000000
 42       0.000000000000
 43       0.000000000000
 44       0.000000000000
 45       0.000000000000
 46       0.000000000000
 47       0.000000000000
 48       0.000000000000
 49       0.000000000000
 50       0.000000000000
 51       0.000000000000
 52       0.000000000000
 53       0.000000000000
 54       0.000000000000
 55       0.000000000000
 56       0.000000000000
 57       0.000000000000
 58       0.000000000000
 59       0.000000000000
 60       0.000000000000
 61       0.000000000000
 62       0.000000000000
 63       0.000000000000
 64       0.000000000000
 65       0.000000000000
 66       0.000000000000
 67       0.000000000000
 68       0.000000000000
 69       0.000000000000
 70       0.000000000000
 71       0.000000000000
 72       0.000000000000
 73       0.000000000000
 74       0.000000000000
 75       0.000000000000
 76       0.000000000000
 77       0.000000000000
 78       0.000000000000
 79       0.000000000000
 80       0.000000000000
 81       0.000000000000
 82       0.000000000000
 83       0.000000000000
 84       0.000000000000
 85       0.000000000000
 86       0.000000000000
 87       0.000000000000
 88       0.000000000000
 89       0.000000000000
 90       0.000000000000
 91       0.000000000000
 92       0.000000000000
 93       0.000000000000
 94       0.000000000000
 95       0.000000000000
 96       0.000000000000
 97       0.000000000000
 98       0.000000000000
 99       0.000000000000
100       0.000000000000
101       0.000000000000
102       0.000000000000
103       0.000000000000
104       0.000000000000
105       0.000000000000
106       0.000000000000
107       0.000000000000
108       0.000000000000
109       0.000000000000
110       0.000000000000
111       0.000000000000
112       0.000000000000
113       0.000000000000
114       0.000000000000
115       0.000000000000
116       0.000000000000
117       0.000000000000
118       0.000000000000
119       0.000000000000
120       0.000000000000
121       0.000000000000
122       0.000000000000
123       0.000000000000
124       0.000000000000
125       0.000000000000
126       0.000000000000
127       0.000000000000
128       0.000000000000
129       0.000000000000
130       0.000000000000
131       0.000000000000
132       0.000000000000
133       0.000000000000
134       0.000000000000
135       0.000000000000
136       0.000000000000
137       0.000000000000
138       0.000000000000
139       0.000000000000
140       0.000000000000
141       0.000000000000
142       0.000000000000
143       0.000000000000
144       0.000000000000
145       0.000000000000
146       0.000000000000
147       0.000000000000
148       0.000000000000
149       0.000000000000
150       0.000000000000
151       0.000000000000
152       0.000000000000
153       0.000000000000
154       0.000000000000
155       0.000000000000
156       0.000000000000
157       0.000000000000
158       0.000000000000
159       0.000000000000
160       0.000000000000
161       0.000000000000
162       0.000000000000
163       0.000000000000
164       0.000000000000
165       0.000000000000
166       0.000000000000
167       0.000000000000
168       0.000000000000
169       0.000000000000
170       0.000000000000
171       0.000000000000
172       0.000000000000
173       0.000000000000
174       0.000000000000
175       0.000000000000
176       0.000000000000
177       0.000000000000
178       0.000000000000
 Sym=     1a
 Ene=  2.23958137555856E+00
Spin= Alpha
 Occup= 0.040115
  1       0.000000000000
  2       0.000000000000
  3       0.000000000000
  4       0.000000000000
  5       0.000000000000
  6       0.000000000000
  7       0.000000000000
  8       0.000000000000
  9       0.000000000000
 10       0.000000000000
 11       0.000000000000
 12       0.000000000000
 13       0.000000000000
 14       0.000000000000
 15       0.000000000000
 16       0.000000000000
 17       0.000000000000
 18       0.000000000000
 19       0.000000000000
 20       0.000000000000
 21       0.000000000000
 22       0.000000000000
 23       0.000000000000
 24       0.000000000000
 25       0.000000000000
 26       0.000000000000
 27       0.000000000000
 28       1.000000000000
 29       0.000000000000
 30       0.000000000000
 31       0.000000000000
 32       0.000000000000
 33       0.000000000000
 34       0.000000000000
 35       0.000000000000
 36       0.000000000000
 37       0.000000000000
 38       0.000000000000
 39       0.000000000000
 40       0.000000000000
 41       0.000000000000
 42       0.000000000000
 43       0.000000000000
 44       0.000000000000
 45       0.000000000000
 46       0.000000000000
 47       0.000000000000
 48       0.000000000000
 49       0.000000000000
 50       0.000000000000
 51       0.000000000000
 52       0.000000000000
 53       0.000000000000
 54       0.000000000000
 55       0.000000000000
 56       0.000000000000
 57       0.000000000000
 58       0.000000000000
 59       0.000000000000
 60       0.000000000000
 61       0.000000000000
 62       0.000000000000
 63       0.000000000000
 64       0.000000000000
 65       0.000000000000
 66       0.000000000000
 67       0.000000000000
 68       0.000000000000
 69       0.000000000000
 70       0.000000000000
 71       0.000000000000
 72       0.000000000000
 73       0.000000000000
 74       0.000000000000
 75       0.000000000000
 76       0.000000000000
 77       0.000000000000
 78       0.000000000000
 79       0.000000000000
 80       0.000000000000
 81       0.000000000000
 82       0.000000000000
 83       0.000000000000
 84       0.000000000000
 85       0.000000000000
 86       0.000000000000
 87       0.000000000000
 88       0.000000000000
 89       0.000000000000
 90       0.000000000000
 91       0.000000000000
 92       0.000000000000
 93       0.000000000000
 94       0.000000000000
 95       0.000000000000
 96       0.000000000000
 97       0.000000000000
 98       0.000000000000
 99       0.000000000000
100       0.000000000000
101       0.000000000000
102       0.000000000000
103       0.000000000000
104       0.000000000000
105       0.000000000000
106       0.000000000000
107       0.000000000000
108       0.000000000000
109       0.000000000000
110       0.000000000000
111       0.000000000000
112       0.000000000000
113       0.000000000000
114       0.000000000000
115       0.000000000000
116       0.000000000000
117       0.000000000000
118       0.000000000000
119       0.000000000000
120       0.000000000000
121       0.000000000000
122       0.000000000000
123       0.000000000000
124       0.000000000000
125       0.000000000000
126       0.000000000000
127       0.000000000000
128       0.000000000000
129       0.000000000000
130       0.000000000000
131       0.000000000000
132       0.000000000000
133       0.000000000000
134       0.000000000000
135       0.000000000000
136       0.000000000000
137       0.000000000000
138       0.000000000000
139       0.000000000000
140       0.000000000000
141       0.000000000000
142       0.000000000000
143       0.000000000000
144       0.000000000000
145       0.000000000000
146       0.000000000000
147       0.000000000000
148       0.000000000000
149       0.000000000000
150       0.000000000000
151       0.000000000000
152       0.000000000000
153       0.000000000000
154       0.000000000000
155       0.000000000000
156       0.000000000000
157       0.000000000000
158       0.000000000000
159       0.000000000000
160       0.000000000000
161       0.000000000000
162       0.000000000000
163       0.000000000000
164       0.000000000000
165       0.000000000000
166       0.000000000000
167       0.000000000000
168       0.000000000000
169       0.000000000000
170       0.000000000000
171       0.000000000000
172       0.000000000000
173       0.000000000000
174       0.000000000000
175       0.000000000000
176       0.000000000000
177       0.000000000000
178       0.000000000000
 Sym=     1a
 Ene=  2.31706247040346E+00
Spin= Alpha
 Occup= 0.040115
  1       0.000000000000
  2       0.000000000000
  3       0.000000000000
  4       0.000000000000
  5       0.000000000000
  6       0.000000000000
  7       0.000000000000
  8       0.000000000000
  9       0.000000000000
 10       0.000000000000
 11       0.000000000000
 12       0.000000000000
 13       0.000000000000
 14       0.000000000000
 15       0.000000000000
 16       0.000000000000
 17       0.000000000000
 18       0.000000000000
 19       0.000000000000
 20       0.000000000000
 21       0.000000000000
 22       0.000000000000
 23       0.000000000000
 24       0.000000000000
 25       0.000000000000
 26       0.000000000000
 27       0.000000000000
 28       0.000000000000
 29       1.000000000000
 30       0.000000000000
 31       0.000000000000
 32       0.000000000000
 33       0.000000000000
 34       0.000000000000
 35       0.000000000000
 36       0.000000000000
 37       0.000000000000
 38       0.000000000000
 39       0.000000000000
 40       0.000000000000
 41       0.000000000000
 42       0.000000000000
 43       0.000000000000
 44       0.000000000000
 45       0.000000000000
 46       0.000000000000
 47       0.000000000000
 48       0.000000000000
 49       0.000000000000
 50       0.000000000000
 51       0.000000000000
 52       0.000000000000
 53       0.000000000000
 54       0.000000000000
 55       0.000000000000
 56       0.000000000000
 57       0.000000000000
 58       0.000000000000
 59       0.000000000000
 60       0.000000000000
 61       0.000000000000
 62       0.000000000000
 63       0.000000000000
 64       0.000000000000
 65       0.000000000000
 66       0.000000000000
 67       0.000000000000
 68       0.000000000000
 69       0.000000000000
 70       0.000000000000
 71       0.000000000000
 72       0.000000000000
 73       0.000000000000
 74       0.000000000000
 75       0.000000000000
 76       0.000000000000
 77       0.000000000000
 78       0.000000000000
 79       0.000000000000
 80       0.000000000000
 81       0.000000000000
 82       0.000000000000
 83       0.000000000000
 84       0.000000000000
 85       0.000000000000
 86       0.000000000000
 87       0.000000000000
 88       0.000000000000
 89       0.000000000000
 90       0.000000000000
 91       0.000000000000
 92       0.000000000000
 93       0.000000000000
 94       0.000000000000
 95       0.000000000000
 96       0.000000000000
 97       0.000000000000
 98       0.000000000000
 99       0.000000000000
100       0.000000000000
101       0.000000000000
102       0.000000000000
103       0.000000000000
104       0.000000000000
105       0.000000000000
106       0.000000000000
107       0.000000000000
108       0.000000000000
109       0.000000000000
110       0.000000000000
111       0.000000000000
112       0.000000000000
113       0.000000000000
114       0.000000000000
115       0.000000000000
116       0.000000000000
117       0.000000000000
118       0.000000000000
119       0.000000000000
120       0.000000000000
121       0.000000000000
122       0.000000000000
123       0.000000000000
124       0.000000000000
125       0.000000000000
126       0.000000000000
127       0.000000000000
128       0.000000000000
129       0.000000000000
130       0.000000000000
131       0.000000000000
132       0.000000000000
133       0.000000000000
134       0.000000000000
135       0.000000000000
136       0.000000000000
137       0.000000000000
138       0.000000000000
139       0.000000000000
140       0.000000000000
141       0.000000000000
142       0.000000000000
143       0.000000000000
144       0.000000000000
145       0.000000000000
146       0.000000000000
147       0.000000000000
148       0.000000000000
149       0.000000000000
150       0.000000000000
151       0.000000000000
152       0.000000000000
153       0.000000000000
154       0.000000000000
155       0.000000000000
156       0.000000000000
157       0.000000000000
158       0.000000000000
159       0.000000000000
160       0.000000000000
161       0.000000000000
162       0.000000000000
163       0.000000000000
164       0.000000000000
165       0.000000000000
166       0.000000000000
167       0.000000000000
168       0.000000000000
169       0.000000000000
170       0.000000000000
171       0.000000000000
172       0.000000000000
173       0.000000000000
174       0.000000000000
175       0.000000000000
176       0.000000000000
177       0.000000000000
178       0.000000000000
 Sym=     1a
 Ene=  2.32967422402921E+00
Spin= Alpha
 Occup= 0.040115
  1       0.000000000000
  2       0.000000000000
  3       0.000000000000
  4       0.000000000000
  5       0.000000000000
  6       0.000000000000
  7       0.000000000000
  8       0.000000000000
  9       0.000000000000
 10       0.000000000000
 11       0.000000000000
 12       0.000000000000
 13       0.000000000000
 14       0.000000000000
 15       0.000000000000
 16       0.000000000000
 17       0.000000000000
 18       0.000000000000
 19       0.000000000000
 20       0.000000000000
 21       0.000000000000
 22       0.000000000000
 23       0.000000000000
 24       0.000000000000
 25       0.000000000000
 26       0.000000000000
 27       0.000000000000
 28       0.000000000000
 29       0.000000000000
 30       1.000000000000
 31       0.000000000000
 32       0.000000000000
 33       0.000000000000
 34       0.000000000000
 35       0.000000000000
 36       0.000000000000
 37       0.000000000000
 38       0.000000000000
 39       0.000000000000
 40       0.000000000000
 41       0.000000000000
 42       0.000000000000
 43       0.000000000000
 44       0.000000000000
 45       0.000000000000
 46       0.000000000000
 47       0.000000000000
 48       0.000000000000
 49       0.000000000000
 50       0.000000000000
 51       0.000000000000
 52       0.000000000000
 53       0.000000000000
 54       0.000000000000
 55       0.000000000000
 56       0.000000000000
 57       0.000000000000
 58       0.000000000000
 59       0.000000000000
 60       0.000000000000
 61       0.000000000000
 62       0.000000000000
 63       0.000000000000
 64       0.000000000000
 65       0.000000000000
 66       0.000000000000
 67       0.000000000000
 68       0.000000000000
 69       0.000000000000
 70       0.000000000000
 71       0.000000000000
 72       0.000000000000
 73       0.000000000000
 74       0.000000000000
 75       0.000000000000
 76       0.000000000000
 77       0.000000000000
 78       0.000000000000
 79       0.000000000000
 80       0.000000000000
 81       0.000000000000
 82       0.000000000000
 83       0.000000000000
 84       0.000000000000
 85       0.000000000000
 86       0.000000000000
 87       0.000000000000
 88       0.000000000000
 89       0.000000000000
 90       0.000000000000
 91       0.000000000000
 92       0.000000000000
 93       0.000000000000
 94       0.000000000000
 95       0.000000000000
 96       0.000000000000
 97       0.000000000000
 98       0.000000000000
 99       0.000000000000
100       0.000000000000
101       0.000000000000
102       0.000000000000
103       0.000000000000
104       0.000000000000
105       0.000000000000
106       0.000000000000
107       0.000000000000
108       0.000000000000
109       0.000000000000
110       0.000000000000
111       0.000000000000
112       0.000000000000
113       0.000000000000
114       0.000000000000
115       0.000000000000
116       0.000000000000
117       0.000000000000
118       0.000000000000
119       0.000000000000
120       0.000000000000
121       0.000000000000
122       0.000000000000
123       0.000000000000
124       0.000000000000
125       0.000000000000
126       0.000000000000
127       0.000000000000
128       0.000000000000
129       0.000000000000
130       0.000000000000
131       0.000000000000
132       0.000000000000
133       0.000000000000
134       0.000000000000
135       0.000000000000
136       0.000000000000
137       0.000000000000
138       0.000000000000
139       0.000000000000
140       0.000000000000
141       0.000000000000
142       0.000000000000
143       0.000000000000
144       0.000000000000
145       0.000000000000
146       0.000000000000
147       0.000000000000
148       0.000000000000
149       0.000000000000
150       0.000000000000
151       0.000000000000
152       0.000000000000
153       0.000000000000
154       0.000000000000
155       0.000000000000
156       0.000000000000
157       0.000000000000
158       0.000000000000
159       0.000000000000
160       0.000000000000
161       0.000000000000
162       0.000000000000
163       0.000000000000
164       0.000000000000
165       0.000000000000
166       0.000000000000
167       0.000000000000
168       0.000000000000
169       0.000000000000
170       0.000000000000
171       0.000000000000
172       0.000000000000
173       0.000000000000
174       0.000000000000
175       0.000000000000
176       0.000000000000
177       0.000000000000
178       0.000000000000
 Sym=     1a
 Ene=  2.33738164885653E+00
Spin= Alpha
 Occup= 0.040115
  1       0.000000000000
  2       0.000000000000
  3       0.000000000000
  4       0.000000000000
  5       0.000000000000
  6       0.000000000000
  7       0.000000000000
  8       0.000000000000
  9       0.000000000000
 10       0.000000000000
 11       0.000000000000
 12       0.000000000000
 13       0.000000000000
 14       0.000000000000
 15       0.000000000000
 16       0.000000000000
 17       0.000000000000
 18       0.000000000000
 19       0.000000000000
 20       0.000000000000
 21       0.000000000000
 22       0.000000000000
 23       0.000000000000
 24       0.000000000000
 25       0.000000000000
 26       0.000000000000
 27       0.000000000000
 28       0.000000000000
 29       0.000000000000
 30       0.000000000000
 31       1.000000000000
 32       0.000000000000
 33       0.000000000000
 34       0.000000000000
 35       0.000000000000
 36       0.000000000000
 37       0.000000000000
 38       0.000000000000
 39       0.000000000000
 40       0.000000000000
 41       0.000000000000
 42       0.000000000000
 43       0.000000000000
 44       0.000000000000
 45       0.000000000000
 46       0.000000000000
 47       0.000000000000
 48       0.000000000000
 49       0.000000000000
 50       0.000000000000
 51       0.000000000000
 52       0.000000000000
 53       0.000000000000
 54       0.000000000000
 55       0.000000000000
 56       0.000000000000
 57       0.000000000000
 58       0.000000000000
 59       0.000000000000
 60       0.000000000000
 61       0.000000000000
 62       0.000000000000
 63       0.000000000000
 64       0.000000000000
 65       0.000000000000
 66       0.000000000000
 67       0.000000000000
 68       0.000000000000
 69       0.000000000000
 70       0.000000000000
 71       0.000000000000
 72       0.000000000000
 73       0.000000000000
 74       0.000000000000
 75       0.000000000000
 76       0.000000000000
 77       0.000000000000
 78       0.000000000000
 79       0.000000000000
 80       0.000000000000
 81       0.000000000000
 82       0.000000000000
 83       0.000000000000
 84       0.000000000000
 85       0.000000000000
 86       0.000000000000
 87       0.000000000000
 88       0.000000000000
 89       0.000000000000
 90       0.000000000000
 91       0.000000000000
 92       0.000000000000
 93       0.000000000000
 94       0.000000000000
 95       0.000000000000
 96       0.000000000000
 97       0.000000000000
 98       0.000000000000
 99       0.000000000000
100       0.000000000000
101       0.000000000000
102       0.000000000000
103       0.000000000000
104       0.000000000000
105       0.000000000000
106       0.000000000000
107       0.000000000000
108       0.000000000000
109       0.000000000000
110       0.000000000000
111       0.000000000000
112       0.000000000000
113       0.000000000000
114       0.000000000000
115       0.000000000000
116       0.000000000000
117       0.000000000000
118       0.000000000000
119       0.000000000000
120       0.000000000000
121       0.000000000000
122       0.000000000000
123       0.000000000000
124       0.000000000000
125       0.000000000000
126       0.000000000000
127       0.000000000000
128       0.000000000000
129       0.000000000000
130       0.000000000000
131       0.000000000000
132       0.000000000000
133       0.000000000000
134       0.000000000000
135       0.000000000000
136       0.000000000000
137       0.000000000000
138       0.000000000000
139       0.000000000000
140       0.000000000000
141       0.000000000000
142       0.000000000000
143       0.000000000000
144       0.000000000000
145       0.000000000000
146       0.000000000000
147       0.000000000000
148       0.000000000000
149       0.000000000000
150       0.000000000000
151       0.000000000000
152       0.000000000000
153       0.000000000000
154       0.000000000000
155       0.000000000000
156       0.000000000000
157       0.000000000000
158       0.000000000000
159       0.000000000000
160       0.000000000000
161       0.000000000000
162       0.000000000000
163       0.000000000000
164       0.000000000000
165       0.000000000000
166       0.000000000000
167       0.000000000000
168       0.000000000000
169       0.000000000000
170       0.000000000000
171       0.000000000000
172       0.000000000000
173       0.000000000000
174       0.000000000000
175       0.000000000000
176       0.000000000000
177       0.000000000000
178       0.000000000000
 Sym=     1a
 Ene=  2.00164254941036E+01
Spin= Alpha
 Occup= 0.000055
  1       0.000000000000
  2       0.000000000000
  3       0.000000000000
  4       0.000000000000
  5       0.000000000000
  6       0.000000000000
  7       0.000000000000
  8       0.000000000000
  9       0.000000000000
 10       0.000000000000
 11       0.000000000000
 12       0.000000000000
 13       0.000000000000
 14       0.000000000000
 15       0.000000000000
 16       0.000000000000
 17       0.000000000000
 18       0.000000000000
 19       0.000000000000
 20       0.000000000000
 21       0.000000000000
 22       0.000000000000
 23       0.000000000000
 24       0.000000000000
 25       0.000000000000
 26       0.000000000000
 27       0.000000000000
 28       0.000000000000
 29       0.000000000000
 30       0.000000000000
 31       0.000000000000
 32      -1.371443548212
 33       1.507778850455
 34      -0.575234139919
 35       0.213162558803
 36      -0.037902294190
 37       0.000000000000
 38       0.000000000000
 39       0.000000000000
 40       0.000000000000
 41       0.000000000000
 42       0.000000000000
 43       0.000000000000
 44       0.000000000000
 45       0.000000000000
 46       0.000000000000
 47       0.000000000000
 48       0.000000000000
 49       0.000000000000
 50       0.000000000000
 51       0.000000000000
 52       0.000000000000
 53       0.000000000000
 54       0.000000000000
 55       0.000000000000
 56       0.000000000000
 57       0.000000000000
 58       0.000000000000
 59       0.000000000000
 60       0.000000000000
 61       0.000000000000
 62       0.000000000000
 63       0.000000000000
 64       0.000000000000
 65       0.000000000000
 66       0.000000000000
 67       0.000000000000
 68       0.000000000000
 69       0.000000000000
 70       0.000000000000
 71       0.000000000000
 72       0.000000000000
 73       0.000000000000
 74       0.000000000000
 75       0.000000000000
 76       0.000000000000
 77       0.000000000000
 78       0.000000000000
 79       0.000000000000
 80       0.000000000000
 81       0.000000000000
 82       0.000000000000
 83       0.000000000000
 84       0.000000000000
 85       0.000000000000
 86       0.000000000000
 87       0.000000000000
 88       0.000000000000
 89       0.000000000000
 90       0.000000000000
 91       0.000000000000
 92       0.000000000000
 93       0.000000000000
 94       0.000000000000
 95       0.000000000000
 96       0.000000000000
 97       0.000000000000
 98       0.000000000000
 99       0.000000000000
100       0.000000000000
101       0.000000000000
102       0.000000000000
103       0.000000000000
104       0.000000000000
105       0.000000000000
106       0.000000000000
107       0.000000000000
108       0.000000000000
109       0.000000000000
110       0.000000000000
111       0.000000000000
112       0.000000000000
113       0.000000000000
114       0.000000000000
115       0.000000000000
116       0.000000000000
117       0.000000000000
118       0.000000000000
119       0.000000000000
120       0.000000000000
121       0.000000000000
122       0.000000000000
123       0.000000000000
124       0.000000000000
125       0.000000000000
126       0.000000000000
127       0.000000000000
128       0.000000000000
129       0.000000000000
130       0.000000000000
131       0.000000000000
132       0.000000000000
133       0.000000000000
134       0.000000000000
135       0.000000000000
136       0.000000000000
137       0.000000000000
138       0.000000000000
139       0.000000000000
140       0.000000000000
141       0.000000000000
142       0.000000000000
143       0.000000000000
144       0.000000000000
145       0.000000000000
146       0.000000000000
147       0.000000000000
148       0.000000000000
149       0.000000000000
150       0.000000000000
151       0.000000000000
152       0.000000000000
153       0.000000000000
154       0.000000000000
155       0.000000000000
156       0.000000000000
157       0.000000000000
158       0.000000000000
159       0.000000000000
160       0.000000000000
161       0.000000000000
162       0.000000000000
163       0.000000000000
164       0.000000000000
165       0.000000000000
166       0.000000000000
167       0.000000000000
168       0.000000000000
169       0.000000000000
170       0.000000000000
171       0.000000000000
172       0.000000000000
173       0.000000000000
174       0.000000000000
175       0.000000000000
176       0.000000000000
177       0.000000000000
178       0.000000000000
 Sym=     1a
 Ene=  1.99166598487751E+00
Spin= Alpha
 Occup= 0.027650
  1       0.000000000000
  2       0.000000000000
  3       0.000000000000
  4       0.000000000000
  5       0.000000000000
  6       0.000000000000
  7       0.000000000000
  8       0.000000000000
  9       0.000000000000
 10       0.000000000000
 11       0.000000000000
 12       0.000000000000
 13       0.000000000000
 14       0.000000000000
 15       0.000000000000
 16       0.000000000000
 17       0.000000000000
 18       0.000000000000
 19       0.000000000000
 20       0.000000000000
 21       0.000000000000
 22       0.000000000000
 23       0.000000000000
 24       0.000000000000
 25       0.000000000000
 26       0.000000000000
 27       0.000000000000
 28       0.000000000000
 29       0.000000000000
 30       0.000000000000
 31       0.000000000000
 32      -0.172435180151
 33       0.830653780828
 34      -3.019126446605
 35       3.381455271667
 36      -1.156695315989
 37       0.000000000000
 38       0.000000000000
 39       0.000000000000
 40       0.000000000000
 41       0.000000000000
 42       0.000000000000
 43       0.000000000000
 44       0.000000000000
 45       0.000000000000
 46       0.000000000000
 47       0.000000000000
 48       0.000000000000
 49       0.000000000000
 50       0.000000000000
 51       0.000000000000
 52       0.000000000000
 53       0.000000000000
 54       0.000000000000
 55       0.000000000000
 56       0.000000000000
 57       0.000000000000
 58       0.000000000000
 59       0.000000000000
 60       0.000000000000
 61       0.000000000000
 62       0.000000000000
 63       0.000000000000
 64       0.000000000000
 65       0.000000000000
 66       0.000000000000
 67       0.000000000000
 68       0.000000000000
 69       0.000000000000
 70       0.000000000000
 71       0.000000000000
 72       0.000000000000
 73       0.000000000000
 74       0.000000000000
 75       0.000000000000
 76       0.000000000000
 77       0.000000000000
 78       0.000000000000
 79       0.000000000000
 80       0.000000000000
 81       0.000000000000
 82       0.000000000000
 83       0.000000000000
 84       0.000000000000
 85       0.000000000000
 86       0.000000000000
 87       0.000000000000
 88       0.000000000000
 89       0.000000000000
 90       0.000000000000
 91       0.000000000000
 92       0.000000000000
 93       0.000000000000
 94       0.000000000000
 95       0.000000000000
 96       0.000000000000
 97       0.000000000000
 98       0.000000000000
 99       0.000000000000
100       0.000000000000
101       0.000000000000
102       0.000000000000
103       0.000000000000
104       0.000000000000
105       0.000000000000
106       0.000000000000
107       0.000000000000
108       0.000000000000
109       0.000000000000
110       0.000000000000
111       0.000000000000
112       0.000000000000
113       0.000000000000
114       0.000000000000
115       0.000000000000
116       0.000000000000
117       0.000000000000
118       0.000000000000
119       0.000000000000
120       0.000000000000
121       0.000000000000
122       0.000000000000
123       0.000000000000
124       0.000000000000
125       0.000000000000
126       0.000000000000
127       0.000000000000
128       0.000000000000
129       0.000000000000
130       0.000000000000
131       0.000000000000
132       0.000000000000
133       0.000000000000
134       0.000000000000
135       0.000000000000
136       0.000000000000
137       0.000000000000
138       0.000000000000
139       0.000000000000
140       0.000000000000
141       0.000000000000
142       0.000000000000
143       0.000000000000
144       0.000000000000
145       0.000000000000
146       0.000000000000
147       0.000000000000
148       0.000000000000
149       0.000000000000
150       0.000000000000
151       0.000000000000
152       0.000000000000
153       0.000000000000
154       0.000000000000
155       0.000000000000
156       0.000000000000
157       0.000000000000
158       0.000000000000
159       0.000000000000
160       0.000000000000
161       0.000000000000
162       0.000000000000
163       0.000000000000
164       0.000000000000
165       0.000000000000
166       0.000000000000
167       0.000000000000
168       0.000000000000
169       0.000000000000
170       0.000000000000
171       0.000000000000
172       0.000000000000
173       0.000000000000
174       0.000000000000
175       0.000000000000
176       0.000000000000
177       0.000000000000
178       0.000000000000
 Sym=     1a
 Ene= -9.35734141852294E-02
Spin= Alpha
 Occup= 0.398070
  1       0.000000000000
  2       0.000000000000
  3       0.000000000000
  4       0.000000000000
  5       0.000000000000
  6       0.000000000000
  7       0.000000000000
  8       0.000000000000
  9       0.000000000000
 10       0.000000000000
 11       0.000000000000
 12       0.000000000000
 13       0.000000000000
 14       0.000000000000
 15       0.000000000000
 16       0.000000000000
 17       0.000000000000
 18       0.000000000000
 19       0.000000000000
 20       0.000000000000
 21       0.000000000000
 22       0.000000000000
 23       0.000000000000
 24       0.000000000000
 25       0.000000000000
 26       0.000000000000
 27       0.000000000000
 28       0.000000000000
 29       0.000000000000
 30       0.000000000000
 31       0.000000000000
 32       0.083979913882
 33      -0.063000415605
 34       0.818385513481
 35      -2.839659674662
 36       2.440061626031
 37       0.000000000000
 38       0.000000000000
 39       0.000000000000
 40       0.000000000000
 41       0.000000000000
 42       0.000000000000
 43       0.000000000000
 44       0.000000000000
 45       0.000000000000
 46       0.000000000000
 47       0.000000000000
 48       0.000000000000
 49       0.000000000000
 50       0.000000000000
 51       0.000000000000
 52       0.000000000000
 53       0.000000000000
 54       0.000000000000
 55       0.000000000000
 56       0.000000000000
 57       0.000000000000
 58       0.000000000000
 59       0.000000000000
 60       0.000000000000
 61       0.000000000000
 62       0.000000000000
 63       0.000000000000
 64       0.000000000000
 65       0.000000000000
 66       0.000000000000
 67       0.000000000000
 68       0.000000000000
 69       0.000000000000
 70       0.000000000000
 71       0.000000000000
 72       0.000000000000
 73       0.000000000000
 74       0.000000000000
 75       0.000000000000
 76       0.000000000000
 77       0.000000000000
 78       0.000000000000
 79       0.000000000000
 80       0.000000000000
 81       0.000000000000
 82       0.000000000000
 83       0.000000000000
 84       0.000000000000
 85       0.000000000000
 86       0.000000000000
 87       0.000000000000
 88       0.000000000000
 89       0.000000000000
 90       0.000000000000
 91       0.000000000000
 92       0.000000000000
 93       0.000000000000
 94       0.000000000000
 95       0.000000000000
 96       0.000000000000
 97       0.000000000000
 98       0.000000000000
 99       0.000000000000
100       0.000000000000
101       0.000000000000
102       0.000000000000
103       0.000000000000
104       0.000000000000
105       0.000000000000
106       0.000000000000
107       0.000000000000
108       0.000000000000
109       0.000000000000
110       0.000000000000
111       0.000000000000
112       0.000000000000
113       0.000000000000
114       0.000000000000
115       0.000000000000
116       0.000000000000
117       0.000000000000
118       0.000000000000
119       0.000000000000
120       0.000000000000
121       0.000000000000
122       0.000000000000
123       0.000000000000
124       0.000000000000
125       0.000000000000
126       0.000000000000
127       0.000000000000
128       0.000000000000
129       0.000000000000
130       0.000000000000
131       0.000000000000
132       0.000000000000
133       0.000000000000
134       0.000000000000
135       0.000000000000
136       0.000000000000
137       0.000000000000
138       0.000000000000
139       0.000000000000
140       0.000000000000
141       0.000000000000
142       0.000000000000
143       0.000000000000
144       0.000000000000
145       0.000000000000
146       0.000000000000
147       0.000000000000
148       0.000000000000
149       0.000000000000
150       0.000000000000
151       0.000000000000
152       0.000000000000
153       0.000000000000
154       0.000000000000
155       0.000000000000
156       0.000000000000
157       0.000000000000
158       0.000000000000
159       0.000000000000
160       0.000000000000
161       0.000000000000
162       0.000000000000
163       0.000000000000
164       0.000000000000
165       0.000000000000
166       0.000000000000
167       0.000000000000
168       0.000000000000
169       0.000000000000
170       0.000000000000
171       0.000000000000
172       0.000000000000
173       0.000000000000
174       0.000000000000
175       0.000000000000
176       0.000000000000
177       0.000000000000
178       0.000000000000
 Sym=     1a
 Ene= -1.02649588391724E+00
Spin= Alpha
 Occup= 1.925432
  1       0.000000000000
  2       0.000000000000
  3       0.000000000000
  4       0.000000000000
  5       0.000000000000
  6       0.000000000000
  7       0.000000000000
  8       0.000000000000
  9       0.000000000000
 10       0.000000000000
 11       0.000000000000
 12       0.000000000000
 13       0.000000000000
 14       0.000000000000
 15       0.000000000000
 16       0.000000000000
 17       0.000000000000
 18       0.000000000000
 19       0.000000000000
 20       0.000000000000
 21       0.000000000000
 22       0.000000000000
 23       0.000000000000
 24       0.000000000000
 25       0.000000000000
 26       0.000000000000
 27       0.000000000000
 28       0.000000000000
 29       0.000000000000
 30       0.000000000000
 31       0.000000000000
 32       0.099340420713
 33       0.184132410280
 34      -0.087901525352
 35      -0.873156712321
 36      -0.099141101766
 37       0.000000000000
 38       0.000000000000
 39       0.000000000000
 40       0.000000000000
 41       0.000000000000
 42       0.000000000000
 43       0.000000000000
 44       0.000000000000
 45       0.000000000000
 46       0.000000000000
 47       0.000000000000
 48       0.000000000000
 49       0.000000000000
 50       0.000000000000
 51       0.000000000000
 52       0.000000000000
 53       0.000000000000
 54       0.000000000000
 55       0.000000000000
 56       0.000000000000
 57       0.000000000000
 58       0.000000000000
 59       0.000000000000
 60       0.000000000000
 61       0.000000000000
 62       0.000000000000
 63       0.000000000000
 64       0.000000000000
 65       0.000000000000
 66       0.000000000000
 67       0.000000000000
 68       0.000000000000
 69       0.000000000000
 70       0.000000000000
 71       0.000000000000
 72       0.000000000000
 73       0.000000000000
 74       0.000000000000
 75       0.000000000000
 76       0.000000000000
 77       0.000000000000
 78       0.000000000000
 79       0.000000000000
 80       0.000000000000
 81       0.000000000000
 82       0.000000000000
 83       0.000000000000
 84       0.000000000000
 85       0.000000000000
 86       0.000000000000
 87       0.000000000000
 88       0.000000000000
 89       0.000000000000
 90       0.000000000000
 91       0.000000000000
 92       0.000000000000
 93       0.000000000000
 94       0.000000000000
 95       0.000000000000
 96       0.000000000000
 97       0.000000000000
 98       0.000000000000
 99       0.000000000000
100       0.000000000000
101       0.000000000000
102       0.000000000000
103       0.000000000000
104       0.000000000000
105       0.000000000000
106       0.000000000000
107       0.000000000000
108       0.000000000000
109       0.000000000000
110       0.000000000000
111       0.000000000000
112       0.000000000000
113       0.000000000000
114       0.000000000000
115       0.000000000000
116       0.000000000000
117       0.000000000000
118       0.000000000000
119       0.000000000000
120       0.000000000000
121       0.000000000000
122       0.000000000000
123       0.000000000000
124       0.000000000000
125       0.000000000000
126       0.000000000000
127       0.000000000000
128       0.000000000000
129       0.000000000000
130       0.000000000000
131       0.000000000000
132       0.000000000000
133       0.000000000000
134       0.000000000000
135       0.000000000000
136       0.000000000000
137       0.000000000000
138       0.000000000000
139       0.000000000000
140       0.000000000000
141       0.000000000000
142       0.000000000000
143       0.000000000000
144       0.000000000000
145       0.000000000000
146       0.000000000000
147       0.000000000000
148       0.000000000000
149       0.000000000000
150       0.000000000000
151       0.000000000000
152       0.000000000000
153       0.000000000000
154       0.000000000000
155       0.000000000000
156       0.000000000000
157       0.000000000000
158       0.000000000000
159       0.000000000000
160       0.000000000000
161       0.000000000000
162       0.000000000000
163       0.000000000000
164       0.000000000000
165       0.000000000000
166       0.000000000000
167       0.000000000000
168       0.000000000000
169       0.000000000000
170       0.000000000000
171       0.000000000000
172       0.000000000000
173       0.000000000000
174       0.000000000000
175       0.000000000000
176       0.000000000000
177       0.000000000000
178       0.000000000000
 Sym=     1a
 Ene= -1.04895209759569E+01
Spin= Alpha
 Occup= 1.999989
  1       0.000000000000
  2       0.000000000000
  3       0.000000000000
  4       0.000000000000
  5       0.000000000000
  6       0.000000000000
  7       0.000000000000
  8       0.000000000000
  9       0.000000000000
 10       0.000000000000
 11       0.000000000000
 12       0.000000000000
 13       0.000000000000
 14       0.000000000000
 15       0.000000000000
 16       0.000000000000
 17       0.000000000000
 18       0.000000000000
 19       0.000000000000
 20       0.000000000000
 21       0.000000000000
 22       0.000000000000
 23       0.000000000000
 24       0.000000000000
 25       0.000000000000
 26       0.000000000000
 27       0.000000000000
 28       0.000000000000
 29       0.000000000000
 30       0.000000000000
 31       0.000000000000
 32       0.467321486465
 33       0.609873408423
 34       0.031273545228
 35      -0.018872338153
 36       0.005870225522
 37       0.000000000000
 38       0.000000000000
 39       0.000000000000
 40       0.000000000000
 41       0.000000000000
 42       0.000000000000
 43       0.000000000000
 44       0.000000000000
 45       0.000000000000
 46       0.000000000000
 47       0.000000000000
 48       0.000000000000
 49       0.000000000000
 50       0.000000000000
 51       0.000000000000
 52       0.000000000000
 53       0.000000000000
 54       0.000000000000
 55       0.000000000000
 56       0.000000000000
 57       0.000000000000
 58       0.000000000000
 59       0.000000000000
 60       0.000000000000
 61       0.000000000000
 62       0.000000000000
 63       0.000000000000
 64       0.000000000000
 65       0.000000000000
 66       0.000000000000
 67       0.000000000000
 68       0.000000000000
 69       0.000000000000
 70       0.000000000000
 71       0.000000000000
 72       0.000000000000
 73       0.000000000000
 74       0.000000000000
 75       0.000000000000
 76       0.000000000000
 77       0.000000000000
 78       0.000000000000
 79       0.000000000000
 80       0.000000000000
 81       0.000000000000
 82       0.000000000000
 83       0.000000000000
 84       0.000000000000
 85       0.000000000000
 86       0.000000000000
 87       0.000000000000
 88       0.000000000000
 89       0.000000000000
 90       0.000000000000
 91       0.000000000000
 92       0.000000000000
 93       0.000000000000
 94       0.000000000000
 95       0.000000000000
 96       0.000000000000
 97       0.000000000000
 98       0.000000000000
 99       0.000000000000
100       0.000000000000
101       0.000000000000
102       0.000000000000
103       0.000000000000
104       0.000000000000
105       0.000000000000
106       0.000000000000
107       0.000000000000
108       0.000000000000
109       0.000000000000
110       0.000000000000
111       0.000000000000
112       0.000000000000
113       0.000000000000
114       0.000000000000
115       0.000000000000
116       0.000000000000
117       0.000000000000
118       0.000000000000
119       0.000000000000
120       0.000000000000
121       0.000000000000
122       0.000000000000
123       0.000000000000
124       0.000000000000
125       0.000000000000
126       0.000000000000
127       0.000000000000
128       0.000000000000
129       0.000000000000
130       0.000000000000
131       0.000000000000
132       0.000000000000
133       0.000000000000
134       0.000000000000
135       0.000000000000
136       0.000000000000
137       0.000000000000
138       0.000000000000
139       0.000000000000
140       0.000000000000
141       0.000000000000
142       0.000000000000
143       0.000000000000
144       0.000000000000
145       0.000000000000
146       0.000000000000
147       0.000000000000
148       0.000000000000
149       0.000000000000
150       0.000000000000
151       0.000000000000
152       0.000000000000
153       0.000000000000
154       0.000000000000
155       0.000000000000
156       0.000000000000
157       0.000000000000
158       0.000000000000
159       0.000000000000
160       0.000000000000
161       0.000000000000
162       0.000000000000
163       0.000000000000
164       0.000000000000
165       0.000000000000
166       0.000000000000
167       0.000000000000
168       0.000000000000
169       0.000000000000
170       0.000000000000
171       0.000000000000
172       0.000000000000
173       0.000000000000
174       0.000000000000
175       0.000000000000
176       0.000000000000
177       0.000000000000
178       0.000000000000
 Sym=     1a
 Ene=  1.06484724080097E+00
Spin= Alpha
 Occup= 0.015774
  1       0.000000000000
  2       0.000000000000
  3       0.000000000000
  4       0.000000000000
  5       0.000000000000
  6       0.000000000000
  7       0.000000000000
  8       0.000000000000
  9       0.000000000000
 10       0.000000000000
 11       0.000000000000
 12       0.000000000000
 13       0.000000000000
 14       0.000000000000
 15       0.000000000000
 16       0.000000000000
 17       0.000000000000
 18       0.000000000000
 19       0.000000000000
 20       0.000000000000
 21       0.000000000000
 22       0.000000000000
 23       0.000000000000
 24       0.000000000000
 25       0.000000000000
 26       0.000000000000
 27       0.000000000000
 28       0.000000000000
 29       0.000000000000
 30       0.000000000000
 31       0.000000000000
 32       0.000000000000
 33       0.000000000000
 34       0.000000000000
 35       0.000000000000
 36       0.000000000000
 37      -1.345060925681
 38       0.000000000000
 39       0.000000000000
 40       1.331462886227
 41       0.000000000000
 42       0.000000000000
 43      -0.431652718674
 44       0.000000000000
 45       0.000000000000
 46       0.000000000000
 47       0.000000000000
 48       0.000000000000
 49       0.000000000000
 50       0.000000000000
 51       0.000000000000
 52       0.000000000000
 53       0.000000000000
 54       0.000000000000
 55       0.000000000000
 56       0.000000000000
 57       0.000000000000
 58       0.000000000000
 59       0.000000000000
 60       0.000000000000
 61       0.000000000000
 62       0.000000000000
 63       0.000000000000
 64       0.000000000000
 65       0.000000000000
 66       0.000000000000
 67       0.000000000000
 68       0.000000000000
 69       0.000000000000
 70       0.000000000000
 71       0.000000000000
 72       0.000000000000
 73       0.000000000000
 74       0.000000000000
 75       0.000000000000
 76       0.000000000000
 77       0.000000000000
 78       0.000000000000
 79       0.000000000000
 80       0.000000000000
 81       0.000000000000
 82       0.000000000000
 83       0.000000000000
 84       0.000000000000
 85       0.000000000000
 86       0.000000000000
 87       0.000000000000
 88       0.000000000000
 89       0.000000000000
 90       0.000000000000
 91       0.000000000000
 92       0.000000000000
 93       0.000000000000
 94       0.000000000000
 95       0.000000000000
 96       0.000000000000
 97       0.000000000000
 98       0.000000000000
 99       0.000000000000
100       0.000000000000
101       0.000000000000
102       0.000000000000
103       0.000000000000
104       0.000000000000
105       0.000000000000
106       0.000000000000
107       0.000000000000
108       0.000000000000
109       0.000000000000
110       0.000000000000
111       0.000000000000
112       0.000000000000
113       0.000000000000
114       0.000000000000
115       0.000000000000
116       0.000000000000
117       0.000000000000
118       0.000000000000
119       0.000000000000
120       0.000000000000
121       0.000000000000
122       0.000000000000
123       0.000000000000
124       0.000000000000
125       0.000000000000
126       0.000000000000
127       0.000000000000
128       0.000000000000
129       0.000000000000
130       0.000000000000
131       0.000000000000
132       0.000000000000
133       0.000000000000
134       0.000000000000
135       0.000000000000
136       0.000000000000
137       0.000000000000
138       0.000000000000
139       0.000000000000
140       0.000000000000
141       0.000000000000
142       0.000000000000
143       0.000000000000
144       0.000000000000
145       0.000000000000
146       0.000000000000
147       0.000000000000
148       0.000000000000
149       0.000000000000
150       0.000000000000
151       0.000000000000
152       0.000000000000
153       0.000000000000
154       0.000000000000
155       0.000000000000
156       0.000000000000
157       0.000000000000
158       0.000000000000
159       0.000000000000
160       0.000000000000
161       0.000000000000
162       0.000000000000
163       0.000000000000
164       0.000000000000
165       0.000000000000
166       0.000000000000
167       0.000000000000
168       0.000000000000
169       0.000000000000
170       0.000000000000
171       0.000000000000
172       0.000000000000
173       0.000000000000
174       0.000000000000
175       0.000000000000
176       0.000000000000
177       0.000000000000
178       0.000000000000
 Sym=     1a
 Ene=  1.13977249802093E+00
Spin= Alpha
 Occup= 0.015774
  1       0.000000000000
  2       0.000000000000
  3       0.000000000000
  4       0.000000000000
  5       0.000000000000
  6       0.000000000000
  7       0.000000000000
  8       0.000000000000
  9       0.000000000000
 10       0.000000000000
 11       0.000000000000
 12       0.000000000000
 13       0.000000000000
 14       0.000000000000
 15       0.000000000000
 16       0.000000000000
 17       0.000000000000
 18       0.000000000000
 19       0.000000000000
 20       0.000000000000
 21       0.000000000000
 22       0.000000000000
 23       0.000000000000
 24       0.000000000000
 25       0.000000000000
 26       0.000000000000
 27       0.000000000000
 28       0.000000000000
 29       0.000000000000
 30       0.000000000000
 31       0.000000000000
 32       0.000000000000
 33       0.000000000000
 34       0.000000000000
 35       0.000000000000
 36       0.000000000000
 37       0.000000000000
 38      -1.345060925681
 39       0.000000000000
 40       0.000000000000
 41       1.331462886227
 42       0.000000000000
 43       0.000000000000
 44      -0.431652718674
 45       0.000000000000
 46       0.000000000000
 47       0.000000000000
 48       0.000000000000
 49       0.000000000000
 50       0.000000000000
 51       0.000000000000
 52       0.000000000000
 53       0.000000000000
 54       0.000000000000
 55       0.000000000000
 56       0.000000000000
 57       0.000000000000
 58       0.000000000000
 59       0.000000000000
 60       0.000000000000
 61       0.000000000000
 62       0.000000000000
 63       0.000000000000
 64       0.000000000000
 65       0.000000000000
 66       0.000000000000
 67       0.000000000000
 68       0.000000000000
 69       0.000000000000
 70       0.000000000000
 71       0.000000000000
 72       0.000000000000
 73       0.000000000000
 74       0.000000000000
 75       0.000000000000
 76       0.000000000000
 77       0.000000000000
 78       0.000000000000
 79       0.000000000000
 80       0.000000000000
 81       0.000000000000
 82       0.000000000000
 83       0.000000000000
 84       0.000000000000
 85       0.000000000000
 86       0.000000000000
 87       0.000000000000
 88       0.000000000000
 89       0.000000000000
 90       0.000000000000
 91       0.000000000000
 92       0.000000000000
 93       0.000000000000
 94       0.000000000000
 95       0.000000000000
 96       0.000000000000
 97       0.000000000000
 98       0.000000000000
 99       0.000000000000
100       0.000000000000
101       0.000000000000
102       0.000000000000
103       0.000000000000
104       0.000000000000
105       0.000000000000
106       0.000000000000
107       0.000000000000
108       0.000000000000
109       0.000000000000
110       0.000000000000
111       0.000000000000
112       0.000000000000
113       0.000000000000
114       0.000000000000
115       0.000000000000
116       0.000000000000
117       0.000000000000
118       0.000000000000
119       0.000000000000
120       0.000000000000
121       0.000000000000
122       0.000000000000
123       0.000000000000
124       0.000000000000
125       0.000000000000
126       0.000000000000
127       0.000000000000
128       0.000000000000
129       0.000000000000
130       0.000000000000
131       0.000000000000
132       0.000000000000
133       0.000000000000
134       0.000000000000
135       0.000000000000
136       0.000000000000
137       0.000000000000
138       0.000000000000
139       0.000000000000
140       0.000000000000
141       0.000000000000
142       0.000000000000
143       0.000000000000
144       0.000000000000
145       0.000000000000
146       0.000000000000
147       0.000000000000
148       0.000000000000
149       0.000000000000
150       0.000000000000
151       0.000000000000
152       0.000000000000
153       0.000000000000
154       0.000000000000
155       0.000000000000
156       0.000000000000
157       0.000000000000
158       0.000000000000
159       0.000000000000
160       0.000000000000
161       0.000000000000
162       0.000000000000
163       0.000000000000
164       0.000000000000
165       0.000000000000
166       0.000000000000
167       0.000000000000
168       0.000000000000
169       0.000000000000
170       0.000000000000
171       0.000000000000
172       0.000000000000
173       0.000000000000
174       0.000000000000
175       0.000000000000
176       0.000000000000
177       0.000000000000
178       0.000000000000
 Sym=     1a
 Ene=  1.10784502898877E+00
Spin= Alpha
 Occup= 0.015774
  1       0.000000000000
  2       0.000000000000
  3       0.000000000000
  4       0.000000000000
  5       0.000000000000
  6       0.000000000000
  7       0.000000000000
  8       0.000000000000
  9       0.000000000000
 10       0.000000000000
 11       0.000000000000
 12       0.000000000000
 13       0.000000000000
 14       0.000000000000
 15       0.000000000000
 16       0.000000000000
 17       0.000000000000
 18       0.000000000000
 19       0.000000000000
 20       0.000000000000
 21       0.000000000000
 22       0.000000000000
 23       0.000000000000
 24       0.000000000000
 25       0.000000000000
 26       0.000000000000
 27       0.000000000000
 28       0.000000000000
 29       0.000000000000
 30       0.000000000000
 31       0.000000000000
 32       0.000000000000
 33       0.000000000000
 34       0.000000000000
 35       0.000000000000
 36       0.000000000000
 37       0.000000000000
 38       0.000000000000
 39      -1.345060925681
 40       0.000000000000
 41       0.000000000000
 42       1.331462886227
 43       0.000000000000
 44       0.000000000000
 45      -0.431652718674
 46       0.000000000000
 47       0.000000000000
 48       0.000000000000
 49       0.000000000000
 50       0.000000000000
 51       0.000000000000
 52       0.000000000000
 53       0.000000000000
 54       0.000000000000
 55       0.000000000000
 56       0.000000000000
 57       0.000000000000
 58       0.000000000000
 59       0.000000000000
 60       0.000000000000
 61       0.000000000000
 62       0.000000000000
 63       0.000000000000
 64       0.000000000000
 65       0.000000000000
 66       0.000000000000
 67       0.000000000000
 68       0.000000000000
 69       0.000000000000
 70       0.000000000000
 71       0.000000000000
 72       0.000000000000
 73       0.000000000000
 74       0.000000000000
 75       0.000000000000
 76       0.000000000000
 77       0.000000000000
 78       0.000000000000
 79       0.000000000000
 80       0.000000000000
 81       0.000000000000
 82       0.000000000000
 83       0.000000000000
 84       0.000000000000
 85       0.000000000000
 86       0.000000000000
 87       0.000000000000
 88       0.000000000000
 89       0.000000000000
 90       0.000000000000
 91       0.000000000000
 92       0.000000000000
 93       0.000000000000
 94       0.000000000000
 95       0.000000000000
 96       0.000000000000
 97       0.000000000000
 98       0.000000000000
 99       0.000000000000
100       0.000000000000
101       0.000000000000
102       0.000000000000
103       0.000000000000
104       0.000000000000
105       0.000000000000
106       0.000000000000
107       0.000000000000
108       0.000000000000
109       0.000000000000
110       0.000000000000
111       0.000000000000
112       0.000000000000
113       0.000000000000
114       0.000000000000
115       0.000000000000
116       0.000000000000
117       0.000000000000
118       0.000000000000
119       0.000000000000
120       0.000000000000
121       0.000000000000
122       0.000000000000
123       0.000000000000
124       0.000000000000
125       0.000000000000
126       0.000000000000
127       0.000000000000
128       0.000000000000
129       0.000000000000
130       0.000000000000
131       0.000000000000
132       0.000000000000
133       0.000000000000
134       0.000000000000
135       0.000000000000
136       0.000000000000
137       0.000000000000
138       0.000000000000
139       0.000000000000
140       0.000000000000
141       0.000000000000
142       0.000000000000
143       0.000000000000
144       0.000000000000
145       0.000000000000
146       0.000000000000
147       0.000000000000
148       0.000000000000
149       0.000000000000
150       0.000000000000
151       0.000000000000
152       0.000000000000
153       0.000000000000
154       0.000000000000
155       0.000000000000
156       0.000000000000
157       0.000000000000
158       0.000000000000
159       0.000000000000
160       0.000000000000
161       0.000000000000
162       0.000000000000
163       0.000000000000
164       0.000000000000
165       0.000000000000
166       0.000000000000
167       0.000000000000
168       0.000000000000
169       0.000000000000
170       0.000000000000
171       0.000000000000
172       0.000000000000
173       0.000000000000
174       0.000000000000
175       0.000000000000
176       0.000000000000
177       0.000000000000
178       0.000000000000
 Sym=     1a
 Ene= -1.42275013564276E-01
Spin= Alpha
 Occup= 0.331368
  1       0.000000000000
  2       0.000000000000
  3       0.000000000000
  4       0.000000000000
  5       0.000000000000
  6       0.000000000000
  7       0.000000000000
  8       0.000000000000
  9       0.000000000000
 10       0.000000000000
 11       0.000000000000
 12       0.000000000000
 13       0.000000000000
 14       0.000000000000
 15       0.000000000000
 16       0.000000000000
 17       0.000000000000
 18       0.000000000000
 19       0.000000000000
 20       0.000000000000
 21       0.000000000000
 22       0.000000000000
 23       0.000000000000
 24       0.000000000000
 25       0.000000000000
 26       0.000000000000
 27       0.000000000000
 28       0.000000000000
 29       0.000000000000
 30       0.000000000000
 31       0.000000000000
 32       0.000000000000
 33       0.000000000000
 34       0.000000000000
 35       0.000000000000
 36       0.000000000000
 37       0.074790070835
 38       0.000000000000
 39       0.000000000000
 40      -1.178338089156
 41       0.000000000000
 42       0.000000000000
 43       1.456140049516
 44       0.000000000000
 45       0.000000000000
 46       0.000000000000
 47       0.000000000000
 48       0.000000000000
 49       0.000000000000
 50       0.000000000000
 51       0.000000000000
 52       0.000000000000
 53       0.000000000000
 54       0.000000000000
 55       0.000000000000
 56       0.000000000000
 57       0.000000000000
 58       0.000000000000
 59       0.000000000000
 60       0.000000000000
 61       0.000000000000
 62       0.000000000000
 63       0.000000000000
 64       0.000000000000
 65       0.000000000000
 66       0.000000000000
 67       0.000000000000
 68       0.000000000000
 69       0.000000000000
 70       0.000000000000
 71       0.000000000000
 72       0.000000000000
 73       0.000000000000
 74       0.000000000000
 75       0.000000000000
 76       0.000000000000
 77       0.000000000000
 78       0.000000000000
 79       0.000000000000
 80       0.000000000000
 81       0.000000000000
 82       0.000000000000
 83       0.000000000000
 84       0.000000000000
 85       0.000000000000
 86       0.000000000000
 87       0.000000000000
 88       0.000000000000
 89       0.000000000000
 90       0.000000000000
 91       0.000000000000
 92       0.000000000000
 93       0.000000000000
 94       0.000000000000
 95       0.000000000000
 96       0.000000000000
 97       0.000000000000
 98       0.000000000000
 99       0.000000000000
100       0.000000000000
101       0.000000000000
102       0.000000000000
103       0.000000000000
104       0.000000000000
105       0.000000000000
106       0.000000000000
107       0.000000000000
108       0.000000000000
109       0.000000000000
110       0.000000000000
111       0.000000000000
112       0.000000000000
113       0.000000000000
114       0.000000000000
115       0.000000000000
116       0.000000000000
117       0.000000000000
118       0.000000000000
119       0.000000000000
120       0.000000000000
121       0.000000000000
122       0.000000000000
123       0.000000000000
124       0.000000000000
125       0.000000000000
126       0.000000000000
127       0.000000000000
128       0.000000000000
129       0.000000000000
130       0.000000000000
131       0.000000000000
132       0.000000000000
133       0.000000000000
134       0.000000000000
135       0.000000000000
136       0.000000000000
137       0.000000000000
138       0.000000000000
139       0.000000000000
140       0.000000000000
141       0.000000000000
142       0.000000000000
143       0.000000000000
144       0.000000000000
145       0.000000000000
146       0.000000000000
147       0.000000000000
148       0.000000000000
149       0.000000000000
150       0.000000000000
151       0.000000000000
152       0.000000000000
153       0.000000000000
154       0.000000000000
155       0.000000000000
156       0.000000000000
157       0.000000000000
158       0.000000000000
159       0.000000000000
160       0.000000000000
161       0.000000000000
162       0.000000000000
163       0.000000000000
164       0.000000000000
165       0.000000000000
166       0.000000000000
167       0.000000000000
168       0.000000000000
169       0.000000000000
170       0.000000000000
171       0.000000000000
172       0.000000000000
173       0.000000000000
174       0.000000000000
175       0.000000000000
176       0.000000000000
177       0.000000000000
178       0.000000000000
 Sym=     1a
 Ene=  1.20247279685575E-01
Spin= Alpha
 Occup= 0.331368
  1       0.000000000000
  2       0.000000000000
  3       0.000000000000
  4       0.000000000000
  5       0.000000000000
  6       0.000000000000
  7       0.000000000000
  8       0.000000000000
  9       0.000000000000
 10       0.000000000000
 11       0.000000000000
 12       0.000000000000
 13       0.000000000000
 14       0.000000000000
 15       0.000000000000
 16       0.000000000000
 17       0.000000000000
 18       0.000000000000
 19       0.000000000000
 20       0.000000000000
 21       0.000000000000
 22       0.000000000000
 23       0.000000000000
 24       0.000000000000
 25       0.000000000000
 26       0.000000000000
 27       0.000000000000
 28       0.000000000000
 29       0.000000000000
 30       0.000000000000
 31       0.000000000000
 32       0.000000000000
 33       0.000000000000
 34       0.000000000000
 35       0.000000000000
 36       0.000000000000
 37       0.000000000000
 38       0.074790070835
 39       0.000000000000
 40       0.000000000000
 41      -1.178338089156
 42       0.000000000000
 43       0.000000000000
 44       1.456140049516
 45       0.000000000000
 46       0.000000000000
 47       0.000000000000
 48       0.000000000000
 49       0.000000000000
 50       0.000000000000
 51       0.000000000000
 52       0.000000000000
 53       0.000000000000
 54       0.000000000000
 55       0.000000000000
 56       0.000000000000
 57       0.000000000000
 58       0.000000000000
 59       0.000000000000
 60       0.000000000000
 61       0.000000000000
 62       0.000000000000
 63       0.000000000000
 64       0.000000000000
 65       0.000000000000
 66       0.000000000000
 67       0.000000000000
 68       0.000000000000
 69       0.000000000000
 70       0.000000000000
 71       0.000000000000
 72       0.000000000000
 73       0.000000000000
 74       0.000000000000
 75       0.000000000000
 76       0.000000000000
 77       0.000000000000
 78       0.000000000000
 79       0.000000000000
 80       0.000000000000
 81       0.000000000000
 82       0.000000000000
 83       0.000000000000
 84       0.000000000000
 85       0.000000000000
 86       0.000000000000
 87       0.000000000000
 88       0.000000000000
 89       0.000000000000
 90       0.000000000000
 91       0.000000000000
 92       0.000000000000
 93       0.000000000000
 94       0.000000000000
 95       0.000000000000
 96       0.000000000000
 97       0.000000000000
 98       0.000000000000
 99       0.000000000000
100       0.000000000000
101       0.000000000000
102       0.000000000000
103       0.000000000000
104       0.000000000000
105       0.000000000000
106       0.000000000000
107       0.000000000000
108       0.000000000000
109       0.000000000000
110       0.000000000000
111       0.000000000000
112       0.000000000000
113       0.000000000000
114       0.000000000000
115       0.000000000000
116       0.000000000000
117       0.000000000000
118       0.000000000000
119       0.000000000000
120       0.000000000000
121       0.000000000000
122       0.000000000000
123       0.000000000000
124       0.000000000000
125       0.000000000000
126       0.000000000000
127       0.000000000000
128       0.000000000000
129       0.000000000000
130       0.000000000000
131       0.000000000000
132       0.000000000000
133       0.000000000000
134       0.000000000000
135       0.000000000000
136       0.000000000000
137       0.000000000000
138       0.000000000000
139       0.000000000000
140       0.000000000000
141       0.000000000000
142       0.000000000000
143       0.000000000000
144       0.000000000000
145       0.000000000000
146       0.000000000000
147       0.000000000000
148       0.000000000000
149       0.000000000000
150       0.000000000000
151       0.000000000000
152       0.000000000000
153       0.000000000000
154       0.000000000000
155       0.000000000000
156       0.000000000000
157       0.000000000000
158       0.000000000000
159       0.000000000000
160       0.000000000000
161       0.000000000000
162       0.000000000000
163       0.000000000000
164       0.000000000000
165       0.000000000000
166       0.000000000000
167       0.000000000000
168       0.000000000000
169       0.000000000000
170       0.000000000000
171       0.000000000000
172       0.000000000000
173       0.000000000000
174       0.000000000000
175       0.000000000000
176       0.000000000000
177       0.000000000000
178       0.000000000000
 Sym=     1a
 Ene= -1.75399355944585E-02
Spin= Alpha
 Occup= 0.331368
  1       0.000000000000
  2       0.000000000000
  3       0.000000000000
  4       0.000000000000
  5       0.000000000000
  6       0.000000000000
  7       0.000000000000
  8       0.000000000000
  9       0.000000000000
 10       0.000000000000
 11       0.000000000000
 12       0.000000000000
 13       0.000000000000
 14       0.000000000000
 15       0.000000000000
 16       0.000000000000
 17       0.000000000000
 18       0.000000000000
 19       0.000000000000
 20       0.000000000000
 21       0.000000000000
 22       0.000000000000
 23       0.000000000000
 24       0.000000000000
 25       0.000000000000
 26       0.000000000000
 27       0.000000000000
 28       0.000000000000
 29       0.000000000000
 30       0.000000000000
 31       0.000000000000
 32       0.000000000000
 33       0.000000000000
 34       0.000000000000
 35       0.000000000000
 36       0.000000000000
 37       0.000000000000
 38       0.000000000000
 39       0.074790070835
 40       0.000000000000
 41       0.000000000000
 42      -1.178338089156
 43       0.000000000000
 44       0.000000000000
 45       1.456140049516
 46       0.000000000000
 47       0.000000000000
 48       0.000000000000
 49       0.000000000000
 50       0.000000000000
 51       0.000000000000
 52       0.000000000000
 53       0.000000000000
 54       0.000000000000
 55       0.000000000000
 56       0.000000000000
 57       0.000000000000
 58       0.000000000000
 59       0.000000000000
 60       0.000000000000
 61       0.000000000000
 62       0.000000000000
 63       0.000000000000
 64       0.000000000000
 65       0.000000000000
 66       0.000000000000
 67       0.000000000000
 68       0.000000000000
 69       0.000000000000
 70       0.000000000000
 71       0.000000000000
 72       0.000000000000
 73       0.000000000000
 74       0.000000000000
 75       0.000000000000
 76       0.000000000000
 77       0.000000000000
 78       0.000000000000
 79       0.000000000000
 80       0.000000000000
 81       0.000000000000
 82       0.000000000000
 83       0.000000000000
 84       0.000000000000
 85       0.000000000000
 86       0.000000000000
 87       0.000000000000
 88       0.000000000000
 89       0.000000000000
 90       0.000000000000
 91       0.000000000000
 92       0.000000000000
 93       0.000000000000
 94       0.000000000000
 95       0.000000000000
 96       0.000000000000
 97       0.000000000000
 98       0.000000000000
 99       0.000000000000
100       0.000000000000
101       0.000000000000
102       0.000000000000
103       0.000000000000
104       0.000000000000
105       0.000000000000
106       0.000000000000
107       0.000000000000
108       0.000000000000
109       0.000000000000
110       0.000000000000
111       0.000000000000
112       0.000000000000
113       0.000000000000
114       0.000000000000
115       0.000000000000
116       0.000000000000
117       0.000000000000
118       0.000000000000
119       0.000000000000
120       0.000000000000
121       0.000000000000
122       0.000000000000
123       0.000000000000
124       0.000000000000
125       0.000000000000
126       0.000000000000
127       0.000000000000
128       0.000000000000
129       0.000000000000
130       0.000000000000
131       0.000000000000
132       0.000000000000
133       0.000000000000
134       0.000000000000
135       0.000000000000
136       0.000000000000
137       0.000000000000
138       0.000000000000
139       0.000000000000
140       0.000000000000
141       0.000000000000
142       0.000000000000
143       0.000000000000
144       0.000000000000
145       0.000000000000
146       0.000000000000
147       0.000000000000
148       0.000000000000
149       0.000000000000
150       0.000000000000
151       0.000000000000
152       0.000000000000
153       0.000000000000
154       0.000000000000
155       0.000000000000
156       0.000000000000
157       0.000000000000
158       0.000000000000
159       0.000000000000
160       0.000000000000
161       0.000000000000
162       0.000000000000
163       0.000000000000
164       0.000000000000
165       0.000000000000
166       0.000000000000
167       0.000000000000
168       0.000000000000
169       0.000000000000
170       0.000000000000
171       0.000000000000
172       0.000000000000
173       0.000000000000
174       0.000000000000
175       0.000000000000
176       0.000000000000
177       0.000000000000
178       0.000000000000
 Sym=     1a
 Ene= -7.20261942396665E-01
Spin= Alpha
 Occup= 1.767315
  1       0.000000000000
  2       0.000000000000
  3       0.000000000000
  4       0.000000000000
  5       0.000000000000
  6       0.000000000000
  7       0.000000000000
  8       0.000000000000
  9       0.000000000000
 10       0.000000000000
 11       0.000000000000
 12       0.000000000000
 13       0.000000000000
 14       0.000000000000
 15       0.000000000000
 16       0.000000000000
 17       0.000000000000
 18       0.000000000000
 19       0.000000000000
 20       0.000000000000
 21       0.000000000000
 22       0.000000000000
 23       0.000000000000
 24       0.000000000000
 25       0.000000000000
 26       0.000000000000
 27       0.000000000000
 28       0.000000000000
 29       0.000000000000
 30       0.000000000000
 31       0.000000000000
 32       0.000000000000
 33       0.000000000000
 34       0.000000000000
 35       0.000000000000
 36       0.000000000000
 37       0.253776164154
 38       0.000000000000
 39       0.000000000000
 40       0.670621756641
 41       0.000000000000
 42       0.000000000000
 43       0.209612153084
 44       0.000000000000
 45       0.000000000000
 46       0.000000000000
 47       0.000000000000
 48       0.000000000000
 49       0.000000000000
 50       0.000000000000
 51       0.000000000000
 52       0.000000000000
 53       0.000000000000
 54       0.000000000000
 55       0.000000000000
 56       0.000000000000
 57       0.000000000000
 58       0.000000000000
 59       0.000000000000
 60       0.000000000000
 61       0.000000000000
 62       0.000000000000
 63       0.000000000000
 64       0.000000000000
 65       0.000000000000
 66       0.000000000000
 67       0.000000000000
 68       0.000000000000
 69       0.000000000000
 70       0.000000000000
 71       0.000000000000
 72       0.000000000000
 73       0.000000000000
 74       0.000000000000
 75       0.000000000000
 76       0.000000000000
 77       0.000000000000
 78       0.000000000000
 79       0.000000000000
 80       0.000000000000
 81       0.000000000000
 82       0.000000000000
 83       0.000000000000
 84       0.000000000000
 85       0.000000000000
 86       0.000000000000
 87       0.000000000000
 88       0.000000000000
 89       0.000000000000
 90       0.000000000000
 91       0.000000000000
 92       0.000000000000
 93       0.000000000000
 94       0.000000000000
 95       0.000000000000
 96       0.000000000000
 97       0.000000000000
 98       0.000000000000
 99       0.000000000000
100       0.000000000000
101       0.000000000000
102       0.000000000000
103       0.000000000000
104       0.000000000000
105       0.000000000000
106       0.000000000000
107       0.000000000000
108       0.000000000000
109       0.000000000000
110       0.000000000000
111       0.000000000000
112       0.000000000000
113       0.000000000000
114       0.000000000000
115       0.000000000000
116       0.000000000000
117       0.000000000000
118       0.000000000000
119       0.000000000000
120       0.000000000000
121       0.000000000000
122       0.000000000000
123       0.000000000000
124       0.000000000000
125       0.000000000000
126       0.000000000000
127       0.000000000000
128       0.000000000000
129       0.000000000000
130       0.000000000000
131       0.000000000000
132       0.000000000000
133       0.000000000000
134       0.000000000000
135       0.000000000000
136       0.000000000000
137       0.000000000000
138       0.000000000000
139       0.000000000000
140       0.000000000000
141       0.000000000000
142       0.000000000000
143       0.000000000000
144       0.000000000000
145       0.000000000000
146       0.000000000000
147       0.000000000000
148       0.000000000000
149       0.000000000000
150       0.000000000000
151       0.000000000000
152       0.000000000000
153       0.000000000000
154       0.000000000000
155       0.000000000000
156       0.000000000000
157       0.000000000000
158       0.000000000000
159       0.000000000000
160       0.000000000000
161       0.000000000000
162       0.000000000000
163       0.000000000000
164       0.000000000000
165       0.000000000000
166       0.000000000000
167       0.000000000000
168       0.000000000000
169       0.000000000000
170       0.000000000000
171       0.000000000000
172       0.000000000000
173       0.000000000000
174       0.000000000000
175       0.000000000000
176       0.000000000000
177       0.000000000000
178       0.000000000000
 Sym=     1a
 Ene= -6.14167464885820E-01
Spin= Alpha
 Occup= 1.767315
  1       0.000000000000
  2       0.000000000000
  3       0.000000000000
  4       0.000000000000
  5       0.000000000000
  6       0.000000000000
  7       0.000000000000
  8       0.000000000000
  9       0.000000000000
 10       0.000000000000
 11       0.000000000000
 12       0.000000000000
 13       0.000000000000
 14       0.000000000000
 15       0.000000000000
 16       0.000000000000
 17       0.000000000000
 18       0.000000000000
 19       0.000000000000
 20       0.000000000000
 21       0.000000000000
 22       0.000000000000
 23       0.000000000000
 24       0.000000000000
 25       0.000000000000
 26       0.000000000000
 27       0.000000000000
 28       0.000000000000
 29       0.000000000000
 30       0.000000000000
 31       0.000000000000
 32       0.000000000000
 33       0.000000000000
 34       0.000000000000
 35       0.000000000000
 36       0.000000000000
 37       0.000000000000
 38       0.253776164154
 39       0.000000000000
 40       0.000000000000
 41       0.670621756641
 42       0.000000000000
 43       0.000000000000
 44       0.209612153084
 45       0.000000000000
 46       0.000000000000
 47       0.000000000000
 48       0.000000000000
 49       0.000000000000
 50       0.000000000000
 51       0.000000000000
 52       0.000000000000
 53       0.000000000000
 54       0.000000000000
 55       0.000000000000
 56       0.000000000000
 57       0.000000000000
 58       0.000000000000
 59       0.000000000000
 60       0.000000000000
 61       0.000000000000
 62       0.000000000000
 63       0.000000000000
 64       0.000000000000
 65       0.000000000000
 66       0.000000000000
 67       0.000000000000
 68       0.000000000000
 69       0.000000000000
 70       0.000000000000
 71       0.000000000000
 72       0.000000000000
 73       0.000000000000
 74       0.000000000000
 75       0.000000000000
 76       0.000000000000
 77       0.000000000000
 78       0.000000000000
 79       0.000000000000
 80       0.000000000000
 81       0.000000000000
 82       0.000000000000
 83       0.000000000000
 84       0.000000000000
 85       0.000000000000
 86       0.000000000000
 87       0.000000000000
 88       0.000000000000
 89       0.000000000000
 90       0.000000000000
 91       0.000000000000
 92       0.000000000000
 93       0.000000000000
 94       0.000000000000
 95       0.000000000000
 96       0.000000000000
 97       0.000000000000
 98       0.000000000000
 99       0.000000000000
100       0.000000000000
101       0.000000000000
102       0.000000000000
103       0.000000000000
104       0.000000000000
105       0.000000000000
106       0.000000000000
107       0.000000000000
108       0.000000000000
109       0.000000000000
110       0.000000000000
111       0.000000000000
112       0.000000000000
113       0.000000000000
114       0.000000000000
115       0.000000000000
116       0.000000000000
117       0.000000000000
118       0.000000000000
119       0.000000000000
120       0.000000000000
121       0.000000000000
122       0.000000000000
123       0.000000000000
124       0.000000000000
125       0.000000000000
126       0.000000000000
127       0.000000000000
128       0.000000000000
129       0.000000000000
130       0.000000000000
131       0.000000000000
132       0.000000000000
133       0.000000000000
134       0.000000000000
135       0.000000000000
136       0.000000000000
137       0.000000000000
138       0.000000000000
139       0.000000000000
140       0.000000000000
141       0.000000000000
142       0.000000000000
143       0.000000000000
144       0.000000000000
145       0.000000000000
146       0.000000000000
147       0.000000000000
148       0.000000000000
149       0.000000000000
150       0.000000000000
151       0.000000000000
152       0.000000000000
153       0.000000000000
154       0.000000000000
155       0.000000000000
156       0.000000000000
157       0.000000000000
158       0.000000000000
159       0.000000000000
160       0.000000000000
161       0.000000000000
162       0.000000000000
163       0.000000000000
164       0.000000000000
165       0.000000000000
166       0.000000000000
167       0.000000000000
168       0.000000000000
169       0.000000000000
170       0.000000000000
171       0.000000000000
172       0.000000000000
173       0.000000000000
174       0.000000000000
175       0.000000000000
176       0.000000000000
177       0.000000000000
178       0.000000000000
 Sym=     1a
 Ene= -6.60218930910396E-01
Spin= Alpha
 Occup= 1.767315
  1       0.000000000000
  2       0.000000000000
  3       0.000000000000
  4       0.000000000000
  5       0.000000000000
  6       0.000000000000
  7       0.000000000000
  8       0.000000000000
  9       0.000000000000
 10       0.000000000000
 11       0.000000000000
 12       0.000000000000
 13       0.000000000000
 14       0.000000000000
 15       0.000000000000
 16       0.000000000000
 17       0.000000000000
 18       0.000000000000
 19       0.000000000000
 20       0.000000000000
 21       0.000000000000
 22       0.000000000000
 23       0.000000000000
 24       0.000000000000
 25       0.000000000000
 26       0.000000000000
 27       0.000000000000
 28       0.000000000000
 29       0.000000000000
 30       0.000000000000
 31       0.000000000000
 32       0.000000000000
 33       0.000000000000
 34       0.000000000000
 35       0.000000000000
 36       0.000000000000
 37       0.000000000000
 38       0.000000000000
 39       0.253776164154
 40       0.000000000000
 41       0.000000000000
 42       0.670621756641
 43       0.000000000000
 44       0.000000000000
 45       0.209612153084
 46       0.000000000000
 47       0.000000000000
 48       0.000000000000
 49       0.000000000000
 50       0.000000000000
 51       0.000000000000
 52       0.000000000000
 53       0.000000000000
 54       0.000000000000
 55       0.000000000000
 56       0.000000000000
 57       0.000000000000
 58       0.000000000000
 59       0.000000000000
 60       0.000000000000
 61       0.000000000000
 62       0.000000000000
 63       0.000000000000
 64       0.000000000000
 65       0.000000000000
 66       0.000000000000
 67       0.000000000000
 68       0.000000000000
 69       0.000000000000
 70       0.000000000000
 71       0.000000000000
 72       0.000000000000
 73       0.000000000000
 74       0.000000000000
 75       0.000000000000
 76       0.000000000000
 77       0.000000000000
 78       0.000000000000
 79       0.000000000000
 80       0.000000000000
 81       0.000000000000
 82       0.000000000000
 83       0.000000000000
 84       0.000000000000
 85       0.000000000000
 86       0.000000000000
 87       0.000000000000
 88       0.000000000000
 89       0.000000000000
 90       0.000000000000
 91       0.000000000000
 92       0.000000000000
 93       0.000000000000
 94       0.000000000000
 95       0.000000000000
 96       0.000000000000
 97       0.000000000000
 98       0.000000000000
 99       0.000000000000
100       0.000000000000
101       0.000000000000
102       0.000000000000
103       0.000000000000
104       0.000000000000
105       0.000000000000
106       0.000000000000
107       0.000000000000
108       0.000000000000
109       0.000000000000
110       0.000000000000
111       0.000000000000
112       0.000000000000
113       0.000000000000
114       0.000000000000
115       0.000000000000
116       0.000000000000
117       0.000000000000
118       0.000000000000
119       0.000000000000
120       0.000000000000
121       0.000000000000
122       0.000000000000
123       0.000000000000
124       0.000000000000
125       0.000000000000
126       0.000000000000
127       0.000000000000
128       0.000000000000
129       0.000000000000
130       0.000000000000
131       0.000000000000
132       0.000000000000
133       0.000000000000
134       0.000000000000
135       0.000000000000
136       0.000000000000
137       0.000000000000
138       0.000000000000
139       0.000000000000
140       0.000000000000
141       0.000000000000
142       0.000000000000
143       0.000000000000
144       0.000000000000
145       0.000000000000
146       0.000000000000
147       0.000000000000
148       0.000000000000
149       0.000000000000
150       0.000000000000
151       0.000000000000
152       0.000000000000
153       0.000000000000
154       0.000000000000
155       0.000000000000
156       0.000000000000
157       0.000000000000
158       0.000000000000
159       0.000000000000
160       0.000000000000
161       0.000000000000
162       0.000000000000
163       0.000000000000
164       0.000000000000
165       0.000000000000
166       0.000000000000
167       0.000000000000
168       0.000000000000
169       0.000000000000
170       0.000000000000
171       0.000000000000
172       0.000000000000
173       0.000000000000
174       0.000000000000
175       0.000000000000
176       0.000000000000
177       0.000000000000
178       0.000000000000
 Sym=     1a
 Ene=  2.69663093162582E+00
Spin= Alpha
 Occup= 0.008024
  1       0.000000000000
  2       0.000000000000
  3       0.000000000000
  4       0.000000000000
  5       0.000000000000
  6       0.000000000000
  7       0.000000000000
  8       0.000000000000
  9       0.000000000000
 10       0.000000000000
 11       0.000000000000
 12       0.000000000000
 13       0.000000000000
 14       0.000000000000
 15       0.000000000000
 16       0.000000000000
 17       0.000000000000
 18       0.000000000000
 19       0.000000000000
 20       0.000000000000
 21       0.000000000000
 22       0.000000000000
 23       0.000000000000
 24       0.000000000000
 25       0.000000000000
 26       0.000000000000
 27       0.000000000000
 28       0.000000000000
 29       0.000000000000
 30       0.000000000000
 31       0.000000000000
 32       0.000000000000
 33       0.000000000000
 34       0.000000000000
 35       0.000000000000
 36       0.000000000000
 37       0.000000000000
 38       0.000000000000
 39       0.000000000000
 40       0.000000000000
 41       0.000000000000
 42       0.000000000000
 43       0.000000000000
 44       0.000000000000
 45       0.000000000000
 46      -1.147797855851
 47       0.000000000000
 48       0.000000000000
 49       0.000000000000
 50       0.000000000000
 51       0.375974560845
 52       0.000000000000
 53       0.000000000000
 54       0.000000000000
 55       0.000000000000
 56       0.000000000000
 57       0.000000000000
 58       0.000000000000
 59       0.000000000000
 60       0.000000000000
 61       0.000000000000
 62       0.000000000000
 63       0.000000000000
 64       0.000000000000
 65       0.000000000000
 66       0.000000000000
 67       0.000000000000
 68       0.000000000000
 69       0.000000000000
 70       0.000000000000
 71       0.000000000000
 72       0.000000000000
 73       0.000000000000
 74       0.000000000000
 75       0.000000000000
 76       0.000000000000
 77       0.000000000000
 78       0.000000000000
 79       0.000000000000
 80       0.000000000000
 81       0.000000000000
 82       0.000000000000
 83       0.000000000000
 84       0.000000000000
 85       0.000000000000
 86       0.000000000000
 87       0.000000000000
 88       0.000000000000
 89       0.000000000000
 90       0.000000000000
 91       0.000000000000
 92       0.000000000000
 93       0.000000000000
 94       0.000000000000
 95       0.000000000000
 96       0.000000000000
 97       0.000000000000
 98       0.000000000000
 99       0.000000000000
100       0.000000000000
101       0.000000000000
102       0.000000000000
103       0.000000000000
104       0.000000000000
105       0.000000000000
106       0.000000000000
107       0.000000000000
108       0.000000000000
109       0.000000000000
110       0.000000000000
111       0.000000000000
112       0.000000000000
113       0.000000000000
114       0.000000000000
115       0.000000000000
116       0.000000000000
117       0.000000000000
118       0.000000000000
119       0.000000000000
120       0.000000000000
121       0.000000000000
122       0.000000000000
123       0.000000000000
124       0.000000000000
125       0.000000000000
126       0.000000000000
127       0.000000000000
128       0.000000000000
129       0.000000000000
130       0.000000000000
131       0.000000000000
132       0.000000000000
133       0.000000000000
134       0.000000000000
135       0.000000000000
136       0.000000000000
137       0.000000000000
138       0.000000000000
139       0.000000000000
140       0.000000000000
141       0.000000000000
142       0.000000000000
143       0.000000000000
144       0.000000000000
145       0.000000000000
146       0.000000000000
147       0.000000000000
148       0.000000000000
149       0.000000000000
150       0.000000000000
151       0.000000000000
152       0.000000000000
153       0.000000000000
154       0.000000000000
155       0.000000000000
156       0.000000000000
157       0.000000000000
158       0.000000000000
159       0.000000000000
160       0.000000000000
161       0.000000000000
162       0.000000000000
163       0.000000000000
164       0.000000000000
165       0.000000000000
166       0.000000000000
167       0.000000000000
168       0.000000000000
169       0.000000000000
170       0.000000000000
171       0.000000000000
172       0.000000000000
173       0.000000000000
174       0.000000000000
175       0.000000000000
176       0.000000000000
177       0.000000000000
178       0.000000000000
 Sym=     1a
 Ene=  2.64077246537540E+00
Spin= Alpha
 Occup= 0.008024
  1       0.000000000000
  2       0.000000000000
  3       0.000000000000
  4       0.000000000000
  5       0.000000000000
  6       0.000000000000
  7       0.000000000000
  8       0.000000000000
  9       0.000000000000
 10       0.000000000000
 11       0.000000000000
 12       0.000000000000
 13       0.000000000000
 14       0.000000000000
 15       0.000000000000
 16       0.000000000000
 17       0.000000000000
 18       0.000000000000
 19       0.000000000000
 20       0.000000000000
 21       0.000000000000
 22       0.000000000000
 23       0.000000000000
 24       0.000000000000
 25       0.000000000000
 26       0.000000000000
 27       0.000000000000
 28       0.000000000000
 29       0.000000000000
 30       0.000000000000
 31       0.000000000000
 32       0.000000000000
 33       0.000000000000
 34       0.000000000000
 35       0.000000000000
 36       0.000000000000
 37       0.000000000000
 38       0.000000000000
 39       0.000000000000
 40       0.000000000000
 41       0.000000000000
 42       0.000000000000
 43       0.000000000000
 44       0.000000000000
 45       0.000000000000
 46       0.000000000000
 47      -1.147797855851
 48       0.000000000000
 49       0.000000000000
 50       0.000000000000
 51       0.000000000000
 52       0.375974560845
 53       0.000000000000
 54       0.000000000000
 55       0.000000000000
 56       0.000000000000
 57       0.000000000000
 58       0.000000000000
 59       0.000000000000
 60       0.000000000000
 61       0.000000000000
 62       0.000000000000
 63       0.000000000000
 64       0.000000000000
 65       0.000000000000
 66       0.000000000000
 67       0.000000000000
 68       0.000000000000
 69       0.000000000000
 70       0.000000000000
 71       0.000000000000
 72       0.000000000000
 73       0.000000000000
 74       0.000000000000
 75       0.000000000000
 76       0.000000000000
 77       0.000000000000
 78       0.000000000000
 79       0.000000000000
 80       0.000000000000
 81       0.000000000000
 82       0.000000000000
 83       0.000000000000
 84       0.000000000000
 85       0.000000000000
 86       0.000000000000
 87       0.000000000000
 88       0.000000000000
 89       0.000000000000
 90       0.000000000000
 91       0.000000000000
 92       0.000000000000
 93       0.000000000000
 94       0.000000000000
 95       0.000000000000
 96       0.000000000000
 97       0.000000000000
 98       0.000000000000
 99       0.000000000000
100       0.000000000000
101       0.000000000000
102       0.000000000000
103       0.000000000000
104       0.000000000000
105       0.000000000000
106       0.000000000000
107       0.000000000000
108       0.000000000000
109       0.000000000000
110       0.000000000000
111       0.000000000000
112       0.000000000000
113       0.000000000000
114       0.000000000000
115       0.000000000000
116       0.000000000000
117       0.000000000000
118       0.000000000000
119       0.000000000000
120       0.000000000000
121       0.000000000000
122       0.000000000000
123       0.000000000000
124       0.000000000000
125       0.000000000000
126       0.000000000000
127       0.000000000000
128       0.000000000000
129       0.000000000000
130       0.000000000000
131       0.000000000000
132       0.000000000000
133       0.000000000000
134       0.000000000000
135       0.000000000000
136       0.000000000000
137       0.000000000000
138       0.000000000000
139       0.000000000000
140       0.000000000000
141       0.000000000000
142       0.000000000000
143       0.000000000000
144       0.000000000000
145       0.000000000000
146       0.000000000000
147       0.000000000000
148       0.000000000000
149       0.000000000000
150       0.000000000000
151       0.000000000000
152       0.000000000000
153       0.000000000000
154       0.000000000000
155       0.000000000000
156       0.000000000000
157       0.000000000000
158       0.000000000000
159       0.000000000000
160       0.000000000000
161       0.000000000000
162       0.000000000000
163       0.000000000000
164       0.000000000000
165       0.000000000000
166       0.000000000000
167       0.000000000000
168       0.000000000000
169       0.000000000000
170       0.000000000000
171       0.000000000000
172       0.000000000000
173       0.000000000000
174       0.000000000000
175       0.000000000000
176       0.000000000000
177       0.000000000000
178       0.000000000000
 Sym=     1a
 Ene=  2.66327552637659E+00
Spin= Alpha
 Occup= 0.008024
  1       0.000000000000
  2       0.000000000000
  3       0.000000000000
  4       0.000000000000
  5       0.000000000000
  6       0.000000000000
  7       0.000000000000
  8       0.000000000000
  9       0.000000000000
 10       0.000000000000
 11       0.000000000000
 12       0.000000000000
 13       0.000000000000
 14       0.000000000000
 15       0.000000000000
 16       0.000000000000
 17       0.000000000000
 18       0.000000000000
 19       0.000000000000
 20       0.000000000000
 21       0.000000000000
 22       0.000000000000
 23       0.000000000000
 24       0.000000000000
 25       0.000000000000
 26       0.000000000000
 27       0.000000000000
 28       0.000000000000
 29       0.000000000000
 30       0.000000000000
 31       0.000000000000
 32       0.000000000000
 33       0.000000000000
 34       0.000000000000
 35       0.000000000000
 36       0.000000000000
 37       0.000000000000
 38       0.000000000000
 39       0.000000000000
 40       0.000000000000
 41       0.000000000000
 42       0.000000000000
 43       0.000000000000
 44       0.000000000000
 45       0.000000000000
 46       0.000000000000
 47       0.000000000000
 48      -1.147797855851
 49       0.000000000000
 50       0.000000000000
 51       0.000000000000
 52       0.000000000000
 53       0.375974560845
 54       0.000000000000
 55       0.000000000000
 56       0.000000000000
 57       0.000000000000
 58       0.000000000000
 59       0.000000000000
 60       0.000000000000
 61       0.000000000000
 62       0.000000000000
 63       0.000000000000
 64       0.000000000000
 65       0.000000000000
 66       0.000000000000
 67       0.000000000000
 68       0.000000000000
 69       0.000000000000
 70       0.000000000000
 71       0.000000000000
 72       0.000000000000
 73       0.000000000000
 74       0.000000000000
 75       0.000000000000
 76       0.000000000000
 77       0.000000000000
 78       0.000000000000
 79       0.000000000000
 80       0.000000000000
 81       0.000000000000
 82       0.000000000000
 83       0.000000000000
 84       0.000000000000
 85       0.000000000000
 86       0.000000000000
 87       0.000000000000
 88       0.000000000000
 89       0.000000000000
 90       0.000000000000
 91       0.000000000000
 92       0.000000000000
 93       0.000000000000
 94       0.000000000000
 95       0.000000000000
 96       0.000000000000
 97       0.000000000000
 98       0.000000000000
 99       0.000000000000
100       0.000000000000
101       0.000000000000
102       0.000000000000
103       0.000000000000
104       0.000000000000
105       0.000000000000
106       0.000000000000
107       0.000000000000
108       0.000000000000
109       0.000000000000
110       0.000000000000
111       0.000000000000
112       0.000000000000
113       0.000000000000
114       0.000000000000
115       0.000000000000
116       0.000000000000
117       0.000000000000
118       0.000000000000
119       0.000000000000
120       0.000000000000
121       0.000000000000
122       0.000000000000
123       0.000000000000
124       0.000000000000
125       0.000000000000
126       0.000000000000
127       0.000000000000
128       0.000000000000
129       0.000000000000
130       0.000000000000
131       0.000000000000
132       0.000000000000
133       0.000000000000
134       0.000000000000
135       0.000000000000
136       0.000000000000
137       0.000000000000
138       0.000000000000
139       0.000000000000
140       0.000000000000
141       0.000000000000
142       0.000000000000
143       0.000000000000
144       0.000000000000
145       0.000000000000
146       0.000000000000
147       0.000000000000
148       0.000000000000
149       0.000000000000
150       0.000000000000
151       0.000000000000
152       0.000000000000
153       0.000000000000
154       0.000000000000
155       0.000000000000
156       0.000000000000
157       0.000000000000
158       0.000000000000
159       0.000000000000
160       0.000000000000
161       0.000000000000
162       0.000000000000
163       0.000000000000
164       0.000000000000
165       0.000000000000
166       0.000000000000
167       0.000000000000
168       0.000000000000
169       0.000000000000
170       0.000000000000
171       0.000000000000
172       0.000000000000
173       0.000000000000
174       0.000000000000
175       0.000000000000
176       0.000000000000
177       0.000000000000
178       0.000000000000
 Sym=     1a
 Ene=  2.64767502034754E+00
Spin= Alpha
 Occup= 0.008024
  1       0.000000000000
  2       0.000000000000
  3       0.000000000000
  4       0.000000000000
  5       0.000000000000
  6       0.000000000000
  7       0.000000000000
  8       0.000000000000
  9       0.000000000000
 10       0.000000000000
 11       0.000000000000
 12       0.000000000000
 13       0.000000000000
 14       0.000000000000
 15       0.000000000000
 16       0.000000000000
 17       0.000000000000
 18       0.000000000000
 19       0.000000000000
 20       0.000000000000
 21       0.000000000000
 22       0.000000000000
 23       0.000000000000
 24       0.000000000000
 25       0.000000000000
 26       0.000000000000
 27       0.000000000000
 28       0.000000000000
 29       0.000000000000
 30       0.000000000000
 31       0.000000000000
 32       0.000000000000
 33       0.000000000000
 34       0.000000000000
 35       0.000000000000
 36       0.000000000000
 37       0.000000000000
 38       0.000000000000
 39       0.000000000000
 40       0.000000000000
 41       0.000000000000
 42       0.000000000000
 43       0.000000000000
 44       0.000000000000
 45       0.000000000000
 46       0.000000000000
 47       0.000000000000
 48       0.000000000000
 49      -1.147797855851
 50       0.000000000000
 51       0.000000000000
 52       0.000000000000
 53       0.000000000000
 54       0.375974560845
 55       0.000000000000
 56       0.000000000000
 57       0.000000000000
 58       0.000000000000
 59       0.000000000000
 60       0.000000000000
 61       0.000000000000
 62       0.000000000000
 63       0.000000000000
 64       0.000000000000
 65       0.000000000000
 66       0.000000000000
 67       0.000000000000
 68       0.000000000000
 69       0.000000000000
 70       0.000000000000
 71       0.000000000000
 72       0.000000000000
 73       0.000000000000
 74       0.000000000000
 75       0.000000000000
 76       0.000000000000
 77       0.000000000000
 78       0.000000000000
 79       0.000000000000
 80       0.000000000000
 81       0.000000000000
 82       0.000000000000
 83       0.000000000000
 84       0.000000000000
 85       0.000000000000
 86       0.000000000000
 87       0.000000000000
 88       0.000000000000
 89       0.000000000000
 90       0.000000000000
 91       0.000000000000
 92       0.000000000000
 93       0.000000000000
 94       0.000000000000
 95       0.000000000000
 96       0.000000000000
 97       0.000000000000
 98       0.000000000000
 99       0.000000000000
100       0.000000000000
101       0.000000000000
102       0.000000000000
103       0.000000000000
104       0.000000000000
105       0.000000000000
106       0.000000000000
107       0.000000000000
108       0.000000000000
109       0.000000000000
110       0.000000000000
111       0.000000000000
112       0.000000000000
113       0.000000000000
114       0.000000000000
115       0.000000000000
116       0.000000000000
117       0.000000000000
118       0.000000000000
119       0.000000000000
120       0.000000000000
121       0.000000000000
122       0.000000000000
123       0.000000000000
124       0.000000000000
125       0.000000000000
126       0.000000000000
127       0.000000000000
128       0.000000000000
129       0.000000000000
130       0.000000000000
131       0.000000000000
132       0.000000000000
133       0.000000000000
134       0.000000000000
135       0.000000000000
136       0.000000000000
137       0.000000000000
138       0.000000000000
139       0.000000000000
140       0.000000000000
141       0.000000000000
142       0.000000000000
143       0.000000000000
144       0.000000000000
145       0.000000000000
146       0.000000000000
147       0.000000000000
148       0.000000000000
149       0.000000000000
150       0.000000000000
151       0.000000000000
152       0.000000000000
153       0.000000000000
154       0.000000000000
155       0.000000000000
156       0.000000000000
157       0.000000000000
158       0.000000000000
159       0.000000000000
160       0.000000000000
161       0.000000000000
162       0.000000000000
163       0.000000000000
164       0.000000000000
165       0.000000000000
166       0.000000000000
167       0.000000000000
168       0.000000000000
169       0.000000000000
170       0.000000000000
171       0.000000000000
172       0.000000000000
173       0.000000000000
174       0.000000000000
175       0.000000000000
176       0.000000000000
177       0.000000000000
178       0.000000000000
 Sym=     1a
 Ene=  2.69765824051870E+00
Spin= Alpha
 Occup= 0.008024
  1       0.000000000000
  2       0.000000000000
  3       0.000000000000
  4       0.000000000000
  5       0.000000000000
  6       0.000000000000
  7       0.000000000000
  8       0.000000000000
  9       0.000000000000
 10       0.000000000000
 11       0.000000000000
 12       0.000000000000
 13       0.000000000000
 14       0.000000000000
 15       0.000000000000
 16       0.000000000000
 17       0.000000000000
 18       0.000000000000
 19       0.000000000000
 20       0.000000000000
 21       0.000000000000
 22       0.000000000000
 23       0.000000000000
 24       0.000000000000
 25       0.000000000000
 26       0.000000000000
 27       0.000000000000
 28       0.000000000000
 29       0.000000000000
 30       0.000000000000
 31       0.000000000000
 32       0.000000000000
 33       0.000000000000
 34       0.000000000000
 35       0.000000000000
 36       0.000000000000
 37       0.000000000000
 38       0.000000000000
 39       0.000000000000
 40       0.000000000000
 41       0.000000000000
 42       0.000000000000
 43       0.000000000000
 44       0.000000000000
 45       0.000000000000
 46       0.000000000000
 47       0.000000000000
 48       0.000000000000
 49       0.000000000000
 50      -1.147797855851
 51       0.000000000000
 52       0.000000000000
 53       0.000000000000
 54       0.000000000000
 55       0.375974560845
 56       0.000000000000
 57       0.000000000000
 58       0.000000000000
 59       0.000000000000
 60       0.000000000000
 61       0.000000000000
 62       0.000000000000
 63       0.000000000000
 64       0.000000000000
 65       0.000000000000
 66       0.000000000000
 67       0.000000000000
 68       0.000000000000
 69       0.000000000000
 70       0.000000000000
 71       0.000000000000
 72       0.000000000000
 73       0.000000000000
 74       0.000000000000
 75       0.000000000000
 76       0.000000000000
 77       0.000000000000
 78       0.000000000000
 79       0.000000000000
 80       0.000000000000
 81       0.000000000000
 82       0.000000000000
 83       0.000000000000
 84       0.000000000000
 85       0.000000000000
 86       0.000000000000
 87       0.000000000000
 88       0.000000000000
 89       0.000000000000
 90       0.000000000000
 91       0.000000000000
 92       0.000000000000
 93       0.000000000000
 94       0.000000000000
 95       0.000000000000
 96       0.000000000000
 97       0.000000000000
 98       0.000000000000
 99       0.000000000000
100       0.000000000000
101       0.000000000000
102       0.000000000000
103       0.000000000000
104       0.000000000000
105       0.000000000000
106       0.000000000000
107       0.000000000000
108       0.000000000000
109       0.000000000000
110       0.000000000000
111       0.000000000000
112       0.000000000000
113       0.000000000000
114       0.000000000000
115       0.000000000000
116       0.000000000000
117       0.000000000000
118       0.000000000000
119       0.000000000000
120       0.000000000000
121       0.000000000000
122       0.000000000000
123       0.000000000000
124       0.000000000000
125       0.000000000000
126       0.000000000000
127       0.000000000000
128       0.000000000000
129       0.000000000000
130       0.000000000000
131       0.000000000000
132       0.000000000000
133       0.000000000000
134       0.000000000000
135       0.000000000000
136       0.000000000000
137       0.000000000000
138       0.000000000000
139       0.000000000000
140       0.000000000000
141       0.000000000000
142       0.000000000000
143       0.000000000000
144       0.000000000000
145       0.000000000000
146       0.000000000000
147       0.000000000000
148       0.000000000000
149       0.000000000000
150       0.000000000000
151       0.000000000000
152       0.000000000000
153       0.000000000000
154       0.000000000000
155       0.000000000000
156       0.000000000000
157       0.000000000000
158       0.000000000000
159       0.000000000000
160       0.000000000000
161       0.000000000000
162       0.000000000000
163       0.000000000000
164       0.000000000000
165       0.000000000000
166       0.000000000000
167       0.000000000000
168       0.000000000000
169       0.000000000000
170       0.000000000000
171       0.000000000000
172       0.000000000000
173       0.000000000000
174       0.000000000000
175       0.000000000000
176       0.000000000000
177       0.000000000000
178       0.000000000000
 Sym=     1a
 Ene=  4.66320313709246E-01
Spin= Alpha
 Occup= 0.190971
  1       0.000000000000
  2       0.000000000000
  3       0.000000000000
  4       0.000000000000
  5       0.000000000000
  6       0.000000000000
  7       0.000000000000
  8       0.000000000000
  9       0.000000000000
 10       0.000000000000
 11       0.000000000000
 12       0.000000000000
 13       0.000000000000
 14       0.000000000000
 15       0.000000000000
 16       0.000000000000
 17       0.000000000000
 18       0.000000000000
 19       0.000000000000
 20       0.000000000000
 21       0.000000000000
 22       0.000000000000
 23       0.000000000000
 24       0.000000000000
 25       0.000000000000
 26       0.000000000000
 27       0.000000000000
 28       0.000000000000
 29       0.000000000000
 30       0.000000000000
 31       0.000000000000
 32       0.000000000000
 33       0.000000000000
 34       0.000000000000
 35       0.000000000000
 36       0.000000000000
 37       0.000000000000
 38       0.000000000000
 39       0.000000000000
 40       0.000000000000
 41       0.000000000000
 42       0.000000000000
 43       0.000000000000
 44       0.000000000000
 45       0.000000000000
 46      -0.276465340337
 47       0.000000000000
 48       0.000000000000
 49       0.000000000000
 50       0.000000000000
 51       1.119158671459
 52       0.000000000000
 53       0.000000000000
 54       0.000000000000
 55       0.000000000000
 56       0.000000000000
 57       0.000000000000
 58       0.000000000000
 59       0.000000000000
 60       0.000000000000
 61       0.000000000000
 62       0.000000000000
 63       0.000000000000
 64       0.000000000000
 65       0.000000000000
 66       0.000000000000
 67       0.000000000000
 68       0.000000000000
 69       0.000000000000
 70       0.000000000000
 71       0.000000000000
 72       0.000000000000
 73       0.000000000000
 74       0.000000000000
 75       0.000000000000
 76       0.000000000000
 77       0.000000000000
 78       0.000000000000
 79       0.000000000000
 80       0.000000000000
 81       0.000000000000
 82       0.000000000000
 83       0.000000000000
 84       0.000000000000
 85       0.000000000000
 86       0.000000000000
 87       0.000000000000
 88       0.000000000000
 89       0.000000000000
 90       0.000000000000
 91       0.000000000000
 92       0.000000000000
 93       0.000000000000
 94       0.000000000000
 95       0.000000000000
 96       0.000000000000
 97       0.000000000000
 98       0.000000000000
 99       0.000000000000
100       0.000000000000
101       0.000000000000
102       0.000000000000
103       0.000000000000
104       0.000000000000
105       0.000000000000
106       0.000000000000
107       0.000000000000
108       0.000000000000
109       0.000000000000
110       0.000000000000
111       0.000000000000
112       0.000000000000
113       0.000000000000
114       0.000000000000
115       0.000000000000
116       0.000000000000
117       0.000000000000
118       0.000000000000
119       0.000000000000
120       0.000000000000
121       0.000000000000
122       0.000000000000
123       0.000000000000
124       0.000000000000
125       0.000000000000
126       0.000000000000
127       0.000000000000
128       0.000000000000
129       0.000000000000
130       0.000000000000
131       0.000000000000
132       0.000000000000
133       0.000000000000
134       0.000000000000
135       0.000000000000
136       0.000000000000
137       0.000000000000
138       0.000000000000
139       0.000000000000
140       0.000000000000
141       0.000000000000
142       0.000000000000
143       0.000000000000
144       0.000000000000
145       0.000000000000
146       0.000000000000
147       0.000000000000
148       0.000000000000
149       0.000000000000
150       0.000000000000
151       0.000000000000
152       0.000000000000
153       0.000000000000
154       0.000000000000
155       0.000000000000
156       0.000000000000
157       0.000000000000
158       0.000000000000
159       0.000000000000
160       0.000000000000
161       0.000000000000
162       0.000000000000
163       0.000000000000
164       0.000000000000
165       0.000000000000
166       0.000000000000
167       0.000000000000
168       0.000000000000
169       0.000000000000
170       0.000000000000
171       0.000000000000
172       0.000000000000
173       0.000000000000
174       0.000000000000
175       0.000000000000
176       0.000000000000
177       0.000000000000
178       0.000000000000
 Sym=     1a
 Ene=  1.25226251791586E-01
Spin= Alpha
 Occup= 0.190971
  1       0.000000000000
  2       0.000000000000
  3       0.000000000000
  4       0.000000000000
  5       0.000000000000
  6       0.000000000000
  7       0.000000000000
  8       0.000000000000
  9       0.000000000000
 10       0.000000000000
 11       0.000000000000
 12       0.000000000000
 13       0.000000000000
 14       0.000000000000
 15       0.000000000000
 16       0.000000000000
 17       0.000000000000
 18       0.000000000000
 19       0.000000000000
 20       0.000000000000
 21       0.000000000000
 22       0.000000000000
 23       0.000000000000
 24       0.000000000000
 25       0.000000000000
 26       0.000000000000
 27       0.000000000000
 28       0.000000000000
 29       0.000000000000
 30       0.000000000000
 31       0.000000000000
 32       0.000000000000
 33       0.000000000000
 34       0.000000000000
 35       0.000000000000
 36       0.000000000000
 37       0.000000000000
 38       0.000000000000
 39       0.000000000000
 40       0.000000000000
 41       0.000000000000
 42       0.000000000000
 43       0.000000000000
 44       0.000000000000
 45       0.000000000000
 46       0.000000000000
 47      -0.276465340337
 48       0.000000000000
 49       0.000000000000
 50       0.000000000000
 51       0.000000000000
 52       1.119158671459
 53       0.000000000000
 54       0.000000000000
 55       0.000000000000
 56       0.000000000000
 57       0.000000000000
 58       0.000000000000
 59       0.000000000000
 60       0.000000000000
 61       0.000000000000
 62       0.000000000000
 63       0.000000000000
 64       0.000000000000
 65       0.000000000000
 66       0.000000000000
 67       0.000000000000
 68       0.000000000000
 69       0.000000000000
 70       0.000000000000
 71       0.000000000000
 72       0.000000000000
 73       0.000000000000
 74       0.000000000000
 75       0.000000000000
 76       0.000000000000
 77       0.000000000000
 78       0.000000000000
 79       0.000000000000
 80       0.000000000000
 81       0.000000000000
 82       0.000000000000
 83       0.000000000000
 84       0.000000000000
 85       0.000000000000
 86       0.000000000000
 87       0.000000000000
 88       0.000000000000
 89       0.000000000000
 90       0.000000000000
 91       0.000000000000
 92       0.000000000000
 93       0.000000000000
 94       0.000000000000
 95       0.000000000000
 96       0.000000000000
 97       0.000000000000
 98       0.000000000000
 99       0.000000000000
100       0.000000000000
101       0.000000000000
102       0.000000000000
103       0.000000000000
104       0.000000000000
105       0.000000000000
106       0.000000000000
107       0.000000000000
108       0.000000000000
109       0.000000000000
110       0.000000000000
111       0.000000000000
112       0.000000000000
113       0.000000000000
114       0.000000000000
115       0.000000000000
116       0.000000000000
117       0.000000000000
118       0.000000000000
119       0.000000000000
120       0.000000000000
121       0.000000000000
122       0.000000000000
123       0.000000000000
124       0.000000000000
125       0.000000000000
126       0.000000000000
127       0.000000000000
128       0.000000000000
129       0.000000000000
130       0.000000000000
131       0.000000000000
132       0.000000000000
133       0.000000000000
134       0.000000000000
135       0.000000000000
136       0.000000000000
137       0.000000000000
138       0.000000000000
139       0.000000000000
140       0.000000000000
141       0.000000000000
142       0.000000000000
143       0.000000000000
144       0.000000000000
145       0.000000000000
146       0.000000000000
147       0.000000000000
148       0.000000000000
149       0.000000000000
150       0.000000000000
151       0.000000000000
152       0.000000000000
153       0.000000000000
154       0.000000000000
155       0.000000000000
156       0.000000000000
157       0.000000000000
158       0.000000000000
159       0.000000000000
160       0.000000000000
161       0.000000000000
162       0.000000000000
163       0.000000000000
164       0.000000000000
165       0.000000000000
166       0.000000000000
167       0.000000000000
168       0.000000000000
169       0.000000000000
170       0.000000000000
171       0.000000000000
172       0.000000000000
173       0.000000000000
174       0.000000000000
175       0.000000000000
176       0.000000000000
177       0.000000000000
178       0.000000000000
 Sym=     1a
 Ene=  3.48889283769411E-01
Spin= Alpha
 Occup= 0.190971
  1       0.000000000000
  2       0.000000000000
  3       0.000000000000
  4       0.000000000000
  5       0.000000000000
  6       0.000000000000
  7       0.000000000000
  8       0.000000000000
  9       0.000000000000
 10       0.000000000000
 11       0.000000000000
 12       0.000000000000
 13       0.000000000000
 14       0.000000000000
 15       0.000000000000
 16       0.000000000000
 17       0.000000000000
 18       0.000000000000
 19       0.000000000000
 20       0.000000000000
 21       0.000000000000
 22       0.000000000000
 23       0.000000000000
 24       0.000000000000
 25       0.000000000000
 26       0.000000000000
 27       0.000000000000
 28       0.000000000000
 29       0.000000000000
 30       0.000000000000
 31       0.000000000000
 32       0.000000000000
 33       0.000000000000
 34       0.000000000000
 35       0.000000000000
 36       0.000000000000
 37       0.000000000000
 38       0.000000000000
 39       0.000000000000
 40       0.000000000000
 41       0.000000000000
 42       0.000000000000
 43       0.000000000000
 44       0.000000000000
 45       0.000000000000
 46       0.000000000000
 47       0.000000000000
 48      -0.276465340337
 49       0.000000000000
 50       0.000000000000
 51       0.000000000000
 52       0.000000000000
 53       1.119158671459
 54       0.000000000000
 55       0.000000000000
 56       0.000000000000
 57       0.000000000000
 58       0.000000000000
 59       0.000000000000
 60       0.000000000000
 61       0.000000000000
 62       0.000000000000
 63       0.000000000000
 64       0.000000000000
 65       0.000000000000
 66       0.000000000000
 67       0.000000000000
 68       0.000000000000
 69       0.000000000000
 70       0.000000000000
 71       0.000000000000
 72       0.000000000000
 73       0.000000000000
 74       0.000000000000
 75       0.000000000000
 76       0.000000000000
 77       0.000000000000
 78       0.000000000000
 79       0.000000000000
 80       0.000000000000
 81       0.000000000000
 82       0.000000000000
 83       0.000000000000
 84       0.000000000000
 85       0.000000000000
 86       0.000000000000
 87       0.000000000000
 88       0.000000000000
 89       0.000000000000
 90       0.000000000000
 91       0.000000000000
 92       0.000000000000
 93       0.000000000000
 94       0.000000000000
 95       0.000000000000
 96       0.000000000000
 97       0.000000000000
 98       0.000000000000
 99       0.000000000000
100       0.000000000000
101       0.000000000000
102       0.000000000000
103       0.000000000000
104       0.000000000000
105       0.000000000000
106       0.000000000000
107       0.000000000000
108       0.000000000000
109       0.000000000000
110       0.000000000000
111       0.000000000000
112       0.000000000000
113       0.000000000000
114       0.000000000000
115       0.000000000000
116       0.000000000000
117       0.000000000000
118       0.000000000000
119       0.000000000000
120       0.000000000000
121       0.000000000000
122       0.000000000000
123       0.000000000000
124       0.000000000000
125       0.000000000000
126       0.000000000000
127       0.000000000000
128       0.000000000000
129       0.000000000000
130       0.000000000000
131       0.000000000000
132       0.000000000000
133       0.000000000000
134       0.000000000000
135       0.000000000000
136       0.000000000000
137       0.000000000000
138       0.000000000000
139       0.000000000000
140       0.000000000000
141       0.000000000000
142       0.000000000000
143       0.000000000000
144       0.000000000000
145       0.000000000000
146       0.000000000000
147       0.000000000000
148       0.000000000000
149       0.000000000000
150       0.000000000000
151       0.000000000000
152       0.000000000000
153       0.000000000000
154       0.000000000000
155       0.000000000000
156       0.000000000000
157       0.000000000000
158       0.000000000000
159       0.000000000000
160       0.000000000000
161       0.000000000000
162       0.000000000000
163       0.000000000000
164       0.000000000000
165       0.000000000000
166       0.000000000000
167       0.000000000000
168       0.000000000000
169       0.000000000000
170       0.000000000000
171       0.000000000000
172       0.000000000000
173       0.000000000000
174       0.000000000000
175       0.000000000000
176       0.000000000000
177       0.000000000000
178       0.000000000000
 Sym=     1a
 Ene=  1.94865771625000E-01
Spin= Alpha
 Occup= 0.190971
  1       0.000000000000
  2       0.000000000000
  3       0.000000000000
  4       0.000000000000
  5       0.000000000000
  6       0.000000000000
  7       0.000000000000
  8       0.000000000000
  9       0.000000000000
 10       0.000000000000
 11       0.000000000000
 12       0.000000000000
 13       0.000000000000
 14       0.000000000000
 15       0.000000000000
 16       0.000000000000
 17       0.000000000000
 18       0.000000000000
 19       0.000000000000
 20       0.000000000000
 21       0.000000000000
 22       0.000000000000
 23       0.000000000000
 24       0.000000000000
 25       0.000000000000
 26       0.000000000000
 27       0.000000000000
 28       0.000000000000
 29       0.000000000000
 30       0.000000000000
 31       0.000000000000
 32       0.000000000000
 33       0.000000000000
 34       0.000000000000
 35       0.000000000000
 36       0.000000000000
 37       0.000000000000
 38       0.000000000000
 39       0.000000000000
 40       0.000000000000
 41       0.000000000000
 42       0.000000000000
 43       0.000000000000
 44       0.000000000000
 45       0.000000000000
 46       0.000000000000
 47       0.000000000000
 48       0.000000000000
 49      -0.276465340337
 50       0.000000000000
 51       0.000000000000
 52       0.000000000000
 53       0.000000000000
 54       1.119158671459
 55       0.000000000000
 56       0.000000000000
 57       0.000000000000
 58       0.000000000000
 59       0.000000000000
 60       0.000000000000
 61       0.000000000000
 62       0.000000000000
 63       0.000000000000
 64       0.000000000000
 65       0.000000000000
 66       0.000000000000
 67       0.000000000000
 68       0.000000000000
 69       0.000000000000
 70       0.000000000000
 71       0.000000000000
 72       0.000000000000
 73       0.000000000000
 74       0.000000000000
 75       0.000000000000
 76       0.000000000000
 77       0.000000000000
 78       0.000000000000
 79       0.000000000000
 80       0.000000000000
 81       0.000000000000
 82       0.000000000000
 83       0.000000000000
 84       0.000000000000
 85       0.000000000000
 86       0.000000000000
 87       0.000000000000
 88       0.000000000000
 89       0.000000000000
 90       0.000000000000
 91       0.000000000000
 92       0.000000000000
 93       0.000000000000
 94       0.000000000000
 95       0.000000000000
 96       0.000000000000
 97       0.000000000000
 98       0.000000000000
 99       0.000000000000
100       0.000000000000
101       0.000000000000
102       0.000000000000
103       0.000000000000
104       0.000000000000
105       0.000000000000
106       0.000000000000
107       0.000000000000
108       0.000000000000
109       0.000000000000
110       0.000000000000
111       0.000000000000
112       0.000000000000
113       0.000000000000
114       0.000000000000
115       0.000000000000
116       0.000000000000
117       0.000000000000
118       0.000000000000
119       0.000000000000
120       0.000000000000
121       0.000000000000
122       0.000000000000
123       0.000000000000
124       0.000000000000
125       0.000000000000
126       0.000000000000
127       0.000000000000
128       0.000000000000
129       0.000000000000
130       0.000000000000
131       0.000000000000
132       0.000000000000
133       0.000000000000
134       0.000000000000
135       0.000000000000
136       0.000000000000
137       0.000000000000
138       0.000000000000
139       0.000000000000
140       0.000000000000
141       0.000000000000
142       0.000000000000
143       0.000000000000
144       0.000000000000
145       0.000000000000
146       0.000000000000
147       0.000000000000
148       0.000000000000
149       0.000000000000
150       0.000000000000
151       0.000000000000
152       0.000000000000
153       0.000000000000
154       0.000000000000
155       0.000000000000
156       0.000000000000
157       0.000000000000
158       0.000000000000
159       0.000000000000
160       0.000000000000
161       0.000000000000
162       0.000000000000
163       0.000000000000
164       0.000000000000
165       0.000000000000
166       0.000000000000
167       0.000000000000
168       0.000000000000
169       0.000000000000
170       0.000000000000
171       0.000000000000
172       0.000000000000
173       0.000000000000
174       0.000000000000
175       0.000000000000
176       0.000000000000
177       0.000000000000
178       0.000000000000
 Sym=     1a
 Ene=  4.80039103661832E-01
Spin= Alpha
 Occup= 0.190971
  1       0.000000000000
  2       0.000000000000
  3       0.000000000000
  4       0.000000000000
  5       0.000000000000
  6       0.000000000000
  7       0.000000000000
  8       0.000000000000
  9       0.000000000000
 10       0.000000000000
 11       0.000000000000
 12       0.000000000000
 13       0.000000000000
 14       0.000000000000
 15       0.000000000000
 16       0.000000000000
 17       0.000000000000
 18       0.000000000000
 19       0.000000000000
 20       0.000000000000
 21       0.000000000000
 22       0.000000000000
 23       0.000000000000
 24       0.000000000000
 25       0.000000000000
 26       0.000000000000
 27       0.000000000000
 28       0.000000000000
 29       0.000000000000
 30       0.000000000000
 31       0.000000000000
 32       0.000000000000
 33       0.000000000000
 34       0.000000000000
 35       0.000000000000
 36       0.000000000000
 37       0.000000000000
 38       0.000000000000
 39       0.000000000000
 40       0.000000000000
 41       0.000000000000
 42       0.000000000000
 43       0.000000000000
 44       0.000000000000
 45       0.000000000000
 46       0.000000000000
 47       0.000000000000
 48       0.000000000000
 49       0.000000000000
 50      -0.276465340337
 51       0.000000000000
 52       0.000000000000
 53       0.000000000000
 54       0.000000000000
 55       1.119158671459
 56       0.000000000000
 57       0.000000000000
 58       0.000000000000
 59       0.000000000000
 60       0.000000000000
 61       0.000000000000
 62       0.000000000000
 63       0.000000000000
 64       0.000000000000
 65       0.000000000000
 66       0.000000000000
 67       0.000000000000
 68       0.000000000000
 69       0.000000000000
 70       0.000000000000
 71       0.000000000000
 72       0.000000000000
 73       0.000000000000
 74       0.000000000000
 75       0.000000000000
 76       0.000000000000
 77       0.000000000000
 78       0.000000000000
 79       0.000000000000
 80       0.000000000000
 81       0.000000000000
 82       0.000000000000
 83       0.000000000000
 84       0.000000000000
 85       0.000000000000
 86       0.000000000000
 87       0.000000000000
 88       0.000000000000
 89       0.000000000000
 90       0.000000000000
 91       0.000000000000
 92       0.000000000000
 93       0.000000000000
 94       0.000000000000
 95       0.000000000000
 96       0.000000000000
 97       0.000000000000
 98       0.000000000000
 99       0.000000000000
100       0.000000000000
101       0.000000000000
102       0.000000000000
103       0.000000000000
104       0.000000000000
105       0.000000000000
106       0.000000000000
107       0.000000000000
108       0.000000000000
109       0.000000000000
110       0.000000000000
111       0.000000000000
112       0.000000000000
113       0.000000000000
114       0.000000000000
115       0.000000000000
116       0.000000000000
117       0.000000000000
118       0.000000000000
119       0.000000000000
120       0.000000000000
121       0.000000000000
122       0.000000000000
123       0.000000000000
124       0.000000000000
125       0.000000000000
126       0.000000000000
127       0.000000000000
128       0.000000000000
129       0.000000000000
130       0.000000000000
131       0.000000000000
132       0.000000000000
133       0.000000000000
134       0.000000000000
135       0.000000000000
136       0.000000000000
137       0.000000000000
138       0.000000000000
139       0.000000000000
140       0.000000000000
141       0.000000000000
142       0.000000000000
143       0.000000000000
144       0.000000000000
145       0.000000000000
146       0.000000000000
147       0.000000000000
148       0.000000000000
149       0.000000000000
150       0.000000000000
151       0.000000000000
152       0.000000000000
153       0.000000000000
154       0.000000000000
155       0.000000000000
156       0.000000000000
157       0.000000000000
158       0.000000000000
159       0.000000000000
160       0.000000000000
161       0.000000000000
162       0.000000000000
163       0.000000000000
164       0.000000000000
165       0.000000000000
166       0.000000000000
167       0.000000000000
168       0.000000000000
169       0.000000000000
170       0.000000000000
171       0.000000000000
172       0.000000000000
173       0.000000000000
174       0.000000000000
175       0.000000000000
176       0.000000000000
177       0.000000000000
178       0.000000000000
 Sym=     1a
 Ene=  2.37792147613095E+00
Spin= Alpha
 Occup= 0.016926
  1       0.000000000000
  2       0.000000000000
  3       0.000000000000
  4       0.000000000000
  5       0.000000000000
  6       0.000000000000
  7       0.000000000000
  8       0.000000000000
  9       0.000000000000
 10       0.000000000000
 11       0.000000000000
 12       0.000000000000
 13       0.000000000000
 14       0.000000000000
 15       0.000000000000
 16       0.000000000000
 17       0.000000000000
 18       0.000000000000
 19       0.000000000000
 20       0.000000000000
 21       0.000000000000
 22       0.000000000000
 23       0.000000000000
 24       0.000000000000
 25       0.000000000000
 26       0.000000000000
 27       0.000000000000
 28       0.000000000000
 29       0.000000000000
 30       0.000000000000
 31       0.000000000000
 32       0.000000000000
 33       0.000000000000
 34       0.000000000000
 35       0.000000000000
 36       0.000000000000
 37       0.000000000000
 38       0.000000000000
 39       0.000000000000
 40       0.000000000000
 41       0.000000000000
 42       0.000000000000
 43       0.000000000000
 44       0.000000000000
 45       0.000000000000
 46       0.000000000000
 47       0.000000000000
 48       0.000000000000
 49       0.000000000000
 50       0.000000000000
 51       0.000000000000
 52       0.000000000000
 53       0.000000000000
 54       0.000000000000
 55       0.000000000000
 56       1.000000000000
 57       0.000000000000
 58       0.000000000000
 59       0.000000000000
 60       0.000000000000
 61       0.000000000000
 62       0.000000000000
 63       0.000000000000
 64       0.000000000000
 65       0.000000000000
 66       0.000000000000
 67       0.000000000000
 68       0.000000000000
 69       0.000000000000
 70       0.000000000000
 71       0.000000000000
 72       0.000000000000
 73       0.000000000000
 74       0.000000000000
 75       0.000000000000
 76       0.000000000000
 77       0.000000000000
 78       0.000000000000
 79       0.000000000000
 80       0.000000000000
 81       0.000000000000
 82       0.000000000000
 83       0.000000000000
 84       0.000000000000
 85       0.000000000000
 86       0.000000000000
 87       0.000000000000
 88       0.000000000000
 89       0.000000000000
 90       0.000000000000
 91       0.000000000000
 92       0.000000000000
 93       0.000000000000
 94       0.000000000000
 95       0.000000000000
 96       0.000000000000
 97       0.000000000000
 98       0.000000000000
 99       0.000000000000
100       0.000000000000
101       0.000000000000
102       0.000000000000
103       0.000000000000
104       0.000000000000
105       0.000000000000
106       0.000000000000
107       0.000000000000
108       0.000000000000
109       0.000000000000
110       0.000000000000
111       0.000000000000
112       0.000000000000
113       0.000000000000
114       0.000000000000
115       0.000000000000
116       0.000000000000
117       0.000000000000
118       0.000000000000
119       0.000000000000
120       0.000000000000
121       0.000000000000
122       0.000000000000
123       0.000000000000
124       0.000000000000
125       0.000000000000
126       0.000000000000
127       0.000000000000
128       0.000000000000
129       0.000000000000
130       0.000000000000
131       0.000000000000
132       0.000000000000
133       0.000000000000
134       0.000000000000
135       0.000000000000
136       0.000000000000
137       0.000000000000
138       0.000000000000
139       0.000000000000
140       0.000000000000
141       0.000000000000
142       0.000000000000
143       0.000000000000
144       0.000000000000
145       0.000000000000
146       0.000000000000
147       0.000000000000
148       0.000000000000
149       0.000000000000
150       0.000000000000
151       0.000000000000
152       0.000000000000
153       0.000000000000
154       0.000000000000
155       0.000000000000
156       0.000000000000
157       0.000000000000
158       0.000000000000
159       0.000000000000
160       0.000000000000
161       0.000000000000
162       0.000000000000
163       0.000000000000
164       0.000000000000
165       0.000000000000
166       0.000000000000
167       0.000000000000
168       0.000000000000
169       0.000000000000
170       0.000000000000
171       0.000000000000
172       0.000000000000
173       0.000000000000
174       0.000000000000
175       0.000000000000
176       0.000000000000
177       0.000000000000
178       0.000000000000
 Sym=     1a
 Ene=  2.37184772462389E+00
Spin= Alpha
 Occup= 0.016926
  1       0.000000000000
  2       0.000000000000
  3       0.000000000000
  4       0.000000000000
  5       0.000000000000
  6       0.000000000000
  7       0.000000000000
  8       0.000000000000
  9       0.000000000000
 10       0.000000000000
 11       0.000000000000
 12       0.000000000000
 13       0.000000000000
 14       0.000000000000
 15       0.000000000000
 16       0.000000000000
 17       0.000000000000
 18       0.000000000000
 19       0.000000000000
 20       0.000000000000
 21       0.000000000000
 22       0.000000000000
 23       0.000000000000
 24       0.000000000000
 25       0.000000000000
 26       0.000000000000
 27       0.000000000000
 28       0.000000000000
 29       0.000000000000
 30       0.000000000000
 31       0.000000000000
 32       0.000000000000
 33       0.000000000000
 34       0.000000000000
 35       0.000000000000
 36       0.000000000000
 37       0.000000000000
 38       0.000000000000
 39       0.000000000000
 40       0.000000000000
 41       0.000000000000
 42       0.000000000000
 43       0.000000000000
 44       0.000000000000
 45       0.000000000000
 46       0.000000000000
 47       0.000000000000
 48       0.000000000000
 49       0.000000000000
 50       0.000000000000
 51       0.000000000000
 52       0.000000000000
 53       0.000000000000
 54       0.000000000000
 55       0.000000000000
 56       0.000000000000
 57       1.000000000000
 58       0.000000000000
 59       0.000000000000
 60       0.000000000000
 61       0.000000000000
 62       0.000000000000
 63       0.000000000000
 64       0.000000000000
 65       0.000000000000
 66       0.000000000000
 67       0.000000000000
 68       0.000000000000
 69       0.000000000000
 70       0.000000000000
 71       0.000000000000
 72       0.000000000000
 73       0.000000000000
 74       0.000000000000
 75       0.000000000000
 76       0.000000000000
 77       0.000000000000
 78       0.000000000000
 79       0.000000000000
 80       0.000000000000
 81       0.000000000000
 82       0.000000000000
 83       0.000000000000
 84       0.000000000000
 85       0.000000000000
 86       0.000000000000
 87       0.000000000000
 88       0.000000000000
 89       0.000000000000
 90       0.000000000000
 91       0.000000000000
 92       0.000000000000
 93       0.000000000000
 94       0.000000000000
 95       0.000000000000
 96       0.000000000000
 97       0.000000000000
 98       0.000000000000
 99       0.000000000000
100       0.000000000000
101       0.000000000000
102       0.000000000000
103       0.000000000000
104       0.000000000000
105       0.000000000000
106       0.000000000000
107       0.000000000000
108       0.000000000000
109       0.000000000000
110       0.000000000000
111       0.000000000000
112       0.000000000000
113       0.000000000000
114       0.000000000000
115       0.000000000000
116       0.000000000000
117       0.000000000000
118       0.000000000000
119       0.000000000000
120       0.000000000000
121       0.000000000000
122       0.000000000000
123       0.000000000000
124       0.000000000000
125       0.000000000000
126       0.000000000000
127       0.000000000000
128       0.000000000000
129       0.000000000000
130       0.000000000000
131       0.000000000000
132       0.000000000000
133       0.000000000000
134       0.000000000000
135       0.000000000000
136       0.000000000000
137       0.000000000000
138       0.000000000000
139       0.000000000000
140       0.000000000000
141       0.000000000000
142       0.000000000000
143       0.000000000000
144       0.000000000000
145       0.000000000000
146       0.000000000000
147       0.000000000000
148       0.000000000000
149       0.000000000000
150       0.000000000000
151       0.000000000000
152       0.000000000000
153       0.000000000000
154       0.000000000000
155       0.000000000000
156       0.000000000000
157       0.000000000000
158       0.000000000000
159       0.000000000000
160       0.000000000000
161       0.000000000000
162       0.000000000000
163       0.000000000000
164       0.000000000000
165       0.000000000000
166       0.000000000000
167       0.000000000000
168       0.000000000000
169       0.000000000000
170       0.000000000000
171       0.000000000000
172       0.000000000000
173       0.000000000000
174       0.000000000000
175       0.000000000000
176       0.000000000000
177       0.000000000000
178       0.000000000000
 Sym=     1a
 Ene=  2.38473035353284E+00
Spin= Alpha
 Occup= 0.016926
  1       0.000000000000
  2       0.000000000000
  3       0.000000000000
  4       0.000000000000
  5       0.000000000000
  6       0.000000000000
  7       0.000000000000
  8       0.000000000000
  9       0.000000000000
 10       0.000000000000
 11       0.000000000000
 12       0.000000000000
 13       0.000000000000
 14       0.000000000000
 15       0.000000000000
 16       0.000000000000
 17       0.000000000000
 18       0.000000000000
 19       0.000000000000
 20       0.000000000000
 21       0.000000000000
 22       0.000000000000
 23       0.000000000000
 24       0.000000000000
 25       0.000000000000
 26       0.000000000000
 27       0.000000000000
 28       0.000000000000
 29       0.000000000000
 30       0.000000000000
 31       0.000000000000
 32       0.000000000000
 33       0.000000000000
 34       0.000000000000
 35       0.000000000000
 36       0.000000000000
 37       0.000000000000
 38       0.000000000000
 39       0.000000000000
 40       0.000000000000
 41       0.000000000000
 42       0.000000000000
 43       0.000000000000
 44       0.000000000000
 45       0.000000000000
 46       0.000000000000
 47       0.000000000000
 48       0.000000000000
 49       0.000000000000
 50       0.000000000000
 51       0.000000000000
 52       0.000000000000
 53       0.000000000000
 54       0.000000000000
 55       0.000000000000
 56       0.000000000000
 57       0.000000000000
 58       1.000000000000
 59       0.000000000000
 60       0.000000000000
 61       0.000000000000
 62       0.000000000000
 63       0.000000000000
 64       0.000000000000
 65       0.000000000000
 66       0.000000000000
 67       0.000000000000
 68       0.000000000000
 69       0.000000000000
 70       0.000000000000
 71       0.000000000000
 72       0.000000000000
 73       0.000000000000
 74       0.000000000000
 75       0.000000000000
 76       0.000000000000
 77       0.000000000000
 78       0.000000000000
 79       0.000000000000
 80       0.000000000000
 81       0.000000000000
 82       0.000000000000
 83       0.000000000000
 84       0.000000000000
 85       0.000000000000
 86       0.000000000000
 87       0.000000000000
 88       0.000000000000
 89       0.000000000000
 90       0.000000000000
 91       0.000000000000
 92       0.000000000000
 93       0.000000000000
 94       0.000000000000
 95       0.000000000000
 96       0.000000000000
 97       0.000000000000
 98       0.000000000000
 99       0.000000000000
100       0.000000000000
101       0.000000000000
102       0.000000000000
103       0.000000000000
104       0.000000000000
105       0.000000000000
106       0.000000000000
107       0.000000000000
108       0.000000000000
109       0.000000000000
110       0.000000000000
111       0.000000000000
112       0.000000000000
113       0.000000000000
114       0.000000000000
115       0.000000000000
116       0.000000000000
117       0.000000000000
118       0.000000000000
119       0.000000000000
120       0.000000000000
121       0.000000000000
122       0.000000000000
123       0.000000000000
124       0.000000000000
125       0.000000000000
126       0.000000000000
127       0.000000000000
128       0.000000000000
129       0.000000000000
130       0.000000000000
131       0.000000000000
132       0.000000000000
133       0.000000000000
134       0.000000000000
135       0.000000000000
136       0.000000000000
137       0.000000000000
138       0.000000000000
139       0.000000000000
140       0.000000000000
141       0.000000000000
142       0.000000000000
143       0.000000000000
144       0.000000000000
145       0.000000000000
146       0.000000000000
147       0.000000000000
148       0.000000000000
149       0.000000000000
150       0.000000000000
151       0.000000000000
152       0.000000000000
153       0.000000000000
154       0.000000000000
155       0.000000000000
156       0.000000000000
157       0.000000000000
158       0.000000000000
159       0.000000000000
160       0.000000000000
161       0.000000000000
162       0.000000000000
163       0.000000000000
164       0.000000000000
165       0.000000000000
166       0.000000000000
167       0.000000000000
168       0.000000000000
169       0.000000000000
170       0.000000000000
171       0.000000000000
172       0.000000000000
173       0.000000000000
174       0.000000000000
175       0.000000000000
176       0.000000000000
177       0.000000000000
178       0.000000000000
 Sym=     1a
 Ene=  2.17313252143913E+00
Spin= Alpha
 Occup= 0.016926
  1       0.000000000000
  2       0.000000000000
  3       0.000000000000
  4       0.000000000000
  5       0.000000000000
  6       0.000000000000
  7       0.000000000000
  8       0.000000000000
  9       0.000000000000
 10       0.000000000000
 11       0.000000000000
 12       0.000000000000
 13       0.000000000000
 14       0.000000000000
 15       0.000000000000
 16       0.000000000000
 17       0.000000000000
 18       0.000000000000
 19       0.000000000000
 20       0.000000000000
 21       0.000000000000
 22       0.000000000000
 23       0.000000000000
 24       0.000000000000
 25       0.000000000000
 26       0.000000000000
 27       0.000000000000
 28       0.000000000000
 29       0.000000000000
 30       0.000000000000
 31       0.000000000000
 32       0.000000000000
 33       0.000000000000
 34       0.000000000000
 35       0.000000000000
 36       0.000000000000
 37       0.000000000000
 38       0.000000000000
 39       0.000000000000
 40       0.000000000000
 41       0.000000000000
 42       0.000000000000
 43       0.000000000000
 44       0.000000000000
 45       0.000000000000
 46       0.000000000000
 47       0.000000000000
 48       0.000000000000
 49       0.000000000000
 50       0.000000000000
 51       0.000000000000
 52       0.000000000000
 53       0.000000000000
 54       0.000000000000
 55       0.000000000000
 56       0.000000000000
 57       0.000000000000
 58       0.000000000000
 59       1.000000000000
 60       0.000000000000
 61       0.000000000000
 62       0.000000000000
 63       0.000000000000
 64       0.000000000000
 65       0.000000000000
 66       0.000000000000
 67       0.000000000000
 68       0.000000000000
 69       0.000000000000
 70       0.000000000000
 71       0.000000000000
 72       0.000000000000
 73       0.000000000000
 74       0.000000000000
 75       0.000000000000
 76       0.000000000000
 77       0.000000000000
 78       0.000000000000
 79       0.000000000000
 80       0.000000000000
 81       0.000000000000
 82       0.000000000000
 83       0.000000000000
 84       0.000000000000
 85       0.000000000000
 86       0.000000000000
 87       0.000000000000
 88       0.000000000000
 89       0.000000000000
 90       0.000000000000
 91       0.000000000000
 92       0.000000000000
 93       0.000000000000
 94       0.000000000000
 95       0.000000000000
 96       0.000000000000
 97       0.000000000000
 98       0.000000000000
 99       0.000000000000
100       0.000000000000
101       0.000000000000
102       0.000000000000
103       0.000000000000
104       0.000000000000
105       0.000000000000
106       0.000000000000
107       0.000000000000
108       0.000000000000
109       0.000000000000
110       0.000000000000
111       0.000000000000
112       0.000000000000
113       0.000000000000
114       0.000000000000
115       0.000000000000
116       0.000000000000
117       0.000000000000
118       0.000000000000
119       0.000000000000
120       0.000000000000
121       0.000000000000
122       0.000000000000
123       0.000000000000
124       0.000000000000
125       0.000000000000
126       0.000000000000
127       0.000000000000
128       0.000000000000
129       0.000000000000
130       0.000000000000
131       0.000000000000
132       0.000000000000
133       0.000000000000
134       0.000000000000
135       0.000000000000
136       0.000000000000
137       0.000000000000
138       0.000000000000
139       0.000000000000
140       0.000000000000
141       0.000000000000
142       0.000000000000
143       0.000000000000
144       0.000000000000
145       0.000000000000
146       0.000000000000
147       0.000000000000
148       0.000000000000
149       0.000000000000
150       0.000000000000
151       0.000000000000
152       0.000000000000
153       0.000000000000
154       0.000000000000
155       0.000000000000
156       0.000000000000
157       0.000000000000
158       0.000000000000
159       0.000000000000
160       0.000000000000
161       0.000000000000
162       0.000000000000
163       0.000000000000
164       0.000000000000
165       0.000000000000
166       0.000000000000
167       0.000000000000
168       0.000000000000
169       0.000000000000
170       0.000000000000
171       0.000000000000
172       0.000000000000
173       0.000000000000
174       0.000000000000
175       0.000000000000
176       0.000000000000
177       0.000000000000
178       0.000000000000
 Sym=     1a
 Ene=  2.38888607845781E+00
Spin= Alpha
 Occup= 0.016926
  1       0.000000000000
  2       0.000000000000
  3       0.000000000000
  4       0.000000000000
  5       0.000000000000
  6       0.000000000000
  7       0.000000000000
  8       0.000000000000
  9       0.000000000000
 10       0.000000000000
 11       0.000000000000
 12       0.000000000000
 13       0.000000000000
 14       0.000000000000
 15       0.000000000000
 16       0.000000000000
 17       0.000000000000
 18       0.000000000000
 19       0.000000000000
 20       0.000000000000
 21       0.000000000000
 22       0.000000000000
 23       0.000000000000
 24       0.000000000000
 25       0.000000000000
 26       0.000000000000
 27       0.000000000000
 28       0.000000000000
 29       0.000000000000
 30       0.000000000000
 31       0.000000000000
 32       0.000000000000
 33       0.000000000000
 34       0.000000000000
 35       0.000000000000
 36       0.000000000000
 37       0.000000000000
 38       0.000000000000
 39       0.000000000000
 40       0.000000000000
 41       0.000000000000
 42       0.000000000000
 43       0.000000000000
 44       0.000000000000
 45       0.000000000000
 46       0.000000000000
 47       0.000000000000
 48       0.000000000000
 49       0.000000000000
 50       0.000000000000
 51       0.000000000000
 52       0.000000000000
 53       0.000000000000
 54       0.000000000000
 55       0.000000000000
 56       0.000000000000
 57       0.000000000000
 58       0.000000000000
 59       0.000000000000
 60       1.000000000000
 61       0.000000000000
 62       0.000000000000
 63       0.000000000000
 64       0.000000000000
 65       0.000000000000
 66       0.000000000000
 67       0.000000000000
 68       0.000000000000
 69       0.000000000000
 70       0.000000000000
 71       0.000000000000
 72       0.000000000000
 73       0.000000000000
 74       0.000000000000
 75       0.000000000000
 76       0.000000000000
 77       0.000000000000
 78       0.000000000000
 79       0.000000000000
 80       0.000000000000
 81       0.000000000000
 82       0.000000000000
 83       0.000000000000
 84       0.000000000000
 85       0.000000000000
 86       0.000000000000
 87       0.000000000000
 88       0.000000000000
 89       0.000000000000
 90       0.000000000000
 91       0.000000000000
 92       0.000000000000
 93       0.000000000000
 94       0.000000000000
 95       0.000000000000
 96       0.000000000000
 97       0.000000000000
 98       0.000000000000
 99       0.000000000000
100       0.000000000000
101       0.000000000000
102       0.000000000000
103       0.000000000000
104       0.000000000000
105       0.000000000000
106       0.000000000000
107       0.000000000000
108       0.000000000000
109       0.000000000000
110       0.000000000000
111       0.000000000000
112       0.000000000000
113       0.000000000000
114       0.000000000000
115       0.000000000000
116       0.000000000000
117       0.000000000000
118       0.000000000000
119       0.000000000000
120       0.000000000000
121       0.000000000000
122       0.000000000000
123       0.000000000000
124       0.000000000000
125       0.000000000000
126       0.000000000000
127       0.000000000000
128       0.000000000000
129       0.000000000000
130       0.000000000000
131       0.000000000000
132       0.000000000000
133       0.000000000000
134       0.000000000000
135       0.000000000000
136       0.000000000000
137       0.000000000000
138       0.000000000000
139       0.000000000000
140       0.000000000000
141       0.000000000000
142       0.000000000000
143       0.000000000000
144       0.000000000000
145       0.000000000000
146       0.000000000000
147       0.000000000000
148       0.000000000000
149       0.000000000000
150       0.000000000000
151       0.000000000000
152       0.000000000000
153       0.000000000000
154       0.000000000000
155       0.000000000000
156       0.000000000000
157       0.000000000000
158       0.000000000000
159       0.000000000000
160       0.000000000000
161       0.000000000000
162       0.000000000000
163       0.000000000000
164       0.000000000000
165       0.000000000000
166       0.000000000000
167       0.000000000000
168       0.000000000000
169       0.000000000000
170       0.000000000000
171       0.000000000000
172       0.000000000000
173       0.000000000000
174       0.000000000000
175       0.000000000000
176       0.000000000000
177       0.000000000000
178       0.000000000000
 Sym=     1a
 Ene=  2.37267883957071E+00
Spin= Alpha
 Occup= 0.016926
  1       0.000000000000
  2       0.000000000000
  3       0.000000000000
  4       0.000000000000
  5       0.000000000000
  6       0.000000000000
  7       0.000000000000
  8       0.000000000000
  9       0.000000000000
 10       0.000000000000
 11       0.000000000000
 12       0.000000000000
 13       0.000000000000
 14       0.000000000000
 15       0.000000000000
 16       0.000000000000
 17       0.000000000000
 18       0.000000000000
 19       0.000000000000
 20       0.000000000000
 21       0.000000000000
 22       0.000000000000
 23       0.000000000000
 24       0.000000000000
 25       0.000000000000
 26       0.000000000000
 27       0.000000000000
 28       0.000000000000
 29       0.000000000000
 30       0.000000000000
 31       0.000000000000
 32       0.000000000000
 33       0.000000000000
 34       0.000000000000
 35       0.000000000000
 36       0.000000000000
 37       0.000000000000
 38       0.000000000000
 39       0.000000000000
 40       0.000000000000
 41       0.000000000000
 42       0.000000000000
 43       0.000000000000
 44       0.000000000000
 45       0.000000000000
 46       0.000000000000
 47       0.000000000000
 48       0.000000000000
 49       0.000000000000
 50       0.000000000000
 51       0.000000000000
 52       0.000000000000
 53       0.000000000000
 54       0.000000000000
 55       0.000000000000
 56       0.000000000000
 57       0.000000000000
 58       0.000000000000
 59       0.000000000000
 60       0.000000000000
 61       1.000000000000
 62       0.000000000000
 63       0.000000000000
 64       0.000000000000
 65       0.000000000000
 66       0.000000000000
 67       0.000000000000
 68       0.000000000000
 69       0.000000000000
 70       0.000000000000
 71       0.000000000000
 72       0.000000000000
 73       0.000000000000
 74       0.000000000000
 75       0.000000000000
 76       0.000000000000
 77       0.000000000000
 78       0.000000000000
 79       0.000000000000
 80       0.000000000000
 81       0.000000000000
 82       0.000000000000
 83       0.000000000000
 84       0.000000000000
 85       0.000000000000
 86       0.000000000000
 87       0.000000000000
 88       0.000000000000
 89       0.000000000000
 90       0.000000000000
 91       0.000000000000
 92       0.000000000000
 93       0.000000000000
 94       0.000000000000
 95       0.000000000000
 96       0.000000000000
 97       0.000000000000
 98       0.000000000000
 99       0.000000000000
100       0.000000000000
101       0.000000000000
102       0.000000000000
103       0.000000000000
104       0.000000000000
105       0.000000000000
106       0.000000000000
107       0.000000000000
108       0.000000000000
109       0.000000000000
110       0.000000000000
111       0.000000000000
112       0.000000000000
113       0.000000000000
114       0.000000000000
115       0.000000000000
116       0.000000000000
117       0.000000000000
118       0.000000000000
119       0.000000000000
120       0.000000000000
121       0.000000000000
122       0.000000000000
123       0.000000000000
124       0.000000000000
125       0.000000000000
126       0.000000000000
127       0.000000000000
128       0.000000000000
129       0.000000000000
130       0.000000000000
131       0.000000000000
132       0.000000000000
133       0.000000000000
134       0.000000000000
135       0.000000000000
136       0.000000000000
137       0.000000000000
138       0.000000000000
139       0.000000000000
140       0.000000000000
141       0.000000000000
142       0.000000000000
143       0.000000000000
144       0.000000000000
145       0.000000000000
146       0.000000000000
147       0.000000000000
148       0.000000000000
149       0.000000000000
150       0.000000000000
151       0.000000000000
152       0.000000000000
153       0.000000000000
154       0.000000000000
155       0.000000000000
156       0.000000000000
157       0.000000000000
158       0.000000000000
159       0.000000000000
160       0.000000000000
161       0.000000000000
162       0.000000000000
163       0.000000000000
164       0.000000000000
165       0.000000000000
166       0.000000000000
167       0.000000000000
168       0.000000000000
169       0.000000000000
170       0.000000000000
171       0.000000000000
172       0.000000000000
173       0.000000000000
174       0.000000000000
175       0.000000000000
176       0.000000000000
177       0.000000000000
178       0.000000000000
 Sym=     1a
 Ene=  2.37703118003069E+00
Spin= Alpha
 Occup= 0.016926
  1       0.000000000000
  2       0.000000000000
  3       0.000000000000
  4       0.000000000000
  5       0.000000000000
  6       0.000000000000
  7       0.000000000000
  8       0.000000000000
  9       0.000000000000
 10       0.000000000000
 11       0.000000000000
 12       0.000000000000
 13       0.000000000000
 14       0.000000000000
 15       0.000000000000
 16       0.000000000000
 17       0.000000000000
 18       0.000000000000
 19       0.000000000000
 20       0.000000000000
 21       0.000000000000
 22       0.000000000000
 23       0.000000000000
 24       0.000000000000
 25       0.000000000000
 26       0.000000000000
 27       0.000000000000
 28       0.000000000000
 29       0.000000000000
 30       0.000000000000
 31       0.000000000000
 32       0.000000000000
 33       0.000000000000
 34       0.000000000000
 35       0.000000000000
 36       0.000000000000
 37       0.000000000000
 38       0.000000000000
 39       0.000000000000
 40       0.000000000000
 41       0.000000000000
 42       0.000000000000
 43       0.000000000000
 44       0.000000000000
 45       0.000000000000
 46       0.000000000000
 47       0.000000000000
 48       0.000000000000
 49       0.000000000000
 50       0.000000000000
 51       0.000000000000
 52       0.000000000000
 53       0.000000000000
 54       0.000000000000
 55       0.000000000000
 56       0.000000000000
 57       0.000000000000
 58       0.000000000000
 59       0.000000000000
 60       0.000000000000
 61       0.000000000000
 62       1.000000000000
 63       0.000000000000
 64       0.000000000000
 65       0.000000000000
 66       0.000000000000
 67       0.000000000000
 68       0.000000000000
 69       0.000000000000
 70       0.000000000000
 71       0.000000000000
 72       0.000000000000
 73       0.000000000000
 74       0.000000000000
 75       0.000000000000
 76       0.000000000000
 77       0.000000000000
 78       0.000000000000
 79       0.000000000000
 80       0.000000000000
 81       0.000000000000
 82       0.000000000000
 83       0.000000000000
 84       0.000000000000
 85       0.000000000000
 86       0.000000000000
 87       0.000000000000
 88       0.000000000000
 89       0.000000000000
 90       0.000000000000
 91       0.000000000000
 92       0.000000000000
 93       0.000000000000
 94       0.000000000000
 95       0.000000000000
 96       0.000000000000
 97       0.000000000000
 98       0.000000000000
 99       0.000000000000
100       0.000000000000
101       0.000000000000
102       0.000000000000
103       0.000000000000
104       0.000000000000
105       0.000000000000
106       0.000000000000
107       0.000000000000
108       0.000000000000
109       0.000000000000
110       0.000000000000
111       0.000000000000
112       0.000000000000
113       0.000000000000
114       0.000000000000
115       0.000000000000
116       0.000000000000
117       0.000000000000
118       0.000000000000
119       0.000000000000
120       0.000000000000
121       0.000000000000
122       0.000000000000
123       0.000000000000
124       0.000000000000
125       0.000000000000
126       0.000000000000
127       0.000000000000
128       0.000000000000
129       0.000000000000
130       0.000000000000
131       0.000000000000
132       0.000000000000
133       0.000000000000
134       0.000000000000
135       0.000000000000
136       0.000000000000
137       0.000000000000
138       0.000000000000
139       0.000000000000
140       0.000000000000
141       0.000000000000
142       0.000000000000
143       0.000000000000
144       0.000000000000
145       0.000000000000
146       0.000000000000
147       0.000000000000
148       0.000000000000
149       0.000000000000
150       0.000000000000
151       0.000000000000
152       0.000000000000
153       0.000000000000
154       0.000000000000
155       0.000000000000
156       0.000000000000
157       0.000000000000
158       0.000000000000
159       0.000000000000
160       0.000000000000
161       0.000000000000
162       0.000000000000
163       0.000000000000
164       0.000000000000
165       0.000000000000
166       0.000000000000
167       0.000000000000
168       0.000000000000
169       0.000000000000
170       0.000000000000
171       0.000000000000
172       0.000000000000
173       0.000000000000
174       0.000000000000
175       0.000000000000
176       0.000000000000
177       0.000000000000
178       0.000000000000
 Sym=     1a
 Ene=  1.92464236052369E+00
Spin= Alpha
 Occup= 0.018362
  1       0.000000000000
  2       0.000000000000
  3       0.000000000000
  4       0.000000000000
  5       0.000000000000
  6       0.000000000000
  7       0.000000000000
  8       0.000000000000
  9       0.000000000000
 10       0.000000000000
 11       0.000000000000
 12       0.000000000000
 13       0.000000000000
 14       0.000000000000
 15       0.000000000000
 16       0.000000000000
 17       0.000000000000
 18       0.000000000000
 19       0.000000000000
 20       0.000000000000
 21       0.000000000000
 22       0.000000000000
 23       0.000000000000
 24       0.000000000000
 25       0.000000000000
 26       0.000000000000
 27       0.000000000000
 28       0.000000000000
 29       0.000000000000
 30       0.000000000000
 31       0.000000000000
 32       0.000000000000
 33       0.000000000000
 34       0.000000000000
 35       0.000000000000
 36       0.000000000000
 37       0.000000000000
 38       0.000000000000
 39       0.000000000000
 40       0.000000000000
 41       0.000000000000
 42       0.000000000000
 43       0.000000000000
 44       0.000000000000
 45       0.000000000000
 46       0.000000000000
 47       0.000000000000
 48       0.000000000000
 49       0.000000000000
 50       0.000000000000
 51       0.000000000000
 52       0.000000000000
 53       0.000000000000
 54       0.000000000000
 55       0.000000000000
 56       0.000000000000
 57       0.000000000000
 58       0.000000000000
 59       0.000000000000
 60       0.000000000000
 61       0.000000000000
 62       0.000000000000
 63      -1.546499142905
 64       1.597968162726
 65      -0.574670566677
 66       0.000000000000
 67       0.000000000000
 68       0.000000000000
 69       0.000000000000
 70       0.000000000000
 71       0.000000000000
 72       0.000000000000
 73       0.000000000000
 74       0.000000000000
 75       0.000000000000
 76       0.000000000000
 77       0.000000000000
 78       0.000000000000
 79       0.000000000000
 80       0.000000000000
 81       0.000000000000
 82       0.000000000000
 83       0.000000000000
 84       0.000000000000
 85       0.000000000000
 86       0.000000000000
 87       0.000000000000
 88       0.000000000000
 89       0.000000000000
 90       0.000000000000
 91       0.000000000000
 92       0.000000000000
 93       0.000000000000
 94       0.000000000000
 95       0.000000000000
 96       0.000000000000
 97       0.000000000000
 98       0.000000000000
 99       0.000000000000
100       0.000000000000
101       0.000000000000
102       0.000000000000
103       0.000000000000
104       0.000000000000
105       0.000000000000
106       0.000000000000
107       0.000000000000
108       0.000000000000
109       0.000000000000
110       0.000000000000
111       0.000000000000
112       0.000000000000
113       0.000000000000
114       0.000000000000
115       0.000000000000
116       0.000000000000
117       0.000000000000
118       0.000000000000
119       0.000000000000
120       0.000000000000
121       0.000000000000
122       0.000000000000
123       0.000000000000
124       0.000000000000
125       0.000000000000
126       0.000000000000
127       0.000000000000
128       0.000000000000
129       0.000000000000
130       0.000000000000
131       0.000000000000
132       0.000000000000
133       0.000000000000
134       0.000000000000
135       0.000000000000
136       0.000000000000
137       0.000000000000
138       0.000000000000
139       0.000000000000
140       0.000000000000
141       0.000000000000
142       0.000000000000
143       0.000000000000
144       0.000000000000
145       0.000000000000
146       0.000000000000
147       0.000000000000
148       0.000000000000
149       0.000000000000
150       0.000000000000
151       0.000000000000
152       0.000000000000
153       0.000000000000
154       0.000000000000
155       0.000000000000
156       0.000000000000
157       0.000000000000
158       0.000000000000
159       0.000000000000
160       0.000000000000
161       0.000000000000
162       0.000000000000
163       0.000000000000
164       0.000000000000
165       0.000000000000
166       0.000000000000
167       0.000000000000
168       0.000000000000
169       0.000000000000
170       0.000000000000
171       0.000000000000
172       0.000000000000
173       0.000000000000
174       0.000000000000
175       0.000000000000
176       0.000000000000
177       0.000000000000
178       0.000000000000
 Sym=     1a
 Ene= -9.50971063992987E-02
Spin= Alpha
 Occup= 0.473804
  1       0.000000000000
  2       0.000000000000
  3       0.000000000000
  4       0.000000000000
  5       0.000000000000
  6       0.000000000000
  7       0.000000000000
  8       0.000000000000
  9       0.000000000000
 10       0.000000000000
 11       0.000000000000
 12       0.000000000000
 13       0.000000000000
 14       0.000000000000
 15       0.000000000000
 16       0.000000000000
 17       0.000000000000
 18       0.000000000000
 19       0.000000000000
 20       0.000000000000
 21       0.000000000000
 22       0.000000000000
 23       0.000000000000
 24       0.000000000000
 25       0.000000000000
 26       0.000000000000
 27       0.000000000000
 28       0.000000000000
 29       0.000000000000
 30       0.000000000000
 31       0.000000000000
 32       0.000000000000
 33       0.000000000000
 34       0.000000000000
 35       0.000000000000
 36       0.000000000000
 37       0.000000000000
 38       0.000000000000
 39       0.000000000000
 40       0.000000000000
 41       0.000000000000
 42       0.000000000000
 43       0.000000000000
 44       0.000000000000
 45       0.000000000000
 46       0.000000000000
 47       0.000000000000
 48       0.000000000000
 49       0.000000000000
 50       0.000000000000
 51       0.000000000000
 52       0.000000000000
 53       0.000000000000
 54       0.000000000000
 55       0.000000000000
 56       0.000000000000
 57       0.000000000000
 58       0.000000000000
 59       0.000000000000
 60       0.000000000000
 61       0.000000000000
 62       0.000000000000
 63       0.164285441637
 64      -1.511947751150
 65       1.694233369043
 66       0.000000000000
 67       0.000000000000
 68       0.000000000000
 69       0.000000000000
 70       0.000000000000
 71       0.000000000000
 72       0.000000000000
 73       0.000000000000
 74       0.000000000000
 75       0.000000000000
 76       0.000000000000
 77       0.000000000000
 78       0.000000000000
 79       0.000000000000
 80       0.000000000000
 81       0.000000000000
 82       0.000000000000
 83       0.000000000000
 84       0.000000000000
 85       0.000000000000
 86       0.000000000000
 87       0.000000000000
 88       0.000000000000
 89       0.000000000000
 90       0.000000000000
 91       0.000000000000
 92       0.000000000000
 93       0.000000000000
 94       0.000000000000
 95       0.000000000000
 96       0.000000000000
 97       0.000000000000
 98       0.000000000000
 99       0.000000000000
100       0.000000000000
101       0.000000000000
102       0.000000000000
103       0.000000000000
104       0.000000000000
105       0.000000000000
106       0.000000000000
107       0.000000000000
108       0.000000000000
109       0.000000000000
110       0.000000000000
111       0.000000000000
112       0.000000000000
113       0.000000000000
114       0.000000000000
115       0.000000000000
116       0.000000000000
117       0.000000000000
118       0.000000000000
119       0.000000000000
120       0.000000000000
121       0.000000000000
122       0.000000000000
123       0.000000000000
124       0.000000000000
125       0.000000000000
126       0.000000000000
127       0.000000000000
128       0.000000000000
129       0.000000000000
130       0.000000000000
131       0.000000000000
132       0.000000000000
133       0.000000000000
134       0.000000000000
135       0.000000000000
136       0.000000000000
137       0.000000000000
138       0.000000000000
139       0.000000000000
140       0.000000000000
141       0.000000000000
142       0.000000000000
143       0.000000000000
144       0.000000000000
145       0.000000000000
146       0.000000000000
147       0.000000000000
148       0.000000000000
149       0.000000000000
150       0.000000000000
151       0.000000000000
152       0.000000000000
153       0.000000000000
154       0.000000000000
155       0.000000000000
156       0.000000000000
157       0.000000000000
158       0.000000000000
159       0.000000000000
160       0.000000000000
161       0.000000000000
162       0.000000000000
163       0.000000000000
164       0.000000000000
165       0.000000000000
166       0.000000000000
167       0.000000000000
168       0.000000000000
169       0.000000000000
170       0.000000000000
171       0.000000000000
172       0.000000000000
173       0.000000000000
174       0.000000000000
175       0.000000000000
176       0.000000000000
177       0.000000000000
178       0.000000000000
 Sym=     1a
 Ene= -7.05986789169443E-01
Spin= Alpha
 Occup= 1.572577
  1       0.000000000000
  2       0.000000000000
  3       0.000000000000
  4       0.000000000000
  5       0.000000000000
  6       0.000000000000
  7       0.000000000000
  8       0.000000000000
  9       0.000000000000
 10       0.000000000000
 11       0.000000000000
 12       0.000000000000
 13       0.000000000000
 14       0.000000000000
 15       0.000000000000
 16       0.000000000000
 17       0.000000000000
 18       0.000000000000
 19       0.000000000000
 20       0.000000000000
 21       0.000000000000
 22       0.000000000000
 23       0.000000000000
 24       0.000000000000
 25       0.000000000000
 26       0.000000000000
 27       0.000000000000
 28       0.000000000000
 29       0.000000000000
 30       0.000000000000
 31       0.000000000000
 32       0.000000000000
 33       0.000000000000
 34       0.000000000000
 35       0.000000000000
 36       0.000000000000
 37       0.000000000000
 38       0.000000000000
 39       0.000000000000
 40       0.000000000000
 41       0.000000000000
 42       0.000000000000
 43       0.000000000000
 44       0.000000000000
 45       0.000000000000
 46       0.000000000000
 47       0.000000000000
 48       0.000000000000
 49       0.000000000000
 50       0.000000000000
 51       0.000000000000
 52       0.000000000000
 53       0.000000000000
 54       0.000000000000
 55       0.000000000000
 56       0.000000000000
 57       0.000000000000
 58       0.000000000000
 59       0.000000000000
 60       0.000000000000
 61       0.000000000000
 62       0.000000000000
 63       0.091453351628
 64       0.828195354138
 65       0.131927518811
 66       0.000000000000
 67       0.000000000000
 68       0.000000000000
 69       0.000000000000
 70       0.000000000000
 71       0.000000000000
 72       0.000000000000
 73       0.000000000000
 74       0.000000000000
 75       0.000000000000
 76       0.000000000000
 77       0.000000000000
 78       0.000000000000
 79       0.000000000000
 80       0.000000000000
 81       0.000000000000
 82       0.000000000000
 83       0.000000000000
 84       0.000000000000
 85       0.000000000000
 86       0.000000000000
 87       0.000000000000
 88       0.000000000000
 89       0.000000000000
 90       0.000000000000
 91       0.000000000000
 92       0.000000000000
 93       0.000000000000
 94       0.000000000000
 95       0.000000000000
 96       0.000000000000
 97       0.000000000000
 98       0.000000000000
 99       0.000000000000
100       0.000000000000
101       0.000000000000
102       0.000000000000
103       0.000000000000
104       0.000000000000
105       0.000000000000
106       0.000000000000
107       0.000000000000
108       0.000000000000
109       0.000000000000
110       0.000000000000
111       0.000000000000
112       0.000000000000
113       0.000000000000
114       0.000000000000
115       0.000000000000
116       0.000000000000
117       0.000000000000
118       0.000000000000
119       0.000000000000
120       0.000000000000
121       0.000000000000
122       0.000000000000
123       0.000000000000
124       0.000000000000
125       0.000000000000
126       0.000000000000
127       0.000000000000
128       0.000000000000
129       0.000000000000
130       0.000000000000
131       0.000000000000
132       0.000000000000
133       0.000000000000
134       0.000000000000
135       0.000000000000
136       0.000000000000
137       0.000000000000
138       0.000000000000
139       0.000000000000
140       0.000000000000
141       0.000000000000
142       0.000000000000
143       0.000000000000
144       0.000000000000
145       0.000000000000
146       0.000000000000
147       0.000000000000
148       0.000000000000
149       0.000000000000
150       0.000000000000
151       0.000000000000
152       0.000000000000
153       0.000000000000
154       0.000000000000
155       0.000000000000
156       0.000000000000
157       0.000000000000
158       0.000000000000
159       0.000000000000
160       0.000000000000
161       0.000000000000
162       0.000000000000
163       0.000000000000
164       0.000000000000
165       0.000000000000
166       0.000000000000
167       0.000000000000
168       0.000000000000
169       0.000000000000
170       0.000000000000
171       0.000000000000
172       0.000000000000
173       0.000000000000
174       0.000000000000
175       0.000000000000
176       0.000000000000
177       0.000000000000
178       0.000000000000
 Sym=     1a
 Ene=  1.19498976153660E+00
Spin= Alpha
 Occup= 0.117329
  1       0.000000000000
  2       0.000000000000
  3       0.000000000000
  4       0.000000000000
  5       0.000000000000
  6       0.000000000000
  7       0.000000000000
  8       0.000000000000
  9       0.000000000000
 10       0.000000000000
 11       0.000000000000
 12       0.000000000000
 13       0.000000000000
 14       0.000000000000
 15       0.000000000000
 16       0.000000000000
 17       0.000000000000
 18       0.000000000000
 19       0.000000000000
 20       0.000000000000
 21       0.000000000000
 22       0.000000000000
 23       0.000000000000
 24       0.000000000000
 25       0.000000000000
 26       0.000000000000
 27       0.000000000000
 28       0.000000000000
 29       0.000000000000
 30       0.000000000000
 31       0.000000000000
 32       0.000000000000
 33       0.000000000000
 34       0.000000000000
 35       0.000000000000
 36       0.000000000000
 37       0.000000000000
 38       0.000000000000
 39       0.000000000000
 40       0.000000000000
 41       0.000000000000
 42       0.000000000000
 43       0.000000000000
 44       0.000000000000
 45       0.000000000000
 46       0.000000000000
 47       0.000000000000
 48       0.000000000000
 49       0.000000000000
 50       0.000000000000
 51       0.000000000000
 52       0.000000000000
 53       0.000000000000
 54       0.000000000000
 55       0.000000000000
 56       0.000000000000
 57       0.000000000000
 58       0.000000000000
 59       0.000000000000
 60       0.000000000000
 61       0.000000000000
 62       0.000000000000
 63       0.000000000000
 64       0.000000000000
 65       0.000000000000
 66       1.000000000000
 67       0.000000000000
 68       0.000000000000
 69       0.000000000000
 70       0.000000000000
 71       0.000000000000
 72       0.000000000000
 73       0.000000000000
 74       0.000000000000
 75       0.000000000000
 76       0.000000000000
 77       0.000000000000
 78       0.000000000000
 79       0.000000000000
 80       0.000000000000
 81       0.000000000000
 82       0.000000000000
 83       0.000000000000
 84       0.000000000000
 85       0.000000000000
 86       0.000000000000
 87       0.000000000000
 88       0.000000000000
 89       0.000000000000
 90       0.000000000000
 91       0.000000000000
 92       0.000000000000
 93       0.000000000000
 94       0.000000000000
 95       0.000000000000
 96       0.000000000000
 97       0.000000000000
 98       0.000000000000
 99       0.000000000000
100       0.000000000000
101       0.000000000000
102       0.000000000000
103       0.000000000000
104       0.000000000000
105       0.000000000000
106       0.000000000000
107       0.000000000000
108       0.000000000000
109       0.000000000000
110       0.000000000000
111       0.000000000000
112       0.000000000000
113       0.000000000000
114       0.000000000000
115       0.000000000000
116       0.000000000000
117       0.000000000000
118       0.000000000000
119       0.000000000000
120       0.000000000000
121       0.000000000000
122       0.000000000000
123       0.000000000000
124       0.000000000000
125       0.000000000000
126       0.000000000000
127       0.000000000000
128       0.000000000000
129       0.000000000000
130       0.000000000000
131       0.000000000000
132       0.000000000000
133       0.000000000000
134       0.000000000000
135       0.000000000000
136       0.000000000000
137       0.000000000000
138       0.000000000000
139       0.000000000000
140       0.000000000000
141       0.000000000000
142       0.000000000000
143       0.000000000000
144       0.000000000000
145       0.000000000000
146       0.000000000000
147       0.000000000000
148       0.000000000000
149       0.000000000000
150       0.000000000000
151       0.000000000000
152       0.000000000000
153       0.000000000000
154       0.000000000000
155       0.000000000000
156       0.000000000000
157       0.000000000000
158       0.000000000000
159       0.000000000000
160       0.000000000000
161       0.000000000000
162       0.000000000000
163       0.000000000000
164       0.000000000000
165       0.000000000000
166       0.000000000000
167       0.000000000000
168       0.000000000000
169       0.000000000000
170       0.000000000000
171       0.000000000000
172       0.000000000000
173       0.000000000000
174       0.000000000000
175       0.000000000000
176       0.000000000000
177       0.000000000000
178       0.000000000000
 Sym=     1a
 Ene=  8.95361355943207E-01
Spin= Alpha
 Occup= 0.117329
  1       0.000000000000
  2       0.000000000000
  3       0.000000000000
  4       0.000000000000
  5       0.000000000000
  6       0.000000000000
  7       0.000000000000
  8       0.000000000000
  9       0.000000000000
 10       0.000000000000
 11       0.000000000000
 12       0.000000000000
 13       0.000000000000
 14       0.000000000000
 15       0.000000000000
 16       0.000000000000
 17       0.000000000000
 18       0.000000000000
 19       0.000000000000
 20       0.000000000000
 21       0.000000000000
 22       0.000000000000
 23       0.000000000000
 24       0.000000000000
 25       0.000000000000
 26       0.000000000000
 27       0.000000000000
 28       0.000000000000
 29       0.000000000000
 30       0.000000000000
 31       0.000000000000
 32       0.000000000000
 33       0.000000000000
 34       0.000000000000
 35       0.000000000000
 36       0.000000000000
 37       0.000000000000
 38       0.000000000000
 39       0.000000000000
 40       0.000000000000
 41       0.000000000000
 42       0.000000000000
 43       0.000000000000
 44       0.000000000000
 45       0.000000000000
 46       0.000000000000
 47       0.000000000000
 48       0.000000000000
 49       0.000000000000
 50       0.000000000000
 51       0.000000000000
 52       0.000000000000
 53       0.000000000000
 54       0.000000000000
 55       0.000000000000
 56       0.000000000000
 57       0.000000000000
 58       0.000000000000
 59       0.000000000000
 60       0.000000000000
 61       0.000000000000
 62       0.000000000000
 63       0.000000000000
 64       0.000000000000
 65       0.000000000000
 66       0.000000000000
 67       1.000000000000
 68       0.000000000000
 69       0.000000000000
 70       0.000000000000
 71       0.000000000000
 72       0.000000000000
 73       0.000000000000
 74       0.000000000000
 75       0.000000000000
 76       0.000000000000
 77       0.000000000000
 78       0.000000000000
 79       0.000000000000
 80       0.000000000000
 81       0.000000000000
 82       0.000000000000
 83       0.000000000000
 84       0.000000000000
 85       0.000000000000
 86       0.000000000000
 87       0.000000000000
 88       0.000000000000
 89       0.000000000000
 90       0.000000000000
 91       0.000000000000
 92       0.000000000000
 93       0.000000000000
 94       0.000000000000
 95       0.000000000000
 96       0.000000000000
 97       0.000000000000
 98       0.000000000000
 99       0.000000000000
100       0.000000000000
101       0.000000000000
102       0.000000000000
103       0.000000000000
104       0.000000000000
105       0.000000000000
106       0.000000000000
107       0.000000000000
108       0.000000000000
109       0.000000000000
110       0.000000000000
111       0.000000000000
112       0.000000000000
113       0.000000000000
114       0.000000000000
115       0.000000000000
116       0.000000000000
117       0.000000000000
118       0.000000000000
119       0.000000000000
120       0.000000000000
121       0.000000000000
122       0.000000000000
123       0.000000000000
124       0.000000000000
125       0.000000000000
126       0.000000000000
127       0.000000000000
128       0.000000000000
129       0.000000000000
130       0.000000000000
131       0.000000000000
132       0.000000000000
133       0.000000000000
134       0.000000000000
135       0.000000000000
136       0.000000000000
137       0.000000000000
138       0.000000000000
139       0.000000000000
140       0.000000000000
141       0.000000000000
142       0.000000000000
143       0.000000000000
144       0.000000000000
145       0.000000000000
146       0.000000000000
147       0.000000000000
148       0.000000000000
149       0.000000000000
150       0.000000000000
151       0.000000000000
152       0.000000000000
153       0.000000000000
154       0.000000000000
155       0.000000000000
156       0.000000000000
157       0.000000000000
158       0.000000000000
159       0.000000000000
160       0.000000000000
161       0.000000000000
162       0.000000000000
163       0.000000000000
164       0.000000000000
165       0.000000000000
166       0.000000000000
167       0.000000000000
168       0.000000000000
169       0.000000000000
170       0.000000000000
171       0.000000000000
172       0.000000000000
173       0.000000000000
174       0.000000000000
175       0.000000000000
176       0.000000000000
177       0.000000000000
178       0.000000000000
 Sym=     1a
 Ene=  1.18776211849273E+00
Spin= Alpha
 Occup= 0.117329
  1       0.000000000000
  2       0.000000000000
  3       0.000000000000
  4       0.000000000000
  5       0.000000000000
  6       0.000000000000
  7       0.000000000000
  8       0.000000000000
  9       0.000000000000
 10       0.000000000000
 11       0.000000000000
 12       0.000000000000
 13       0.000000000000
 14       0.000000000000
 15       0.000000000000
 16       0.000000000000
 17       0.000000000000
 18       0.000000000000
 19       0.000000000000
 20       0.000000000000
 21       0.000000000000
 22       0.000000000000
 23       0.000000000000
 24       0.000000000000
 25       0.000000000000
 26       0.000000000000
 27       0.000000000000
 28       0.000000000000
 29       0.000000000000
 30       0.000000000000
 31       0.000000000000
 32       0.000000000000
 33       0.000000000000
 34       0.000000000000
 35       0.000000000000
 36       0.000000000000
 37       0.000000000000
 38       0.000000000000
 39       0.000000000000
 40       0.000000000000
 41       0.000000000000
 42       0.000000000000
 43       0.000000000000
 44       0.000000000000
 45       0.000000000000
 46       0.000000000000
 47       0.000000000000
 48       0.000000000000
 49       0.000000000000
 50       0.000000000000
 51       0.000000000000
 52       0.000000000000
 53       0.000000000000
 54       0.000000000000
 55       0.000000000000
 56       0.000000000000
 57       0.000000000000
 58       0.000000000000
 59       0.000000000000
 60       0.000000000000
 61       0.000000000000
 62       0.000000000000
 63       0.000000000000
 64       0.000000000000
 65       0.000000000000
 66       0.000000000000
 67       0.000000000000
 68       1.000000000000
 69       0.000000000000
 70       0.000000000000
 71       0.000000000000
 72       0.000000000000
 73       0.000000000000
 74       0.000000000000
 75       0.000000000000
 76       0.000000000000
 77       0.000000000000
 78       0.000000000000
 79       0.000000000000
 80       0.000000000000
 81       0.000000000000
 82       0.000000000000
 83       0.000000000000
 84       0.000000000000
 85       0.000000000000
 86       0.000000000000
 87       0.000000000000
 88       0.000000000000
 89       0.000000000000
 90       0.000000000000
 91       0.000000000000
 92       0.000000000000
 93       0.000000000000
 94       0.000000000000
 95       0.000000000000
 96       0.000000000000
 97       0.000000000000
 98       0.000000000000
 99       0.000000000000
100       0.000000000000
101       0.000000000000
102       0.000000000000
103       0.000000000000
104       0.000000000000
105       0.000000000000
106       0.000000000000
107       0.000000000000
108       0.000000000000
109       0.000000000000
110       0.000000000000
111       0.000000000000
112       0.000000000000
113       0.000000000000
114       0.000000000000
115       0.000000000000
116       0.000000000000
117       0.000000000000
118       0.000000000000
119       0.000000000000
120       0.000000000000
121       0.000000000000
122       0.000000000000
123       0.000000000000
124       0.000000000000
125       0.000000000000
126       0.000000000000
127       0.000000000000
128       0.000000000000
129       0.000000000000
130       0.000000000000
131       0.000000000000
132       0.000000000000
133       0.000000000000
134       0.000000000000
135       0.000000000000
136       0.000000000000
137       0.000000000000
138       0.000000000000
139       0.000000000000
140       0.000000000000
141       0.000000000000
142       0.000000000000
143       0.000000000000
144       0.000000000000
145       0.000000000000
146       0.000000000000
147       0.000000000000
148       0.000000000000
149       0.000000000000
150       0.000000000000
151       0.000000000000
152       0.000000000000
153       0.000000000000
154       0.000000000000
155       0.000000000000
156       0.000000000000
157       0.000000000000
158       0.000000000000
159       0.000000000000
160       0.000000000000
161       0.000000000000
162       0.000000000000
163       0.000000000000
164       0.000000000000
165       0.000000000000
166       0.000000000000
167       0.000000000000
168       0.000000000000
169       0.000000000000
170       0.000000000000
171       0.000000000000
172       0.000000000000
173       0.000000000000
174       0.000000000000
175       0.000000000000
176       0.000000000000
177       0.000000000000
178       0.000000000000
 Sym=     1a
 Ene=  2.00165441137086E+01
Spin= Alpha
 Occup= 0.000055
  1       0.000000000000
  2       0.000000000000
  3       0.000000000000
  4       0.000000000000
  5       0.000000000000
  6       0.000000000000
  7       0.000000000000
  8       0.000000000000
  9       0.000000000000
 10       0.000000000000
 11       0.000000000000
 12       0.000000000000
 13       0.000000000000
 14       0.000000000000
 15       0.000000000000
 16       0.000000000000
 17       0.000000000000
 18       0.000000000000
 19       0.000000000000
 20       0.000000000000
 21       0.000000000000
 22       0.000000000000
 23       0.000000000000
 24       0.000000000000
 25       0.000000000000
 26       0.000000000000
 27       0.000000000000
 28       0.000000000000
 29       0.000000000000
 30       0.000000000000
 31       0.000000000000
 32       0.000000000000
 33       0.000000000000
 34       0.000000000000
 35       0.000000000000
 36       0.000000000000
 37       0.000000000000
 38       0.000000000000
 39       0.000000000000
 40       0.000000000000
 41       0.000000000000
 42       0.000000000000
 43       0.000000000000
 44       0.000000000000
 45       0.000000000000
 46       0.000000000000
 47       0.000000000000
 48       0.000000000000
 49       0.000000000000
 50       0.000000000000
 51       0.000000000000
 52       0.000000000000
 53       0.000000000000
 54       0.000000000000
 55       0.000000000000
 56       0.000000000000
 57       0.000000000000
 58       0.000000000000
 59       0.000000000000
 60       0.000000000000
 61       0.000000000000
 62       0.000000000000
 63       0.000000000000
 64       0.000000000000
 65       0.000000000000
 66       0.000000000000
 67       0.000000000000
 68       0.000000000000
 69      -1.371446102243
 70       1.507790277065
 71      -0.575277541926
 72       0.213217640033
 73      -0.037927205035
 74       0.000000000000
 75       0.000000000000
 76       0.000000000000
 77       0.000000000000
 78       0.000000000000
 79       0.000000000000
 80       0.000000000000
 81       0.000000000000
 82       0.000000000000
 83       0.000000000000
 84       0.000000000000
 85       0.000000000000
 86       0.000000000000
 87       0.000000000000
 88       0.000000000000
 89       0.000000000000
 90       0.000000000000
 91       0.000000000000
 92       0.000000000000
 93       0.000000000000
 94       0.000000000000
 95       0.000000000000
 96       0.000000000000
 97       0.000000000000
 98       0.000000000000
 99       0.000000000000
100       0.000000000000
101       0.000000000000
102       0.000000000000
103       0.000000000000
104       0.000000000000
105       0.000000000000
106       0.000000000000
107       0.000000000000
108       0.000000000000
109       0.000000000000
110       0.000000000000
111       0.000000000000
112       0.000000000000
113       0.000000000000
114       0.000000000000
115       0.000000000000
116       0.000000000000
117       0.000000000000
118       0.000000000000
119       0.000000000000
120       0.000000000000
121       0.000000000000
122       0.000000000000
123       0.000000000000
124       0.000000000000
125       0.000000000000
126       0.000000000000
127       0.000000000000
128       0.000000000000
129       0.000000000000
130       0.000000000000
131       0.000000000000
132       0.000000000000
133       0.000000000000
134       0.000000000000
135       0.000000000000
136       0.000000000000
137       0.000000000000
138       0.000000000000
139       0.000000000000
140       0.000000000000
141       0.000000000000
142       0.000000000000
143       0.000000000000
144       0.000000000000
145       0.000000000000
146       0.000000000000
147       0.000000000000
148       0.000000000000
149       0.000000000000
150       0.000000000000
151       0.000000000000
152       0.000000000000
153       0.000000000000
154       0.000000000000
155       0.000000000000
156       0.000000000000
157       0.000000000000
158       0.000000000000
159       0.000000000000
160       0.000000000000
161       0.000000000000
162       0.000000000000
163       0.000000000000
164       0.000000000000
165       0.000000000000
166       0.000000000000
167       0.000000000000
168       0.000000000000
169       0.000000000000
170       0.000000000000
171       0.000000000000
172       0.000000000000
173       0.000000000000
174       0.000000000000
175       0.000000000000
176       0.000000000000
177       0.000000000000
178       0.000000000000
 Sym=     1a
 Ene=  1.99150557287027E+00
Spin= Alpha
 Occup= 0.027646
  1       0.000000000000
  2       0.000000000000
  3       0.000000000000
  4       0.000000000000
  5       0.000000000000
  6       0.000000000000
  7       0.000000000000
  8       0.000000000000
  9       0.000000000000
 10       0.000000000000
 11       0.000000000000
 12       0.000000000000
 13       0.000000000000
 14       0.000000000000
 15       0.000000000000
 16       0.000000000000
 17       0.000000000000
 18       0.000000000000
 19       0.000000000000
 20       0.000000000000
 21       0.000000000000
 22       0.000000000000
 23       0.000000000000
 24       0.000000000000
 25       0.000000000000
 26       0.000000000000
 27       0.000000000000
 28       0.000000000000
 29       0.000000000000
 30       0.000000000000
 31       0.000000000000
 32       0.000000000000
 33       0.000000000000
 34       0.000000000000
 35       0.000000000000
 36       0.000000000000
 37       0.000000000000
 38       0.000000000000
 39       0.000000000000
 40       0.000000000000
 41       0.000000000000
 42       0.000000000000
 43       0.000000000000
 44       0.000000000000
 45       0.000000000000
 46       0.000000000000
 47       0.000000000000
 48       0.000000000000
 49       0.000000000000
 50       0.000000000000
 51       0.000000000000
 52       0.000000000000
 53       0.000000000000
 54       0.000000000000
 55       0.000000000000
 56       0.000000000000
 57       0.000000000000
 58       0.000000000000
 59       0.000000000000
 60       0.000000000000
 61       0.000000000000
 62       0.000000000000
 63       0.000000000000
 64       0.000000000000
 65       0.000000000000
 66       0.000000000000
 67       0.000000000000
 68       0.000000000000
 69      -0.172411361955
 70       0.830629440520
 71      -3.019063943992
 72       3.381262174949
 73      -1.156531283403
 74       0.000000000000
 75       0.000000000000
 76       0.000000000000
 77       0.000000000000
 78       0.000000000000
 79       0.000000000000
 80       0.000000000000
 81       0.000000000000
 82       0.000000000000
 83       0.000000000000
 84       0.000000000000
 85       0.000000000000
 86       0.000000000000
 87       0.000000000000
 88       0.000000000000
 89       0.000000000000
 90       0.000000000000
 91       0.000000000000
 92       0.000000000000
 93       0.000000000000
 94       0.000000000000
 95       0.000000000000
 96       0.000000000000
 97       0.000000000000
 98       0.000000000000
 99       0.000000000000
100       0.000000000000
101       0.000000000000
102       0.000000000000
103       0.000000000000
104       0.000000000000
105       0.000000000000
106       0.000000000000
107       0.000000000000
108       0.000000000000
109       0.000000000000
110       0.000000000000
111       0.000000000000
112       0.000000000000
113       0.000000000000
114       0.000000000000
115       0.000000000000
116       0.000000000000
117       0.000000000000
118       0.000000000000
119       0.000000000000
120       0.000000000000
121       0.000000000000
122       0.000000000000
123       0.000000000000
124       0.000000000000
125       0.000000000000
126       0.000000000000
127       0.000000000000
128       0.000000000000
129       0.000000000000
130       0.000000000000
131       0.000000000000
132       0.000000000000
133       0.000000000000
134       0.000000000000
135       0.000000000000
136       0.000000000000
137       0.000000000000
138       0.000000000000
139       0.000000000000
140       0.000000000000
141       0.000000000000
142       0.000000000000
143       0.000000000000
144       0.000000000000
145       0.000000000000
146       0.000000000000
147       0.000000000000
148       0.000000000000
149       0.000000000000
150       0.000000000000
151       0.000000000000
152       0.000000000000
153       0.000000000000
154       0.000000000000
155       0.000000000000
156       0.000000000000
157       0.000000000000
158       0.000000000000
159       0.000000000000
160       0.000000000000
161       0.000000000000
162       0.000000000000
163       0.000000000000
164       0.000000000000
165       0.000000000000
166       0.000000000000
167       0.000000000000
168       0.000000000000
169       0.000000000000
170       0.000000000000
171       0.000000000000
172       0.000000000000
173       0.000000000000
174       0.000000000000
175       0.000000000000
176       0.000000000000
177       0.000000000000
178       0.000000000000
 Sym=     1a
 Ene= -9.34695373577590E-02
Spin= Alpha
 Occup= 0.397950
  1       0.000000000000
  2       0.000000000000
  3       0.000000000000
  4       0.000000000000
  5       0.000000000000
  6       0.000000000000
  7       0.000000000000
  8       0.000000000000
  9       0.000000000000
 10       0.000000000000
 11       0.000000000000
 12       0.000000000000
 13       0.000000000000
 14       0.000000000000
 15       0.000000000000
 16       0.000000000000
 17       0.000000000000
 18       0.000000000000
 19       0.000000000000
 20       0.000000000000
 21       0.000000000000
 22       0.000000000000
 23       0.000000000000
 24       0.000000000000
 25       0.000000000000
 26       0.000000000000
 27       0.000000000000
 28       0.000000000000
 29       0.000000000000
 30       0.000000000000
 31       0.000000000000
 32       0.000000000000
 33       0.000000000000
 34       0.000000000000
 35       0.000000000000
 36       0.000000000000
 37       0.000000000000
 38       0.000000000000
 39       0.000000000000
 40       0.000000000000
 41       0.000000000000
 42       0.000000000000
 43       0.000000000000
 44       0.000000000000
 45       0.000000000000
 46       0.000000000000
 47       0.000000000000
 48       0.000000000000
 49       0.000000000000
 50       0.000000000000
 51       0.000000000000
 52       0.000000000000
 53       0.000000000000
 54       0.000000000000
 55       0.000000000000
 56       0.000000000000
 57       0.000000000000
 58       0.000000000000
 59       0.000000000000
 60       0.000000000000
 61       0.000000000000
 62       0.000000000000
 63       0.000000000000
 64       0.000000000000
 65       0.000000000000
 66       0.000000000000
 67       0.000000000000
 68       0.000000000000
 69       0.083986254722
 70      -0.063049937244
 71       0.818585268635
 72      -2.839888697280
 73       2.440138616943
 74       0.000000000000
 75       0.000000000000
 76       0.000000000000
 77       0.000000000000
 78       0.000000000000
 79       0.000000000000
 80       0.000000000000
 81       0.000000000000
 82       0.000000000000
 83       0.000000000000
 84       0.000000000000
 85       0.000000000000
 86       0.000000000000
 87       0.000000000000
 88       0.000000000000
 89       0.000000000000
 90       0.000000000000
 91       0.000000000000
 92       0.000000000000
 93       0.000000000000
 94       0.000000000000
 95       0.000000000000
 96       0.000000000000
 97       0.000000000000
 98       0.000000000000
 99       0.000000000000
100       0.000000000000
101       0.000000000000
102       0.000000000000
103       0.000000000000
104       0.000000000000
105       0.000000000000
106       0.000000000000
107       0.000000000000
108       0.000000000000
109       0.000000000000
110       0.000000000000
111       0.000000000000
112       0.000000000000
113       0.000000000000
114       0.000000000000
115       0.000000000000
116       0.000000000000
117       0.000000000000
118       0.000000000000
119       0.000000000000
120       0.000000000000
121       0.000000000000
122       0.000000000000
123       0.000000000000
124       0.000000000000
125       0.000000000000
126       0.000000000000
127       0.000000000000
128       0.000000000000
129       0.000000000000
130       0.000000000000
131       0.000000000000
132       0.000000000000
133       0.000000000000
134       0.000000000000
135       0.000000000000
136       0.000000000000
137       0.000000000000
138       0.000000000000
139       0.000000000000
140       0.000000000000
141       0.000000000000
142       0.000000000000
143       0.000000000000
144       0.000000000000
145       0.000000000000
146       0.000000000000
147       0.000000000000
148       0.000000000000
149       0.000000000000
150       0.000000000000
151       0.000000000000
152       0.000000000000
153       0.000000000000
154       0.000000000000
155       0.000000000000
156       0.000000000000
157       0.000000000000
158       0.000000000000
159       0.000000000000
160       0.000000000000
161       0.000000000000
162       0.000000000000
163       0.000000000000
164       0.000000000000
165       0.000000000000
166       0.000000000000
167       0.000000000000
168       0.000000000000
169       0.000000000000
170       0.000000000000
171       0.000000000000
172       0.000000000000
173       0.000000000000
174       0.000000000000
175       0.000000000000
176       0.000000000000
177       0.000000000000
178       0.000000000000
 Sym=     1a
 Ene= -1.02648337943626E+00
Spin= Alpha
 Occup= 1.925437
  1       0.000000000000
  2       0.000000000000
  3       0.000000000000
  4       0.000000000000
  5       0.000000000000
  6       0.000000000000
  7       0.000000000000
  8       0.000000000000
  9       0.000000000000
 10       0.000000000000
 11       0.000000000000
 12       0.000000000000
 13       0.000000000000
 14       0.000000000000
 15       0.000000000000
 16       0.000000000000
 17       0.000000000000
 18       0.000000000000
 19       0.000000000000
 20       0.000000000000
 21       0.000000000000
 22       0.000000000000
 23       0.000000000000
 24       0.000000000000
 25       0.000000000000
 26       0.000000000000
 27       0.000000000000
 28       0.000000000000
 29       0.000000000000
 30       0.000000000000
 31       0.000000000000
 32       0.000000000000
 33       0.000000000000
 34       0.000000000000
 35       0.000000000000
 36       0.000000000000
 37       0.000000000000
 38       0.000000000000
 39       0.000000000000
 40       0.000000000000
 41       0.000000000000
 42       0.000000000000
 43       0.000000000000
 44       0.000000000000
 45       0.000000000000
 46       0.000000000000
 47       0.000000000000
 48       0.000000000000
 49       0.000000000000
 50       0.000000000000
 51       0.000000000000
 52       0.000000000000
 53       0.000000000000
 54       0.000000000000
 55       0.000000000000
 56       0.000000000000
 57       0.000000000000
 58       0.000000000000
 59       0.000000000000
 60       0.000000000000
 61       0.000000000000
 62       0.000000000000
 63       0.000000000000
 64       0.000000000000
 65       0.000000000000
 66       0.000000000000
 67       0.000000000000
 68       0.000000000000
 69       0.099342234719
 70       0.184132216044
 71      -0.087904110966
 72      -0.873146193093
 73      -0.099150211777
 74       0.000000000000
 75       0.000000000000
 76       0.000000000000
 77       0.000000000000
 78       0.000000000000
 79       0.000000000000
 80       0.000000000000
 81       0.000000000000
 82       0.000000000000
 83       0.000000000000
 84       0.000000000000
 85       0.000000000000
 86       0.000000000000
 87       0.000000000000
 88       0.000000000000
 89       0.000000000000
 90       0.000000000000
 91       0.000000000000
 92       0.000000000000
 93       0.000000000000
 94       0.000000000000
 95       0.000000000000
 96       0.000000000000
 97       0.000000000000
 98       0.000000000000
 99       0.000000000000
100       0.000000000000
101       0.000000000000
102       0.000000000000
103       0.000000000000
104       0.000000000000
105       0.000000000000
106       0.000000000000
107       0.000000000000
108       0.000000000000
109       0.000000000000
110       0.000000000000
111       0.000000000000
112       0.000000000000
113       0.000000000000
114       0.000000000000
115       0.000000000000
116       0.000000000000
117       0.000000000000
118       0.000000000000
119       0.000000000000
120       0.000000000000
121       0.000000000000
122       0.000000000000
123       0.000000000000
124       0.000000000000
125       0.000000000000
126       0.000000000000
127       0.000000000000
128       0.000000000000
129       0.000000000000
130       0.000000000000
131       0.000000000000
132       0.000000000000
133       0.000000000000
134       0.000000000000
135       0.000000000000
136       0.000000000000
137       0.000000000000
138       0.000000000000
139       0.000000000000
140       0.000000000000
141       0.000000000000
142       0.000000000000
143       0.000000000000
144       0.000000000000
145       0.000000000000
146       0.000000000000
147       0.000000000000
148       0.000000000000
149       0.000000000000
150       0.000000000000
151       0.000000000000
152       0.000000000000
153       0.000000000000
154       0.000000000000
155       0.000000000000
156       0.000000000000
157       0.000000000000
158       0.000000000000
159       0.000000000000
160       0.000000000000
161       0.000000000000
162       0.000000000000
163       0.000000000000
164       0.000000000000
165       0.000000000000
166       0.000000000000
167       0.000000000000
168       0.000000000000
169       0.000000000000
170       0.000000000000
171       0.000000000000
172       0.000000000000
173       0.000000000000
174       0.000000000000
175       0.000000000000
176       0.000000000000
177       0.000000000000
178       0.000000000000
 Sym=     1a
 Ene= -1.04895308146742E+01
Spin= Alpha
 Occup= 1.999989
  1       0.000000000000
  2       0.000000000000
  3       0.000000000000
  4       0.000000000000
  5       0.000000000000
  6       0.000000000000
  7       0.000000000000
  8       0.000000000000
  9       0.000000000000
 10       0.000000000000
 11       0.000000000000
 12       0.000000000000
 13       0.000000000000
 14       0.000000000000
 15       0.000000000000
 16       0.000000000000
 17       0.000000000000
 18       0.000000000000
 19       0.000000000000
 20       0.000000000000
 21       0.000000000000
 22       0.000000000000
 23       0.000000000000
 24       0.000000000000
 25       0.000000000000
 26       0.000000000000
 27       0.000000000000
 28       0.000000000000
 29       0.000000000000
 30       0.000000000000
 31       0.000000000000
 32       0.000000000000
 33       0.000000000000
 34       0.000000000000
 35       0.000000000000
 36       0.000000000000
 37       0.000000000000
 38       0.000000000000
 39       0.000000000000
 40       0.000000000000
 41       0.000000000000
 42       0.000000000000
 43       0.000000000000
 44       0.000000000000
 45       0.000000000000
 46       0.000000000000
 47       0.000000000000
 48       0.000000000000
 49       0.000000000000
 50       0.000000000000
 51       0.000000000000
 52       0.000000000000
 53       0.000000000000
 54       0.000000000000
 55       0.000000000000
 56       0.000000000000
 57       0.000000000000
 58       0.000000000000
 59       0.000000000000
 60       0.000000000000
 61       0.000000000000
 62       0.000000000000
 63       0.000000000000
 64       0.000000000000
 65       0.000000000000
 66       0.000000000000
 67       0.000000000000
 68       0.000000000000
 69       0.467321254010
 70       0.609873250787
 71       0.031273868928
 72      -0.018872277739
 73       0.005871763626
 74       0.000000000000
 75       0.000000000000
 76       0.000000000000
 77       0.000000000000
 78       0.000000000000
 79       0.000000000000
 80       0.000000000000
 81       0.000000000000
 82       0.000000000000
 83       0.000000000000
 84       0.000000000000
 85       0.000000000000
 86       0.000000000000
 87       0.000000000000
 88       0.000000000000
 89       0.000000000000
 90       0.000000000000
 91       0.000000000000
 92       0.000000000000
 93       0.000000000000
 94       0.000000000000
 95       0.000000000000
 96       0.000000000000
 97       0.000000000000
 98       0.000000000000
 99       0.000000000000
100       0.000000000000
101       0.000000000000
102       0.000000000000
103       0.000000000000
104       0.000000000000
105       0.000000000000
106       0.000000000000
107       0.000000000000
108       0.000000000000
109       0.000000000000
110       0.000000000000
111       0.000000000000
112       0.000000000000
113       0.000000000000
114       0.000000000000
115       0.000000000000
116       0.000000000000
117       0.000000000000
118       0.000000000000
119       0.000000000000
120       0.000000000000
121       0.000000000000
122       0.000000000000
123       0.000000000000
124       0.000000000000
125       0.000000000000
126       0.000000000000
127       0.000000000000
128       0.000000000000
129       0.000000000000
130       0.000000000000
131       0.000000000000
132       0.000000000000
133       0.000000000000
134       0.000000000000
135       0.000000000000
136       0.000000000000
137       0.000000000000
138       0.000000000000
139       0.000000000000
140       0.000000000000
141       0.000000000000
142       0.000000000000
143       0.000000000000
144       0.000000000000
145       0.000000000000
146       0.000000000000
147       0.000000000000
148       0.000000000000
149       0.000000000000
150       0.000000000000
151       0.000000000000
152       0.000000000000
153       0.000000000000
154       0.000000000000
155       0.000000000000
156       0.000000000000
157       0.000000000000
158       0.000000000000
159       0.000000000000
160       0.000000000000
161       0.000000000000
162       0.000000000000
163       0.000000000000
164       0.000000000000
165       0.000000000000
166       0.000000000000
167       0.000000000000
168       0.000000000000
169       0.000000000000
170       0.000000000000
171       0.000000000000
172       0.000000000000
173       0.000000000000
174       0.000000000000
175       0.000000000000
176       0.000000000000
177       0.000000000000
178       0.000000000000
 Sym=     1a
 Ene=  1.06259470893271E+00
Spin= Alpha
 Occup= 0.015770
  1       0.000000000000
  2       0.000000000000
  3       0.000000000000
  4       0.000000000000
  5       0.000000000000
  6       0.000000000000
  7       0.000000000000
  8       0.000000000000
  9       0.000000000000
 10       0.000000000000
 11       0.000000000000
 12       0.000000000000
 13       0.000000000000
 14       0.000000000000
 15       0.000000000000
 16       0.000000000000
 17       0.000000000000
 18       0.000000000000
 19       0.000000000000
 20       0.000000000000
 21       0.000000000000
 22       0.000000000000
 23       0.000000000000
 24       0.000000000000
 25       0.000000000000
 26       0.000000000000
 27       0.000000000000
 28       0.000000000000
 29       0.000000000000
 30       0.000000000000
 31       0.000000000000
 32       0.000000000000
 33       0.000000000000
 34       0.000000000000
 35       0.000000000000
 36       0.000000000000
 37       0.000000000000
 38       0.000000000000
 39       0.000000000000
 40       0.000000000000
 41       0.000000000000
 42       0.000000000000
 43       0.000000000000
 44       0.000000000000
 45       0.000000000000
 46       0.000000000000
 47       0.000000000000
 48       0.000000000000
 49       0.000000000000
 50       0.000000000000
 51       0.000000000000
 52       0.000000000000
 53       0.000000000000
 54       0.000000000000
 55       0.000000000000
 56       0.000000000000
 57       0.000000000000
 58       0.000000000000
 59       0.000000000000
 60       0.000000000000
 61       0.000000000000
 62       0.000000000000
 63       0.000000000000
 64       0.000000000000
 65       0.000000000000
 66       0.000000000000
 67       0.000000000000
 68       0.000000000000
 69       0.000000000000
 70       0.000000000000
 71       0.000000000000
 72       0.000000000000
 73       0.000000000000
 74      -1.345059767178
 75       0.000000000000
 76       0.000000000000
 77       1.331434904011
 78       0.000000000000
 79       0.000000000000
 80      -0.431620304702
 81       0.000000000000
 82       0.000000000000
 83       0.000000000000
 84       0.000000000000
 85       0.000000000000
 86       0.000000000000
 87       0.000000000000
 88       0.000000000000
 89       0.000000000000
 90       0.000000000000
 91       0.000000000000
 92       0.000000000000
 93       0.000000000000
 94       0.000000000000
 95       0.000000000000
 96       0.000000000000
 97       0.000000000000
 98       0.000000000000
 99       0.000000000000
100       0.000000000000
101       0.000000000000
102       0.000000000000
103       0.000000000000
104       0.000000000000
105       0.000000000000
106       0.000000000000
107       0.000000000000
108       0.000000000000
109       0.000000000000
110       0.000000000000
111       0.000000000000
112       0.000000000000
113       0.000000000000
114       0.000000000000
115       0.000000000000
116       0.000000000000
117       0.000000000000
118       0.000000000000
119       0.000000000000
120       0.000000000000
121       0.000000000000
122       0.000000000000
123       0.000000000000
124       0.000000000000
125       0.000000000000
126       0.000000000000
127       0.000000000000
128       0.000000000000
129       0.000000000000
130       0.000000000000
131       0.000000000000
132       0.000000000000
133       0.000000000000
134       0.000000000000
135       0.000000000000
136       0.000000000000
137       0.000000000000
138       0.000000000000
139       0.000000000000
140       0.000000000000
141       0.000000000000
142       0.000000000000
143       0.000000000000
144       0.000000000000
145       0.000000000000
146       0.000000000000
147       0.000000000000
148       0.000000000000
149       0.000000000000
150       0.000000000000
151       0.000000000000
152       0.000000000000
153       0.000000000000
154       0.000000000000
155       0.000000000000
156       0.000000000000
157       0.000000000000
158       0.000000000000
159       0.000000000000
160       0.000000000000
161       0.000000000000
162       0.000000000000
163       0.000000000000
164       0.000000000000
165       0.000000000000
166       0.000000000000
167       0.000000000000
168       0.000000000000
169       0.000000000000
170       0.000000000000
171       0.000000000000
172       0.000000000000
173       0.000000000000
174       0.000000000000
175       0.000000000000
176       0.000000000000
177       0.000000000000
178       0.000000000000
 Sym=     1a
 Ene=  1.13192244232313E+00
Spin= Alpha
 Occup= 0.015770
  1       0.000000000000
  2       0.000000000000
  3       0.000000000000
  4       0.000000000000
  5       0.000000000000
  6       0.000000000000
  7       0.000000000000
  8       0.000000000000
  9       0.000000000000
 10       0.000000000000
 11       0.000000000000
 12       0.000000000000
 13       0.000000000000
 14       0.000000000000
 15       0.000000000000
 16       0.000000000000
 17       0.000000000000
 18       0.000000000000
 19       0.000000000000
 20       0.000000000000
 21       0.000000000000
 22       0.000000000000
 23       0.000000000000
 24       0.000000000000
 25       0.000000000000
 26       0.000000000000
 27       0.000000000000
 28       0.000000000000
 29       0.000000000000
 30       0.000000000000
 31       0.000000000000
 32       0.000000000000
 33       0.000000000000
 34       0.000000000000
 35       0.000000000000
 36       0.000000000000
 37       0.000000000000
 38       0.000000000000
 39       0.000000000000
 40       0.000000000000
 41       0.000000000000
 42       0.000000000000
 43       0.000000000000
 44       0.000000000000
 45       0.000000000000
 46       0.000000000000
 47       0.000000000000
 48       0.000000000000
 49       0.000000000000
 50       0.000000000000
 51       0.000000000000
 52       0.000000000000
 53       0.000000000000
 54       0.000000000000
 55       0.000000000000
 56       0.000000000000
 57       0.000000000000
 58       0.000000000000
 59       0.000000000000
 60       0.000000000000
 61       0.000000000000
 62       0.000000000000
 63       0.000000000000
 64       0.000000000000
 65       0.000000000000
 66       0.000000000000
 67       0.000000000000
 68       0.000000000000
 69       0.000000000000
 70       0.000000000000
 71       0.000000000000
 72       0.000000000000
 73       0.000000000000
 74       0.000000000000
 75      -1.345059767178
 76       0.000000000000
 77       0.000000000000
 78       1.331434904011
 79       0.000000000000
 80       0.000000000000
 81      -0.431620304702
 82       0.000000000000
 83       0.000000000000
 84       0.000000000000
 85       0.000000000000
 86       0.000000000000
 87       0.000000000000
 88       0.000000000000
 89       0.000000000000
 90       0.000000000000
 91       0.000000000000
 92       0.000000000000
 93       0.000000000000
 94       0.000000000000
 95       0.000000000000
 96       0.000000000000
 97       0.000000000000
 98       0.000000000000
 99       0.000000000000
100       0.000000000000
101       0.000000000000
102       0.000000000000
103       0.000000000000
104       0.000000000000
105       0.000000000000
106       0.000000000000
107       0.000000000000
108       0.000000000000
109       0.000000000000
110       0.000000000000
111       0.000000000000
112       0.000000000000
113       0.000000000000
114       0.000000000000
115       0.000000000000
116       0.000000000000
117       0.000000000000
118       0.000000000000
119       0.000000000000
120       0.000000000000
121       0.000000000000
122       0.000000000000
123       0.000000000000
124       0.000000000000
125       0.000000000000
126       0.000000000000
127       0.000000000000
128       0.000000000000
129       0.000000000000
130       0.000000000000
131       0.000000000000
132       0.000000000000
133       0.000000000000
134       0.000000000000
135       0.000000000000
136       0.000000000000
137       0.000000000000
138       0.000000000000
139       0.000000000000
140       0.000000000000
141       0.000000000000
142       0.000000000000
143       0.000000000000
144       0.000000000000
145       0.000000000000
146       0.000000000000
147       0.000000000000
148       0.000000000000
149       0.000000000000
150       0.000000000000
151       0.000000000000
152       0.000000000000
153       0.000000000000
154       0.000000000000
155       0.000000000000
156       0.000000000000
157       0.000000000000
158       0.000000000000
159       0.000000000000
160       0.000000000000
161       0.000000000000
162       0.000000000000
163       0.000000000000
164       0.000000000000
165       0.000000000000
166       0.000000000000
167       0.000000000000
168       0.000000000000
169       0.000000000000
170       0.000000000000
171       0.000000000000
172       0.000000000000
173       0.000000000000
174       0.000000000000
175       0.000000000000
176       0.000000000000
177       0.000000000000
178       0.000000000000
 Sym=     1a
 Ene=  1.11791831282925E+00
Spin= Alpha
 Occup= 0.015770
  1       0.000000000000
  2       0.000000000000
  3       0.000000000000
  4       0.000000000000
  5       0.000000000000
  6       0.000000000000
  7       0.000000000000
  8       0.000000000000
  9       0.000000000000
 10       0.000000000000
 11       0.000000000000
 12       0.000000000000
 13       0.000000000000
 14       0.000000000000
 15       0.000000000000
 16       0.000000000000
 17       0.000000000000
 18       0.000000000000
 19       0.000000000000
 20       0.000000000000
 21       0.000000000000
 22       0.000000000000
 23       0.000000000000
 24       0.000000000000
 25       0.000000000000
 26       0.000000000000
 27       0.000000000000
 28       0.000000000000
 29       0.000000000000
 30       0.000000000000
 31       0.000000000000
 32       0.000000000000
 33       0.000000000000
 34       0.000000000000
 35       0.000000000000
 36       0.000000000000
 37       0.000000000000
 38       0.000000000000
 39       0.000000000000
 40       0.000000000000
 41       0.000000000000
 42       0.000000000000
 43       0.000000000000
 44       0.000000000000
 45       0.000000000000
 46       0.000000000000
 47       0.000000000000
 48       0.000000000000
 49       0.000000000000
 50       0.000000000000
 51       0.000000000000
 52       0.000000000000
 53       0.000000000000
 54       0.000000000000
 55       0.000000000000
 56       0.000000000000
 57       0.000000000000
 58       0.000000000000
 59       0.000000000000
 60       0.000000000000
 61       0.000000000000
 62       0.000000000000
 63       0.000000000000
 64       0.000000000000
 65       0.000000000000
 66       0.000000000000
 67       0.000000000000
 68       0.000000000000
 69       0.000000000000
 70       0.000000000000
 71       0.000000000000
 72       0.000000000000
 73       0.000000000000
 74       0.000000000000
 75       0.000000000000
 76      -1.345059767178
 77       0.000000000000
 78       0.000000000000
 79       1.331434904011
 80       0.000000000000
 81       0.000000000000
 82      -0.431620304702
 83       0.000000000000
 84       0.000000000000
 85       0.000000000000
 86       0.000000000000
 87       0.000000000000
 88       0.000000000000
 89       0.000000000000
 90       0.000000000000
 91       0.000000000000
 92       0.000000000000
 93       0.000000000000
 94       0.000000000000
 95       0.000000000000
 96       0.000000000000
 97       0.000000000000
 98       0.000000000000
 99       0.000000000000
100       0.000000000000
101       0.000000000000
102       0.000000000000
103       0.000000000000
104       0.000000000000
105       0.000000000000
106       0.000000000000
107       0.000000000000
108       0.000000000000
109       0.000000000000
110       0.000000000000
111       0.000000000000
112       0.000000000000
113       0.000000000000
114       0.000000000000
115       0.000000000000
116       0.000000000000
117       0.000000000000
118       0.000000000000
119       0.000000000000
120       0.000000000000
121       0.000000000000
122       0.000000000000
123       0.000000000000
124       0.000000000000
125       0.000000000000
126       0.000000000000
127       0.000000000000
128       0.000000000000
129       0.000000000000
130       0.000000000000
131       0.000000000000
132       0.000000000000
133       0.000000000000
134       0.000000000000
135       0.000000000000
136       0.000000000000
137       0.000000000000
138       0.000000000000
139       0.000000000000
140       0.000000000000
141       0.000000000000
142       0.000000000000
143       0.000000000000
144       0.000000000000
145       0.000000000000
146       0.000000000000
147       0.000000000000
148       0.000000000000
149       0.000000000000
150       0.000000000000
151       0.000000000000
152       0.000000000000
153       0.000000000000
154       0.000000000000
155       0.000000000000
156       0.000000000000
157       0.000000000000
158       0.000000000000
159       0.000000000000
160       0.000000000000
161       0.000000000000
162       0.000000000000
163       0.000000000000
164       0.000000000000
165       0.000000000000
166       0.000000000000
167       0.000000000000
168       0.000000000000
169       0.000000000000
170       0.000000000000
171       0.000000000000
172       0.000000000000
173       0.000000000000
174       0.000000000000
175       0.000000000000
176       0.000000000000
177       0.000000000000
178       0.000000000000
 Sym=     1a
 Ene= -1.48784282563803E-01
Spin= Alpha
 Occup= 0.331293
  1       0.000000000000
  2       0.000000000000
  3       0.000000000000
  4       0.000000000000
  5       0.000000000000
  6       0.000000000000
  7       0.000000000000
  8       0.000000000000
  9       0.000000000000
 10       0.000000000000
 11       0.000000000000
 12       0.000000000000
 13       0.000000000000
 14       0.000000000000
 15       0.000000000000
 16       0.000000000000
 17       0.000000000000
 18       0.000000000000
 19       0.000000000000
 20       0.000000000000
 21       0.000000000000
 22       0.000000000000
 23       0.000000000000
 24       0.000000000000
 25       0.000000000000
 26       0.000000000000
 27       0.000000000000
 28       0.000000000000
 29       0.000000000000
 30       0.000000000000
 31       0.000000000000
 32       0.000000000000
 33       0.000000000000
 34       0.000000000000
 35       0.000000000000
 36       0.000000000000
 37       0.000000000000
 38       0.000000000000
 39       0.000000000000
 40       0.000000000000
 41       0.000000000000
 42       0.000000000000
 43       0.000000000000
 44       0.000000000000
 45       0.000000000000
 46       0.000000000000
 47       0.000000000000
 48       0.000000000000
 49       0.000000000000
 50       0.000000000000
 51       0.000000000000
 52       0.000000000000
 53       0.000000000000
 54       0.000000000000
 55       0.000000000000
 56       0.000000000000
 57       0.000000000000
 58       0.000000000000
 59       0.000000000000
 60       0.000000000000
 61       0.000000000000
 62       0.000000000000
 63       0.000000000000
 64       0.000000000000
 65       0.000000000000
 66       0.000000000000
 67       0.000000000000
 68       0.000000000000
 69       0.000000000000
 70       0.000000000000
 71       0.000000000000
 72       0.000000000000
 73       0.000000000000
 74       0.074826022268
 75       0.000000000000
 76       0.000000000000
 77      -1.178353310815
 78       0.000000000000
 79       0.000000000000
 80       1.456154417868
 81       0.000000000000
 82       0.000000000000
 83       0.000000000000
 84       0.000000000000
 85       0.000000000000
 86       0.000000000000
 87       0.000000000000
 88       0.000000000000
 89       0.000000000000
 90       0.000000000000
 91       0.000000000000
 92       0.000000000000
 93       0.000000000000
 94       0.000000000000
 95       0.000000000000
 96       0.000000000000
 97       0.000000000000
 98       0.000000000000
 99       0.000000000000
100       0.000000000000
101       0.000000000000
102       0.000000000000
103       0.000000000000
104       0.000000000000
105       0.000000000000
106       0.000000000000
107       0.000000000000
108       0.000000000000
109       0.000000000000
110       0.000000000000
111       0.000000000000
112       0.000000000000
113       0.000000000000
114       0.000000000000
115       0.000000000000
116       0.000000000000
117       0.000000000000
118       0.000000000000
119       0.000000000000
120       0.000000000000
121       0.000000000000
122       0.000000000000
123       0.000000000000
124       0.000000000000
125       0.000000000000
126       0.000000000000
127       0.000000000000
128       0.000000000000
129       0.000000000000
130       0.000000000000
131       0.000000000000
132       0.000000000000
133       0.000000000000
134       0.000000000000
135       0.000000000000
136       0.000000000000
137       0.000000000000
138       0.000000000000
139       0.000000000000
140       0.000000000000
141       0.000000000000
142       0.000000000000
143       0.000000000000
144       0.000000000000
145       0.000000000000
146       0.000000000000
147       0.000000000000
148       0.000000000000
149       0.000000000000
150       0.000000000000
151       0.000000000000
152       0.000000000000
153       0.000000000000
154       0.000000000000
155       0.000000000000
156       0.000000000000
157       0.000000000000
158       0.000000000000
159       0.000000000000
160       0.000000000000
161       0.000000000000
162       0.000000000000
163       0.000000000000
164       0.000000000000
165       0.000000000000
166       0.000000000000
167       0.000000000000
168       0.000000000000
169       0.000000000000
170       0.000000000000
171       0.000000000000
172       0.000000000000
173       0.000000000000
174       0.000000000000
175       0.000000000000
176       0.000000000000
177       0.000000000000
178       0.000000000000
 Sym=     1a
 Ene=  9.93177123454085E-02
Spin= Alpha
 Occup= 0.331293
  1       0.000000000000
  2       0.000000000000
  3       0.000000000000
  4       0.000000000000
  5       0.000000000000
  6       0.000000000000
  7       0.000000000000
  8       0.000000000000
  9       0.000000000000
 10       0.000000000000
 11       0.000000000000
 12       0.000000000000
 13       0.000000000000
 14       0.000000000000
 15       0.000000000000
 16       0.000000000000
 17       0.000000000000
 18       0.000000000000
 19       0.000000000000
 20       0.000000000000
 21       0.000000000000
 22       0.000000000000
 23       0.000000000000
 24       0.000000000000
 25       0.000000000000
 26       0.000000000000
 27       0.000000000000
 28       0.000000000000
 29       0.000000000000
 30       0.000000000000
 31       0.000000000000
 32       0.000000000000
 33       0.000000000000
 34       0.000000000000
 35       0.000000000000
 36       0.000000000000
 37       0.000000000000
 38       0.000000000000
 39       0.000000000000
 40       0.000000000000
 41       0.000000000000
 42       0.000000000000
 43       0.000000000000
 44       0.000000000000
 45       0.000000000000
 46       0.000000000000
 47       0.000000000000
 48       0.000000000000
 49       0.000000000000
 50       0.000000000000
 51       0.000000000000
 52       0.000000000000
 53       0.000000000000
 54       0.000000000000
 55       0.000000000000
 56       0.000000000000
 57       0.000000000000
 58       0.000000000000
 59       0.000000000000
 60       0.000000000000
 61       0.000000000000
 62       0.000000000000
 63       0.000000000000
 64       0.000000000000
 65       0.000000000000
 66       0.000000000000
 67       0.000000000000
 68       0.000000000000
 69       0.000000000000
 70       0.000000000000
 71       0.000000000000
 72       0.000000000000
 73       0.000000000000
 74       0.000000000000
 75       0.074826022268
 76       0.000000000000
 77       0.000000000000
 78      -1.178353310815
 79       0.000000000000
 80       0.000000000000
 81       1.456154417868
 82       0.000000000000
 83       0.000000000000
 84       0.000000000000
 85       0.000000000000
 86       0.000000000000
 87       0.000000000000
 88       0.000000000000
 89       0.000000000000
 90       0.000000000000
 91       0.000000000000
 92       0.000000000000
 93       0.000000000000
 94       0.000000000000
 95       0.000000000000
 96       0.000000000000
 97       0.000000000000
 98       0.000000000000
 99       0.000000000000
100       0.000000000000
101       0.000000000000
102       0.000000000000
103       0.000000000000
104       0.000000000000
105       0.000000000000
106       0.000000000000
107       0.000000000000
108       0.000000000000
109       0.000000000000
110       0.000000000000
111       0.000000000000
112       0.000000000000
113       0.000000000000
114       0.000000000000
115       0.000000000000
116       0.000000000000
117       0.000000000000
118       0.000000000000
119       0.000000000000
120       0.000000000000
121       0.000000000000
122       0.000000000000
123       0.000000000000
124       0.000000000000
125       0.000000000000
126       0.000000000000
127       0.000000000000
128       0.000000000000
129       0.000000000000
130       0.000000000000
131       0.000000000000
132       0.000000000000
133       0.000000000000
134       0.000000000000
135       0.000000000000
136       0.000000000000
137       0.000000000000
138       0.000000000000
139       0.000000000000
140       0.000000000000
141       0.000000000000
142       0.000000000000
143       0.000000000000
144       0.000000000000
145       0.000000000000
146       0.000000000000
147       0.000000000000
148       0.000000000000
149       0.000000000000
150       0.000000000000
151       0.000000000000
152       0.000000000000
153       0.000000000000
154       0.000000000000
155       0.000000000000
156       0.000000000000
157       0.000000000000
158       0.000000000000
159       0.000000000000
160       0.000000000000
161       0.000000000000
162       0.000000000000
163       0.000000000000
164       0.000000000000
165       0.000000000000
166       0.000000000000
167       0.000000000000
168       0.000000000000
169       0.000000000000
170       0.000000000000
171       0.000000000000
172       0.000000000000
173       0.000000000000
174       0.000000000000
175       0.000000000000
176       0.000000000000
177       0.000000000000
178       0.000000000000
 Sym=     1a
 Ene=  1.00436465992400E-02
Spin= Alpha
 Occup= 0.331293
  1       0.000000000000
  2       0.000000000000
  3       0.000000000000
  4       0.000000000000
  5       0.000000000000
  6       0.000000000000
  7       0.000000000000
  8       0.000000000000
  9       0.000000000000
 10       0.000000000000
 11       0.000000000000
 12       0.000000000000
 13       0.000000000000
 14       0.000000000000
 15       0.000000000000
 16       0.000000000000
 17       0.000000000000
 18       0.000000000000
 19       0.000000000000
 20       0.000000000000
 21       0.000000000000
 22       0.000000000000
 23       0.000000000000
 24       0.000000000000
 25       0.000000000000
 26       0.000000000000
 27       0.000000000000
 28       0.000000000000
 29       0.000000000000
 30       0.000000000000
 31       0.000000000000
 32       0.000000000000
 33       0.000000000000
 34       0.000000000000
 35       0.000000000000
 36       0.000000000000
 37       0.000000000000
 38       0.000000000000
 39       0.000000000000
 40       0.000000000000
 41       0.000000000000
 42       0.000000000000
 43       0.000000000000
 44       0.000000000000
 45       0.000000000000
 46       0.000000000000
 47       0.000000000000
 48       0.000000000000
 49       0.000000000000
 50       0.000000000000
 51       0.000000000000
 52       0.000000000000
 53       0.000000000000
 54       0.000000000000
 55       0.000000000000
 56       0.000000000000
 57       0.000000000000
 58       0.000000000000
 59       0.000000000000
 60       0.000000000000
 61       0.000000000000
 62       0.000000000000
 63       0.000000000000
 64       0.000000000000
 65       0.000000000000
 66       0.000000000000
 67       0.000000000000
 68       0.000000000000
 69       0.000000000000
 70       0.000000000000
 71       0.000000000000
 72       0.000000000000
 73       0.000000000000
 74       0.000000000000
 75       0.000000000000
 76       0.074826022268
 77       0.000000000000
 78       0.000000000000
 79      -1.178353310815
 80       0.000000000000
 81       0.000000000000
 82       1.456154417868
 83       0.000000000000
 84       0.000000000000
 85       0.000000000000
 86       0.000000000000
 87       0.000000000000
 88       0.000000000000
 89       0.000000000000
 90       0.000000000000
 91       0.000000000000
 92       0.000000000000
 93       0.000000000000
 94       0.000000000000
 95       0.000000000000
 96       0.000000000000
 97       0.000000000000
 98       0.000000000000
 99       0.000000000000
100       0.000000000000
101       0.000000000000
102       0.000000000000
103       0.000000000000
104       0.000000000000
105       0.000000000000
106       0.000000000000
107       0.000000000000
108       0.000000000000
109       0.000000000000
110       0.000000000000
111       0.000000000000
112       0.000000000000
113       0.000000000000
114       0.000000000000
115       0.000000000000
116       0.000000000000
117       0.000000000000
118       0.000000000000
119       0.000000000000
120       0.000000000000
121       0.000000000000
122       0.000000000000
123       0.000000000000
124       0.000000000000
125       0.000000000000
126       0.000000000000
127       0.000000000000
128       0.000000000000
129       0.000000000000
130       0.000000000000
131       0.000000000000
132       0.000000000000
133       0.000000000000
134       0.000000000000
135       0.000000000000
136       0.000000000000
137       0.000000000000
138       0.000000000000
139       0.000000000000
140       0.000000000000
141       0.000000000000
142       0.000000000000
143       0.000000000000
144       0.000000000000
145       0.000000000000
146       0.000000000000
147       0.000000000000
148       0.000000000000
149       0.000000000000
150       0.000000000000
151       0.000000000000
152       0.000000000000
153       0.000000000000
154       0.000000000000
155       0.000000000000
156       0.000000000000
157       0.000000000000
158       0.000000000000
159       0.000000000000
160       0.000000000000
161       0.000000000000
162       0.000000000000
163       0.000000000000
164       0.000000000000
165       0.000000000000
166       0.000000000000
167       0.000000000000
168       0.000000000000
169       0.000000000000
170       0.000000000000
171       0.000000000000
172       0.000000000000
173       0.000000000000
174       0.000000000000
175       0.000000000000
176       0.000000000000
177       0.000000000000
178       0.000000000000
 Sym=     1a
 Ene= -7.20285460184097E-01
Spin= Alpha
 Occup= 1.767298
  1       0.000000000000
  2       0.000000000000
  3       0.000000000000
  4       0.000000000000
  5       0.000000000000
  6       0.000000000000
  7       0.000000000000
  8       0.000000000000
  9       0.000000000000
 10       0.000000000000
 11       0.000000000000
 12       0.000000000000
 13       0.000000000000
 14       0.000000000000
 15       0.000000000000
 16       0.000000000000
 17       0.000000000000
 18       0.000000000000
 19       0.000000000000
 20       0.000000000000
 21       0.000000000000
 22       0.000000000000
 23       0.000000000000
 24       0.000000000000
 25       0.000000000000
 26       0.000000000000
 27       0.000000000000
 28       0.000000000000
 29       0.000000000000
 30       0.000000000000
 31       0.000000000000
 32       0.000000000000
 33       0.000000000000
 34       0.000000000000
 35       0.000000000000
 36       0.000000000000
 37       0.000000000000
 38       0.000000000000
 39       0.000000000000
 40       0.000000000000
 41       0.000000000000
 42       0.000000000000
 43       0.000000000000
 44       0.000000000000
 45       0.000000000000
 46       0.000000000000
 47       0.000000000000
 48       0.000000000000
 49       0.000000000000
 50       0.000000000000
 51       0.000000000000
 52       0.000000000000
 53       0.000000000000
 54       0.000000000000
 55       0.000000000000
 56       0.000000000000
 57       0.000000000000
 58       0.000000000000
 59       0.000000000000
 60       0.000000000000
 61       0.000000000000
 62       0.000000000000
 63       0.000000000000
 64       0.000000000000
 65       0.000000000000
 66       0.000000000000
 67       0.000000000000
 68       0.000000000000
 69       0.000000000000
 70       0.000000000000
 71       0.000000000000
 72       0.000000000000
 73       0.000000000000
 74       0.253771706640
 75       0.000000000000
 76       0.000000000000
 77       0.670650565876
 78       0.000000000000
 79       0.000000000000
 80       0.209579082814
 81       0.000000000000
 82       0.000000000000
 83       0.000000000000
 84       0.000000000000
 85       0.000000000000
 86       0.000000000000
 87       0.000000000000
 88       0.000000000000
 89       0.000000000000
 90       0.000000000000
 91       0.000000000000
 92       0.000000000000
 93       0.000000000000
 94       0.000000000000
 95       0.000000000000
 96       0.000000000000
 97       0.000000000000
 98       0.000000000000
 99       0.000000000000
100       0.000000000000
101       0.000000000000
102       0.000000000000
103       0.000000000000
104       0.000000000000
105       0.000000000000
106       0.000000000000
107       0.000000000000
108       0.000000000000
109       0.000000000000
110       0.000000000000
111       0.000000000000
112       0.000000000000
113       0.000000000000
114       0.000000000000
115       0.000000000000
116       0.000000000000
117       0.000000000000
118       0.000000000000
119       0.000000000000
120       0.000000000000
121       0.000000000000
122       0.000000000000
123       0.000000000000
124       0.000000000000
125       0.000000000000
126       0.000000000000
127       0.000000000000
128       0.000000000000
129       0.000000000000
130       0.000000000000
131       0.000000000000
132       0.000000000000
133       0.000000000000
134       0.000000000000
135       0.000000000000
136       0.000000000000
137       0.000000000000
138       0.000000000000
139       0.000000000000
140       0.000000000000
141       0.000000000000
142       0.000000000000
143       0.000000000000
144       0.000000000000
145       0.000000000000
146       0.000000000000
147       0.000000000000
148       0.000000000000
149       0.000000000000
150       0.000000000000
151       0.000000000000
152       0.000000000000
153       0.000000000000
154       0.000000000000
155       0.000000000000
156       0.000000000000
157       0.000000000000
158       0.000000000000
159       0.000000000000
160       0.000000000000
161       0.000000000000
162       0.000000000000
163       0.000000000000
164       0.000000000000
165       0.000000000000
166       0.000000000000
167       0.000000000000
168       0.000000000000
169       0.000000000000
170       0.000000000000
171       0.000000000000
172       0.000000000000
173       0.000000000000
174       0.000000000000
175       0.000000000000
176       0.000000000000
177       0.000000000000
178       0.000000000000
 Sym=     1a
 Ene= -6.26323284334871E-01
Spin= Alpha
 Occup= 1.767298
  1       0.000000000000
  2       0.000000000000
  3       0.000000000000
  4       0.000000000000
  5       0.000000000000
  6       0.000000000000
  7       0.000000000000
  8       0.000000000000
  9       0.000000000000
 10       0.000000000000
 11       0.000000000000
 12       0.000000000000
 13       0.000000000000
 14       0.000000000000
 15       0.000000000000
 16       0.000000000000
 17       0.000000000000
 18       0.000000000000
 19       0.000000000000
 20       0.000000000000
 21       0.000000000000
 22       0.000000000000
 23       0.000000000000
 24       0.000000000000
 25       0.000000000000
 26       0.000000000000
 27       0.000000000000
 28       0.000000000000
 29       0.000000000000
 30       0.000000000000
 31       0.000000000000
 32       0.000000000000
 33       0.000000000000
 34       0.000000000000
 35       0.000000000000
 36       0.000000000000
 37       0.000000000000
 38       0.000000000000
 39       0.000000000000
 40       0.000000000000
 41       0.000000000000
 42       0.000000000000
 43       0.000000000000
 44       0.000000000000
 45       0.000000000000
 46       0.000000000000
 47       0.000000000000
 48       0.000000000000
 49       0.000000000000
 50       0.000000000000
 51       0.000000000000
 52       0.000000000000
 53       0.000000000000
 54       0.000000000000
 55       0.000000000000
 56       0.000000000000
 57       0.000000000000
 58       0.000000000000
 59       0.000000000000
 60       0.000000000000
 61       0.000000000000
 62       0.000000000000
 63       0.000000000000
 64       0.000000000000
 65       0.000000000000
 66       0.000000000000
 67       0.000000000000
 68       0.000000000000
 69       0.000000000000
 70       0.000000000000
 71       0.000000000000
 72       0.000000000000
 73       0.000000000000
 74       0.000000000000
 75       0.253771706640
 76       0.000000000000
 77       0.000000000000
 78       0.670650565876
 79       0.000000000000
 80       0.000000000000
 81       0.209579082814
 82       0.000000000000
 83       0.000000000000
 84       0.000000000000
 85       0.000000000000
 86       0.000000000000
 87       0.000000000000
 88       0.000000000000
 89       0.000000000000
 90       0.000000000000
 91       0.000000000000
 92       0.000000000000
 93       0.000000000000
 94       0.000000000000
 95       0.000000000000
 96       0.000000000000
 97       0.000000000000
 98       0.000000000000
 99       0.000000000000
100       0.000000000000
101       0.000000000000
102       0.000000000000
103       0.000000000000
104       0.000000000000
105       0.000000000000
106       0.000000000000
107       0.000000000000
108       0.000000000000
109       0.000000000000
110       0.000000000000
111       0.000000000000
112       0.000000000000
113       0.000000000000
114       0.000000000000
115       0.000000000000
116       0.000000000000
117       0.000000000000
118       0.000000000000
119       0.000000000000
120       0.000000000000
121       0.000000000000
122       0.000000000000
123       0.000000000000
124       0.000000000000
125       0.000000000000
126       0.000000000000
127       0.000000000000
128       0.000000000000
129       0.000000000000
130       0.000000000000
131       0.000000000000
132       0.000000000000
133       0.000000000000
134       0.000000000000
135       0.000000000000
136       0.000000000000
137       0.000000000000
138       0.000000000000
139       0.000000000000
140       0.000000000000
141       0.000000000000
142       0.000000000000
143       0.000000000000
144       0.000000000000
145       0.000000000000
146       0.000000000000
147       0.000000000000
148       0.000000000000
149       0.000000000000
150       0.000000000000
151       0.000000000000
152       0.000000000000
153       0.000000000000
154       0.000000000000
155       0.000000000000
156       0.000000000000
157       0.000000000000
158       0.000000000000
159       0.000000000000
160       0.000000000000
161       0.000000000000
162       0.000000000000
163       0.000000000000
164       0.000000000000
165       0.000000000000
166       0.000000000000
167       0.000000000000
168       0.000000000000
169       0.000000000000
170       0.000000000000
171       0.000000000000
172       0.000000000000
173       0.000000000000
174       0.000000000000
175       0.000000000000
176       0.000000000000
177       0.000000000000
178       0.000000000000
 Sym=     1a
 Ene= -6.47980505385306E-01
Spin= Alpha
 Occup= 1.767298
  1       0.000000000000
  2       0.000000000000
  3       0.000000000000
  4       0.000000000000
  5       0.000000000000
  6       0.000000000000
  7       0.000000000000
  8       0.000000000000
  9       0.000000000000
 10       0.000000000000
 11       0.000000000000
 12       0.000000000000
 13       0.000000000000
 14       0.000000000000
 15       0.000000000000
 16       0.000000000000
 17       0.000000000000
 18       0.000000000000
 19       0.000000000000
 20       0.000000000000
 21       0.000000000000
 22       0.000000000000
 23       0.000000000000
 24       0.000000000000
 25       0.000000000000
 26       0.000000000000
 27       0.000000000000
 28       0.000000000000
 29       0.000000000000
 30       0.000000000000
 31       0.000000000000
 32       0.000000000000
 33       0.000000000000
 34       0.000000000000
 35       0.000000000000
 36       0.000000000000
 37       0.000000000000
 38       0.000000000000
 39       0.000000000000
 40       0.000000000000
 41       0.000000000000
 42       0.000000000000
 43       0.000000000000
 44       0.000000000000
 45       0.000000000000
 46       0.000000000000
 47       0.000000000000
 48       0.000000000000
 49       0.000000000000
 50       0.000000000000
 51       0.000000000000
 52       0.000000000000
 53       0.000000000000
 54       0.000000000000
 55       0.000000000000
 56       0.000000000000
 57       0.000000000000
 58       0.000000000000
 59       0.000000000000
 60       0.000000000000
 61       0.000000000000
 62       0.000000000000
 63       0.000000000000
 64       0.000000000000
 65       0.000000000000
 66       0.000000000000
 67       0.000000000000
 68       0.000000000000
 69       0.000000000000
 70       0.000000000000
 71       0.000000000000
 72       0.000000000000
 73       0.000000000000
 74       0.000000000000
 75       0.000000000000
 76       0.253771706640
 77       0.000000000000
 78       0.000000000000
 79       0.670650565876
 80       0.000000000000
 81       0.000000000000
 82       0.209579082814
 83       0.000000000000
 84       0.000000000000
 85       0.000000000000
 86       0.000000000000
 87       0.000000000000
 88       0.000000000000
 89       0.000000000000
 90       0.000000000000
 91       0.000000000000
 92       0.000000000000
 93       0.000000000000
 94       0.000000000000
 95       0.000000000000
 96       0.000000000000
 97       0.000000000000
 98       0.000000000000
 99       0.000000000000
100       0.000000000000
101       0.000000000000
102       0.000000000000
103       0.000000000000
104       0.000000000000
105       0.000000000000
106       0.000000000000
107       0.000000000000
108       0.000000000000
109       0.000000000000
110       0.000000000000
111       0.000000000000
112       0.000000000000
113       0.000000000000
114       0.000000000000
115       0.000000000000
116       0.000000000000
117       0.000000000000
118       0.000000000000
119       0.000000000000
120       0.000000000000
121       0.000000000000
122       0.000000000000
123       0.000000000000
124       0.000000000000
125       0.000000000000
126       0.000000000000
127       0.000000000000
128       0.000000000000
129       0.000000000000
130       0.000000000000
131       0.000000000000
132       0.000000000000
133       0.000000000000
134       0.000000000000
135       0.000000000000
136       0.000000000000
137       0.000000000000
138       0.000000000000
139       0.000000000000
140       0.000000000000
141       0.000000000000
142       0.000000000000
143       0.000000000000
144       0.000000000000
145       0.000000000000
146       0.000000000000
147       0.000000000000
148       0.000000000000
149       0.000000000000
150       0.000000000000
151       0.000000000000
152       0.000000000000
153       0.000000000000
154       0.000000000000
155       0.000000000000
156       0.000000000000
157       0.000000000000
158       0.000000000000
159       0.000000000000
160       0.000000000000
161       0.000000000000
162       0.000000000000
163       0.000000000000
164       0.000000000000
165       0.000000000000
166       0.000000000000
167       0.000000000000
168       0.000000000000
169       0.000000000000
170       0.000000000000
171       0.000000000000
172       0.000000000000
173       0.000000000000
174       0.000000000000
175       0.000000000000
176       0.000000000000
177       0.000000000000
178       0.000000000000
 Sym=     1a
 Ene=  2.69333626181183E+00
Spin= Alpha
 Occup= 0.008021
  1       0.000000000000
  2       0.000000000000
  3       0.000000000000
  4       0.000000000000
  5       0.000000000000
  6       0.000000000000
  7       0.000000000000
  8       0.000000000000
  9       0.000000000000
 10       0.000000000000
 11       0.000000000000
 12       0.000000000000
 13       0.000000000000
 14       0.000000000000
 15       0.000000000000
 16       0.000000000000
 17       0.000000000000
 18       0.000000000000
 19       0.000000000000
 20       0.000000000000
 21       0.000000000000
 22       0.000000000000
 23       0.000000000000
 24       0.000000000000
 25       0.000000000000
 26       0.000000000000
 27       0.000000000000
 28       0.000000000000
 29       0.000000000000
 30       0.000000000000
 31       0.000000000000
 32       0.000000000000
 33       0.000000000000
 34       0.000000000000
 35       0.000000000000
 36       0.000000000000
 37       0.000000000000
 38       0.000000000000
 39       0.000000000000
 40       0.000000000000
 41       0.000000000000
 42       0.000000000000
 43       0.000000000000
 44       0.000000000000
 45       0.000000000000
 46       0.000000000000
 47       0.000000000000
 48       0.000000000000
 49       0.000000000000
 50       0.000000000000
 51       0.000000000000
 52       0.000000000000
 53       0.000000000000
 54       0.000000000000
 55       0.000000000000
 56       0.000000000000
 57       0.000000000000
 58       0.000000000000
 59       0.000000000000
 60       0.000000000000
 61       0.000000000000
 62       0.000000000000
 63       0.000000000000
 64       0.000000000000
 65       0.000000000000
 66       0.000000000000
 67       0.000000000000
 68       0.000000000000
 69       0.000000000000
 70       0.000000000000
 71       0.000000000000
 72       0.000000000000
 73       0.000000000000
 74       0.000000000000
 75       0.000000000000
 76       0.000000000000
 77       0.000000000000
 78       0.000000000000
 79       0.000000000000
 80       0.000000000000
 81       0.000000000000
 82       0.000000000000
 83      -1.147805113647
 84       0.000000000000
 85       0.000000000000
 86       0.000000000000
 87       0.000000000000
 88       0.376003942585
 89       0.000000000000
 90       0.000000000000
 91       0.000000000000
 92       0.000000000000
 93       0.000000000000
 94       0.000000000000
 95       0.000000000000
 96       0.000000000000
 97       0.000000000000
 98       0.000000000000
 99       0.000000000000
100       0.000000000000
101       0.000000000000
102       0.000000000000
103       0.000000000000
104       0.000000000000
105       0.000000000000
106       0.000000000000
107       0.000000000000
108       0.000000000000
109       0.000000000000
110       0.000000000000
111       0.000000000000
112       0.000000000000
113       0.000000000000
114       0.000000000000
115       0.000000000000
116       0.000000000000
117       0.000000000000
118       0.000000000000
119       0.000000000000
120       0.000000000000
121       0.000000000000
122       0.000000000000
123       0.000000000000
124       0.000000000000
125       0.000000000000
126       0.000000000000
127       0.000000000000
128       0.000000000000
129       0.000000000000
130       0.000000000000
131       0.000000000000
132       0.000000000000
133       0.000000000000
134       0.000000000000
135       0.000000000000
136       0.000000000000
137       0.000000000000
138       0.000000000000
139       0.000000000000
140       0.000000000000
141       0.000000000000
142       0.000000000000
143       0.000000000000
144       0.000000000000
145       0.000000000000
146       0.000000000000
147       0.000000000000
148       0.000000000000
149       0.000000000000
150       0.000000000000
151       0.000000000000
152       0.000000000000
153       0.000000000000
154       0.000000000000
155       0.000000000000
156       0.000000000000
157       0.000000000000
158       0.000000000000
159       0.000000000000
160       0.000000000000
161       0.000000000000
162       0.000000000000
163       0.000000000000
164       0.000000000000
165       0.000000000000
166       0.000000000000
167       0.000000000000
168       0.000000000000
169       0.000000000000
170       0.000000000000
171       0.000000000000
172       0.000000000000
173       0.000000000000
174       0.000000000000
175       0.000000000000
176       0.000000000000
177       0.000000000000
178       0.000000000000
 Sym=     1a
 Ene=  2.65084980912112E+00
Spin= Alpha
 Occup= 0.008021
  1       0.000000000000
  2       0.000000000000
  3       0.000000000000
  4       0.000000000000
  5       0.000000000000
  6       0.000000000000
  7       0.000000000000
  8       0.000000000000
  9       0.000000000000
 10       0.000000000000
 11       0.000000000000
 12       0.000000000000
 13       0.000000000000
 14       0.000000000000
 15       0.000000000000
 16       0.000000000000
 17       0.000000000000
 18       0.000000000000
 19       0.000000000000
 20       0.000000000000
 21       0.000000000000
 22       0.000000000000
 23       0.000000000000
 24       0.000000000000
 25       0.000000000000
 26       0.000000000000
 27       0.000000000000
 28       0.000000000000
 29       0.000000000000
 30       0.000000000000
 31       0.000000000000
 32       0.000000000000
 33       0.000000000000
 34       0.000000000000
 35       0.000000000000
 36       0.000000000000
 37       0.000000000000
 38       0.000000000000
 39       0.000000000000
 40       0.000000000000
 41       0.000000000000
 42       0.000000000000
 43       0.000000000000
 44       0.000000000000
 45       0.000000000000
 46       0.000000000000
 47       0.000000000000
 48       0.000000000000
 49       0.000000000000
 50       0.000000000000
 51       0.000000000000
 52       0.000000000000
 53       0.000000000000
 54       0.000000000000
 55       0.000000000000
 56       0.000000000000
 57       0.000000000000
 58       0.000000000000
 59       0.000000000000
 60       0.000000000000
 61       0.000000000000
 62       0.000000000000
 63       0.000000000000
 64       0.000000000000
 65       0.000000000000
 66       0.000000000000
 67       0.000000000000
 68       0.000000000000
 69       0.000000000000
 70       0.000000000000
 71       0.000000000000
 72       0.000000000000
 73       0.000000000000
 74       0.000000000000
 75       0.000000000000
 76       0.000000000000
 77       0.000000000000
 78       0.000000000000
 79       0.000000000000
 80       0.000000000000
 81       0.000000000000
 82       0.000000000000
 83       0.000000000000
 84      -1.147805113647
 85       0.000000000000
 86       0.000000000000
 87       0.000000000000
 88       0.000000000000
 89       0.376003942585
 90       0.000000000000
 91       0.000000000000
 92       0.000000000000
 93       0.000000000000
 94       0.000000000000
 95       0.000000000000
 96       0.000000000000
 97       0.000000000000
 98       0.000000000000
 99       0.000000000000
100       0.000000000000
101       0.000000000000
102       0.000000000000
103       0.000000000000
104       0.000000000000
105       0.000000000000
106       0.000000000000
107       0.000000000000
108       0.000000000000
109       0.000000000000
110       0.000000000000
111       0.000000000000
112       0.000000000000
113       0.000000000000
114       0.000000000000
115       0.000000000000
116       0.000000000000
117       0.000000000000
118       0.000000000000
119       0.000000000000
120       0.000000000000
121       0.000000000000
122       0.000000000000
123       0.000000000000
124       0.000000000000
125       0.000000000000
126       0.000000000000
127       0.000000000000
128       0.000000000000
129       0.000000000000
130       0.000000000000
131       0.000000000000
132       0.000000000000
133       0.000000000000
134       0.000000000000
135       0.000000000000
136       0.000000000000
137       0.000000000000
138       0.000000000000
139       0.000000000000
140       0.000000000000
141       0.000000000000
142       0.000000000000
143       0.000000000000
144       0.000000000000
145       0.000000000000
146       0.000000000000
147       0.000000000000
148       0.000000000000
149       0.000000000000
150       0.000000000000
151       0.000000000000
152       0.000000000000
153       0.000000000000
154       0.000000000000
155       0.000000000000
156       0.000000000000
157       0.000000000000
158       0.000000000000
159       0.000000000000
160       0.000000000000
161       0.000000000000
162       0.000000000000
163       0.000000000000
164       0.000000000000
165       0.000000000000
166       0.000000000000
167       0.000000000000
168       0.000000000000
169       0.000000000000
170       0.000000000000
171       0.000000000000
172       0.000000000000
173       0.000000000000
174       0.000000000000
175       0.000000000000
176       0.000000000000
177       0.000000000000
178       0.000000000000
 Sym=     1a
 Ene=  2.66275592530405E+00
Spin= Alpha
 Occup= 0.008021
  1       0.000000000000
  2       0.000000000000
  3       0.000000000000
  4       0.000000000000
  5       0.000000000000
  6       0.000000000000
  7       0.000000000000
  8       0.000000000000
  9       0.000000000000
 10       0.000000000000
 11       0.000000000000
 12       0.000000000000
 13       0.000000000000
 14       0.000000000000
 15       0.000000000000
 16       0.000000000000
 17       0.000000000000
 18       0.000000000000
 19       0.000000000000
 20       0.000000000000
 21       0.000000000000
 22       0.000000000000
 23       0.000000000000
 24       0.000000000000
 25       0.000000000000
 26       0.000000000000
 27       0.000000000000
 28       0.000000000000
 29       0.000000000000
 30       0.000000000000
 31       0.000000000000
 32       0.000000000000
 33       0.000000000000
 34       0.000000000000
 35       0.000000000000
 36       0.000000000000
 37       0.000000000000
 38       0.000000000000
 39       0.000000000000
 40       0.000000000000
 41       0.000000000000
 42       0.000000000000
 43       0.000000000000
 44       0.000000000000
 45       0.000000000000
 46       0.000000000000
 47       0.000000000000
 48       0.000000000000
 49       0.000000000000
 50       0.000000000000
 51       0.000000000000
 52       0.000000000000
 53       0.000000000000
 54       0.000000000000
 55       0.000000000000
 56       0.000000000000
 57       0.000000000000
 58       0.000000000000
 59       0.000000000000
 60       0.000000000000
 61       0.000000000000
 62       0.000000000000
 63       0.000000000000
 64       0.000000000000
 65       0.000000000000
 66       0.000000000000
 67       0.000000000000
 68       0.000000000000
 69       0.000000000000
 70       0.000000000000
 71       0.000000000000
 72       0.000000000000
 73       0.000000000000
 74       0.000000000000
 75       0.000000000000
 76       0.000000000000
 77       0.000000000000
 78       0.000000000000
 79       0.000000000000
 80       0.000000000000
 81       0.000000000000
 82       0.000000000000
 83       0.000000000000
 84       0.000000000000
 85      -1.147805113647
 86       0.000000000000
 87       0.000000000000
 88       0.000000000000
 89       0.000000000000
 90       0.376003942585
 91       0.000000000000
 92       0.000000000000
 93       0.000000000000
 94       0.000000000000
 95       0.000000000000
 96       0.000000000000
 97       0.000000000000
 98       0.000000000000
 99       0.000000000000
100       0.000000000000
101       0.000000000000
102       0.000000000000
103       0.000000000000
104       0.000000000000
105       0.000000000000
106       0.000000000000
107       0.000000000000
108       0.000000000000
109       0.000000000000
110       0.000000000000
111       0.000000000000
112       0.000000000000
113       0.000000000000
114       0.000000000000
115       0.000000000000
116       0.000000000000
117       0.000000000000
118       0.000000000000
119       0.000000000000
120       0.000000000000
121       0.000000000000
122       0.000000000000
123       0.000000000000
124       0.000000000000
125       0.000000000000
126       0.000000000000
127       0.000000000000
128       0.000000000000
129       0.000000000000
130       0.000000000000
131       0.000000000000
132       0.000000000000
133       0.000000000000
134       0.000000000000
135       0.000000000000
136       0.000000000000
137       0.000000000000
138       0.000000000000
139       0.000000000000
140       0.000000000000
141       0.000000000000
142       0.000000000000
143       0.000000000000
144       0.000000000000
145       0.000000000000
146       0.000000000000
147       0.000000000000
148       0.000000000000
149       0.000000000000
150       0.000000000000
151       0.000000000000
152       0.000000000000
153       0.000000000000
154       0.000000000000
155       0.000000000000
156       0.000000000000
157       0.000000000000
158       0.000000000000
159       0.000000000000
160       0.000000000000
161       0.000000000000
162       0.000000000000
163       0.000000000000
164       0.000000000000
165       0.000000000000
166       0.000000000000
167       0.000000000000
168       0.000000000000
169       0.000000000000
170       0.000000000000
171       0.000000000000
172       0.000000000000
173       0.000000000000
174       0.000000000000
175       0.000000000000
176       0.000000000000
177       0.000000000000
178       0.000000000000
 Sym=     1a
 Ene=  2.66112125591668E+00
Spin= Alpha
 Occup= 0.008021
  1       0.000000000000
  2       0.000000000000
  3       0.000000000000
  4       0.000000000000
  5       0.000000000000
  6       0.000000000000
  7       0.000000000000
  8       0.000000000000
  9       0.000000000000
 10       0.000000000000
 11       0.000000000000
 12       0.000000000000
 13       0.000000000000
 14       0.000000000000
 15       0.000000000000
 16       0.000000000000
 17       0.000000000000
 18       0.000000000000
 19       0.000000000000
 20       0.000000000000
 21       0.000000000000
 22       0.000000000000
 23       0.000000000000
 24       0.000000000000
 25       0.000000000000
 26       0.000000000000
 27       0.000000000000
 28       0.000000000000
 29       0.000000000000
 30       0.000000000000
 31       0.000000000000
 32       0.000000000000
 33       0.000000000000
 34       0.000000000000
 35       0.000000000000
 36       0.000000000000
 37       0.000000000000
 38       0.000000000000
 39       0.000000000000
 40       0.000000000000
 41       0.000000000000
 42       0.000000000000
 43       0.000000000000
 44       0.000000000000
 45       0.000000000000
 46       0.000000000000
 47       0.000000000000
 48       0.000000000000
 49       0.000000000000
 50       0.000000000000
 51       0.000000000000
 52       0.000000000000
 53       0.000000000000
 54       0.000000000000
 55       0.000000000000
 56       0.000000000000
 57       0.000000000000
 58       0.000000000000
 59       0.000000000000
 60       0.000000000000
 61       0.000000000000
 62       0.000000000000
 63       0.000000000000
 64       0.000000000000
 65       0.000000000000
 66       0.000000000000
 67       0.000000000000
 68       0.000000000000
 69       0.000000000000
 70       0.000000000000
 71       0.000000000000
 72       0.000000000000
 73       0.000000000000
 74       0.000000000000
 75       0.000000000000
 76       0.000000000000
 77       0.000000000000
 78       0.000000000000
 79       0.000000000000
 80       0.000000000000
 81       0.000000000000
 82       0.000000000000
 83       0.000000000000
 84       0.000000000000
 85       0.000000000000
 86      -1.147805113647
 87       0.000000000000
 88       0.000000000000
 89       0.000000000000
 90       0.000000000000
 91       0.376003942585
 92       0.000000000000
 93       0.000000000000
 94       0.000000000000
 95       0.000000000000
 96       0.000000000000
 97       0.000000000000
 98       0.000000000000
 99       0.000000000000
100       0.000000000000
101       0.000000000000
102       0.000000000000
103       0.000000000000
104       0.000000000000
105       0.000000000000
106       0.000000000000
107       0.000000000000
108       0.000000000000
109       0.000000000000
110       0.000000000000
111       0.000000000000
112       0.000000000000
113       0.000000000000
114       0.000000000000
115       0.000000000000
116       0.000000000000
117       0.000000000000
118       0.000000000000
119       0.000000000000
120       0.000000000000
121       0.000000000000
122       0.000000000000
123       0.000000000000
124       0.000000000000
125       0.000000000000
126       0.000000000000
127       0.000000000000
128       0.000000000000
129       0.000000000000
130       0.000000000000
131       0.000000000000
132       0.000000000000
133       0.000000000000
134       0.000000000000
135       0.000000000000
136       0.000000000000
137       0.000000000000
138       0.000000000000
139       0.000000000000
140       0.000000000000
141       0.000000000000
142       0.000000000000
143       0.000000000000
144       0.000000000000
145       0.000000000000
146       0.000000000000
147       0.000000000000
148       0.000000000000
149       0.000000000000
150       0.000000000000
151       0.000000000000
152       0.000000000000
153       0.000000000000
154       0.000000000000
155       0.000000000000
156       0.000000000000
157       0.000000000000
158       0.000000000000
159       0.000000000000
160       0.000000000000
161       0.000000000000
162       0.000000000000
163       0.000000000000
164       0.000000000000
165       0.000000000000
166       0.000000000000
167       0.000000000000
168       0.000000000000
169       0.000000000000
170       0.000000000000
171       0.000000000000
172       0.000000000000
173       0.000000000000
174       0.000000000000
175       0.000000000000
176       0.000000000000
177       0.000000000000
178       0.000000000000
 Sym=     1a
 Ene=  2.67815455123175E+00
Spin= Alpha
 Occup= 0.008021
  1       0.000000000000
  2       0.000000000000
  3       0.000000000000
  4       0.000000000000
  5       0.000000000000
  6       0.000000000000
  7       0.000000000000
  8       0.000000000000
  9       0.000000000000
 10       0.000000000000
 11       0.000000000000
 12       0.000000000000
 13       0.000000000000
 14       0.000000000000
 15       0.000000000000
 16       0.000000000000
 17       0.000000000000
 18       0.000000000000
 19       0.000000000000
 20       0.000000000000
 21       0.000000000000
 22       0.000000000000
 23       0.000000000000
 24       0.000000000000
 25       0.000000000000
 26       0.000000000000
 27       0.000000000000
 28       0.000000000000
 29       0.000000000000
 30       0.000000000000
 31       0.000000000000
 32       0.000000000000
 33       0.000000000000
 34       0.000000000000
 35       0.000000000000
 36       0.000000000000
 37       0.000000000000
 38       0.000000000000
 39       0.000000000000
 40       0.000000000000
 41       0.000000000000
 42       0.000000000000
 43       0.000000000000
 44       0.000000000000
 45       0.000000000000
 46       0.000000000000
 47       0.000000000000
 48       0.000000000000
 49       0.000000000000
 50       0.000000000000
 51       0.000000000000
 52       0.000000000000
 53       0.000000000000
 54       0.000000000000
 55       0.000000000000
 56       0.000000000000
 57       0.000000000000
 58       0.000000000000
 59       0.000000000000
 60       0.000000000000
 61       0.000000000000
 62       0.000000000000
 63       0.000000000000
 64       0.000000000000
 65       0.000000000000
 66       0.000000000000
 67       0.000000000000
 68       0.000000000000
 69       0.000000000000
 70       0.000000000000
 71       0.000000000000
 72       0.000000000000
 73       0.000000000000
 74       0.000000000000
 75       0.000000000000
 76       0.000000000000
 77       0.000000000000
 78       0.000000000000
 79       0.000000000000
 80       0.000000000000
 81       0.000000000000
 82       0.000000000000
 83       0.000000000000
 84       0.000000000000
 85       0.000000000000
 86       0.000000000000
 87      -1.147805113647
 88       0.000000000000
 89       0.000000000000
 90       0.000000000000
 91       0.000000000000
 92       0.376003942585
 93       0.000000000000
 94       0.000000000000
 95       0.000000000000
 96       0.000000000000
 97       0.000000000000
 98       0.000000000000
 99       0.000000000000
100       0.000000000000
101       0.000000000000
102       0.000000000000
103       0.000000000000
104       0.000000000000
105       0.000000000000
106       0.000000000000
107       0.000000000000
108       0.000000000000
109       0.000000000000
110       0.000000000000
111       0.000000000000
112       0.000000000000
113       0.000000000000
114       0.000000000000
115       0.000000000000
116       0.000000000000
117       0.000000000000
118       0.000000000000
119       0.000000000000
120       0.000000000000
121       0.000000000000
122       0.000000000000
123       0.000000000000
124       0.000000000000
125       0.000000000000
126       0.000000000000
127       0.000000000000
128       0.000000000000
129       0.000000000000
130       0.000000000000
131       0.000000000000
132       0.000000000000
133       0.000000000000
134       0.000000000000
135       0.000000000000
136       0.000000000000
137       0.000000000000
138       0.000000000000
139       0.000000000000
140       0.000000000000
141       0.000000000000
142       0.000000000000
143       0.000000000000
144       0.000000000000
145       0.000000000000
146       0.000000000000
147       0.000000000000
148       0.000000000000
149       0.000000000000
150       0.000000000000
151       0.000000000000
152       0.000000000000
153       0.000000000000
154       0.000000000000
155       0.000000000000
156       0.000000000000
157       0.000000000000
158       0.000000000000
159       0.000000000000
160       0.000000000000
161       0.000000000000
162       0.000000000000
163       0.000000000000
164       0.000000000000
165       0.000000000000
166       0.000000000000
167       0.000000000000
168       0.000000000000
169       0.000000000000
170       0.000000000000
171       0.000000000000
172       0.000000000000
173       0.000000000000
174       0.000000000000
175       0.000000000000
176       0.000000000000
177       0.000000000000
178       0.000000000000
 Sym=     1a
 Ene=  4.50927559341389E-01
Spin= Alpha
 Occup= 0.190939
  1       0.000000000000
  2       0.000000000000
  3       0.000000000000
  4       0.000000000000
  5       0.000000000000
  6       0.000000000000
  7       0.000000000000
  8       0.000000000000
  9       0.000000000000
 10       0.000000000000
 11       0.000000000000
 12       0.000000000000
 13       0.000000000000
 14       0.000000000000
 15       0.000000000000
 16       0.000000000000
 17       0.000000000000
 18       0.000000000000
 19       0.000000000000
 20       0.000000000000
 21       0.000000000000
 22       0.000000000000
 23       0.000000000000
 24       0.000000000000
 25       0.000000000000
 26       0.000000000000
 27       0.000000000000
 28       0.000000000000
 29       0.000000000000
 30       0.000000000000
 31       0.000000000000
 32       0.000000000000
 33       0.000000000000
 34       0.000000000000
 35       0.000000000000
 36       0.000000000000
 37       0.000000000000
 38       0.000000000000
 39       0.000000000000
 40       0.000000000000
 41       0.000000000000
 42       0.000000000000
 43       0.000000000000
 44       0.000000000000
 45       0.000000000000
 46       0.000000000000
 47       0.000000000000
 48       0.000000000000
 49       0.000000000000
 50       0.000000000000
 51       0.000000000000
 52       0.000000000000
 53       0.000000000000
 54       0.000000000000
 55       0.000000000000
 56       0.000000000000
 57       0.000000000000
 58       0.000000000000
 59       0.000000000000
 60       0.000000000000
 61       0.000000000000
 62       0.000000000000
 63       0.000000000000
 64       0.000000000000
 65       0.000000000000
 66       0.000000000000
 67       0.000000000000
 68       0.000000000000
 69       0.000000000000
 70       0.000000000000
 71       0.000000000000
 72       0.000000000000
 73       0.000000000000
 74       0.000000000000
 75       0.000000000000
 76       0.000000000000
 77       0.000000000000
 78       0.000000000000
 79       0.000000000000
 80       0.000000000000
 81       0.000000000000
 82       0.000000000000
 83      -0.276435206493
 84       0.000000000000
 85       0.000000000000
 86       0.000000000000
 87       0.000000000000
 88       1.119148800412
 89       0.000000000000
 90       0.000000000000
 91       0.000000000000
 92       0.000000000000
 93       0.000000000000
 94       0.000000000000
 95       0.000000000000
 96       0.000000000000
 97       0.000000000000
 98       0.000000000000
 99       0.000000000000
100       0.000000000000
101       0.000000000000
102       0.000000000000
103       0.000000000000
104       0.000000000000
105       0.000000000000
106       0.000000000000
107       0.000000000000
108       0.000000000000
109       0.000000000000
110       0.000000000000
111       0.000000000000
112       0.000000000000
113       0.000000000000
114       0.000000000000
115       0.000000000000
116       0.000000000000
117       0.000000000000
118       0.000000000000
119       0.000000000000
120       0.000000000000
121       0.000000000000
122       0.000000000000
123       0.000000000000
124       0.000000000000
125       0.000000000000
126       0.000000000000
127       0.000000000000
128       0.000000000000
129       0.000000000000
130       0.000000000000
131       0.000000000000
132       0.000000000000
133       0.000000000000
134       0.000000000000
135       0.000000000000
136       0.000000000000
137       0.000000000000
138       0.000000000000
139       0.000000000000
140       0.000000000000
141       0.000000000000
142       0.000000000000
143       0.000000000000
144       0.000000000000
145       0.000000000000
146       0.000000000000
147       0.000000000000
148       0.000000000000
149       0.000000000000
150       0.000000000000
151       0.000000000000
152       0.000000000000
153       0.000000000000
154       0.000000000000
155       0.000000000000
156       0.000000000000
157       0.000000000000
158       0.000000000000
159       0.000000000000
160       0.000000000000
161       0.000000000000
162       0.000000000000
163       0.000000000000
164       0.000000000000
165       0.000000000000
166       0.000000000000
167       0.000000000000
168       0.000000000000
169       0.000000000000
170       0.000000000000
171       0.000000000000
172       0.000000000000
173       0.000000000000
174       0.000000000000
175       0.000000000000
176       0.000000000000
177       0.000000000000
178       0.000000000000
 Sym=     1a
 Ene=  2.05237883370306E-01
Spin= Alpha
 Occup= 0.190939
  1       0.000000000000
  2       0.000000000000
  3       0.000000000000
  4       0.000000000000
  5       0.000000000000
  6       0.000000000000
  7       0.000000000000
  8       0.000000000000
  9       0.000000000000
 10       0.000000000000
 11       0.000000000000
 12       0.000000000000
 13       0.000000000000
 14       0.000000000000
 15       0.000000000000
 16       0.000000000000
 17       0.000000000000
 18       0.000000000000
 19       0.000000000000
 20       0.000000000000
 21       0.000000000000
 22       0.000000000000
 23       0.000000000000
 24       0.000000000000
 25       0.000000000000
 26       0.000000000000
 27       0.000000000000
 28       0.000000000000
 29       0.000000000000
 30       0.000000000000
 31       0.000000000000
 32       0.000000000000
 33       0.000000000000
 34       0.000000000000
 35       0.000000000000
 36       0.000000000000
 37       0.000000000000
 38       0.000000000000
 39       0.000000000000
 40       0.000000000000
 41       0.000000000000
 42       0.000000000000
 43       0.000000000000
 44       0.000000000000
 45       0.000000000000
 46       0.000000000000
 47       0.000000000000
 48       0.000000000000
 49       0.000000000000
 50       0.000000000000
 51       0.000000000000
 52       0.000000000000
 53       0.000000000000
 54       0.000000000000
 55       0.000000000000
 56       0.000000000000
 57       0.000000000000
 58       0.000000000000
 59       0.000000000000
 60       0.000000000000
 61       0.000000000000
 62       0.000000000000
 63       0.000000000000
 64       0.000000000000
 65       0.000000000000
 66       0.000000000000
 67       0.000000000000
 68       0.000000000000
 69       0.000000000000
 70       0.000000000000
 71       0.000000000000
 72       0.000000000000
 73       0.000000000000
 74       0.000000000000
 75       0.000000000000
 76       0.000000000000
 77       0.000000000000
 78       0.000000000000
 79       0.000000000000
 80       0.000000000000
 81       0.000000000000
 82       0.000000000000
 83       0.000000000000
 84      -0.276435206493
 85       0.000000000000
 86       0.000000000000
 87       0.000000000000
 88       0.000000000000
 89       1.119148800412
 90       0.000000000000
 91       0.000000000000
 92       0.000000000000
 93       0.000000000000
 94       0.000000000000
 95       0.000000000000
 96       0.000000000000
 97       0.000000000000
 98       0.000000000000
 99       0.000000000000
100       0.000000000000
101       0.000000000000
102       0.000000000000
103       0.000000000000
104       0.000000000000
105       0.000000000000
106       0.000000000000
107       0.000000000000
108       0.000000000000
109       0.000000000000
110       0.000000000000
111       0.000000000000
112       0.000000000000
113       0.000000000000
114       0.000000000000
115       0.000000000000
116       0.000000000000
117       0.000000000000
118       0.000000000000
119       0.000000000000
120       0.000000000000
121       0.000000000000
122       0.000000000000
123       0.000000000000
124       0.000000000000
125       0.000000000000
126       0.000000000000
127       0.000000000000
128       0.000000000000
129       0.000000000000
130       0.000000000000
131       0.000000000000
132       0.000000000000
133       0.000000000000
134       0.000000000000
135       0.000000000000
136       0.000000000000
137       0.000000000000
138       0.000000000000
139       0.000000000000
140       0.000000000000
141       0.000000000000
142       0.000000000000
143       0.000000000000
144       0.000000000000
145       0.000000000000
146       0.000000000000
147       0.000000000000
148       0.000000000000
149       0.000000000000
150       0.000000000000
151       0.000000000000
152       0.000000000000
153       0.000000000000
154       0.000000000000
155       0.000000000000
156       0.000000000000
157       0.000000000000
158       0.000000000000
159       0.000000000000
160       0.000000000000
161       0.000000000000
162       0.000000000000
163       0.000000000000
164       0.000000000000
165       0.000000000000
166       0.000000000000
167       0.000000000000
168       0.000000000000
169       0.000000000000
170       0.000000000000
171       0.000000000000
172       0.000000000000
173       0.000000000000
174       0.000000000000
175       0.000000000000
176       0.000000000000
177       0.000000000000
178       0.000000000000
 Sym=     1a
 Ene=  3.40890935245769E-01
Spin= Alpha
 Occup= 0.190939
  1       0.000000000000
  2       0.000000000000
  3       0.000000000000
  4       0.000000000000
  5       0.000000000000
  6       0.000000000000
  7       0.000000000000
  8       0.000000000000
  9       0.000000000000
 10       0.000000000000
 11       0.000000000000
 12       0.000000000000
 13       0.000000000000
 14       0.000000000000
 15       0.000000000000
 16       0.000000000000
 17       0.000000000000
 18       0.000000000000
 19       0.000000000000
 20       0.000000000000
 21       0.000000000000
 22       0.000000000000
 23       0.000000000000
 24       0.000000000000
 25       0.000000000000
 26       0.000000000000
 27       0.000000000000
 28       0.000000000000
 29       0.000000000000
 30       0.000000000000
 31       0.000000000000
 32       0.000000000000
 33       0.000000000000
 34       0.000000000000
 35       0.000000000000
 36       0.000000000000
 37       0.000000000000
 38       0.000000000000
 39       0.000000000000
 40       0.000000000000
 41       0.000000000000
 42       0.000000000000
 43       0.000000000000
 44       0.000000000000
 45       0.000000000000
 46       0.000000000000
 47       0.000000000000
 48       0.000000000000
 49       0.000000000000
 50       0.000000000000
 51       0.000000000000
 52       0.000000000000
 53       0.000000000000
 54       0.000000000000
 55       0.000000000000
 56       0.000000000000
 57       0.000000000000
 58       0.000000000000
 59       0.000000000000
 60       0.000000000000
 61       0.000000000000
 62       0.000000000000
 63       0.000000000000
 64       0.000000000000
 65       0.000000000000
 66       0.000000000000
 67       0.000000000000
 68       0.000000000000
 69       0.000000000000
 70       0.000000000000
 71       0.000000000000
 72       0.000000000000
 73       0.000000000000
 74       0.000000000000
 75       0.000000000000
 76       0.000000000000
 77       0.000000000000
 78       0.000000000000
 79       0.000000000000
 80       0.000000000000
 81       0.000000000000
 82       0.000000000000
 83       0.000000000000
 84       0.000000000000
 85      -0.276435206493
 86       0.000000000000
 87       0.000000000000
 88       0.000000000000
 89       0.000000000000
 90       1.119148800412
 91       0.000000000000
 92       0.000000000000
 93       0.000000000000
 94       0.000000000000
 95       0.000000000000
 96       0.000000000000
 97       0.000000000000
 98       0.000000000000
 99       0.000000000000
100       0.000000000000
101       0.000000000000
102       0.000000000000
103       0.000000000000
104       0.000000000000
105       0.000000000000
106       0.000000000000
107       0.000000000000
108       0.000000000000
109       0.000000000000
110       0.000000000000
111       0.000000000000
112       0.000000000000
113       0.000000000000
114       0.000000000000
115       0.000000000000
116       0.000000000000
117       0.000000000000
118       0.000000000000
119       0.000000000000
120       0.000000000000
121       0.000000000000
122       0.000000000000
123       0.000000000000
124       0.000000000000
125       0.000000000000
126       0.000000000000
127       0.000000000000
128       0.000000000000
129       0.000000000000
130       0.000000000000
131       0.000000000000
132       0.000000000000
133       0.000000000000
134       0.000000000000
135       0.000000000000
136       0.000000000000
137       0.000000000000
138       0.000000000000
139       0.000000000000
140       0.000000000000
141       0.000000000000
142       0.000000000000
143       0.000000000000
144       0.000000000000
145       0.000000000000
146       0.000000000000
147       0.000000000000
148       0.000000000000
149       0.000000000000
150       0.000000000000
151       0.000000000000
152       0.000000000000
153       0.000000000000
154       0.000000000000
155       0.000000000000
156       0.000000000000
157       0.000000000000
158       0.000000000000
159       0.000000000000
160       0.000000000000
161       0.000000000000
162       0.000000000000
163       0.000000000000
164       0.000000000000
165       0.000000000000
166       0.000000000000
167       0.000000000000
168       0.000000000000
169       0.000000000000
170       0.000000000000
171       0.000000000000
172       0.000000000000
173       0.000000000000
174       0.000000000000
175       0.000000000000
176       0.000000000000
177       0.000000000000
178       0.000000000000
 Sym=     1a
 Ene=  2.50076042677225E-01
Spin= Alpha
 Occup= 0.190939
  1       0.000000000000
  2       0.000000000000
  3       0.000000000000
  4       0.000000000000
  5       0.000000000000
  6       0.000000000000
  7       0.000000000000
  8       0.000000000000
  9       0.000000000000
 10       0.000000000000
 11       0.000000000000
 12       0.000000000000
 13       0.000000000000
 14       0.000000000000
 15       0.000000000000
 16       0.000000000000
 17       0.000000000000
 18       0.000000000000
 19       0.000000000000
 20       0.000000000000
 21       0.000000000000
 22       0.000000000000
 23       0.000000000000
 24       0.000000000000
 25       0.000000000000
 26       0.000000000000
 27       0.000000000000
 28       0.000000000000
 29       0.000000000000
 30       0.000000000000
 31       0.000000000000
 32       0.000000000000
 33       0.000000000000
 34       0.000000000000
 35       0.000000000000
 36       0.000000000000
 37       0.000000000000
 38       0.000000000000
 39       0.000000000000
 40       0.000000000000
 41       0.000000000000
 42       0.000000000000
 43       0.000000000000
 44       0.000000000000
 45       0.000000000000
 46       0.000000000000
 47       0.000000000000
 48       0.000000000000
 49       0.000000000000
 50       0.000000000000
 51       0.000000000000
 52       0.000000000000
 53       0.000000000000
 54       0.000000000000
 55       0.000000000000
 56       0.000000000000
 57       0.000000000000
 58       0.000000000000
 59       0.000000000000
 60       0.000000000000
 61       0.000000000000
 62       0.000000000000
 63       0.000000000000
 64       0.000000000000
 65       0.000000000000
 66       0.000000000000
 67       0.000000000000
 68       0.000000000000
 69       0.000000000000
 70       0.000000000000
 71       0.000000000000
 72       0.000000000000
 73       0.000000000000
 74       0.000000000000
 75       0.000000000000
 76       0.000000000000
 77       0.000000000000
 78       0.000000000000
 79       0.000000000000
 80       0.000000000000
 81       0.000000000000
 82       0.000000000000
 83       0.000000000000
 84       0.000000000000
 85       0.000000000000
 86      -0.276435206493
 87       0.000000000000
 88       0.000000000000
 89       0.000000000000
 90       0.000000000000
 91       1.119148800412
 92       0.000000000000
 93       0.000000000000
 94       0.000000000000
 95       0.000000000000
 96       0.000000000000
 97       0.000000000000
 98       0.000000000000
 99       0.000000000000
100       0.000000000000
101       0.000000000000
102       0.000000000000
103       0.000000000000
104       0.000000000000
105       0.000000000000
106       0.000000000000
107       0.000000000000
108       0.000000000000
109       0.000000000000
110       0.000000000000
111       0.000000000000
112       0.000000000000
113       0.000000000000
114       0.000000000000
115       0.000000000000
116       0.000000000000
117       0.000000000000
118       0.000000000000
119       0.000000000000
120       0.000000000000
121       0.000000000000
122       0.000000000000
123       0.000000000000
124       0.000000000000
125       0.000000000000
126       0.000000000000
127       0.000000000000
128       0.000000000000
129       0.000000000000
130       0.000000000000
131       0.000000000000
132       0.000000000000
133       0.000000000000
134       0.000000000000
135       0.000000000000
136       0.000000000000
137       0.000000000000
138       0.000000000000
139       0.000000000000
140       0.000000000000
141       0.000000000000
142       0.000000000000
143       0.000000000000
144       0.000000000000
145       0.000000000000
146       0.000000000000
147       0.000000000000
148       0.000000000000
149       0.000000000000
150       0.000000000000
151       0.000000000000
152       0.000000000000
153       0.000000000000
154       0.000000000000
155       0.000000000000
156       0.000000000000
157       0.000000000000
158       0.000000000000
159       0.000000000000
160       0.000000000000
161       0.000000000000
162       0.000000000000
163       0.000000000000
164       0.000000000000
165       0.000000000000
166       0.000000000000
167       0.000000000000
168       0.000000000000
169       0.000000000000
170       0.000000000000
171       0.000000000000
172       0.000000000000
173       0.000000000000
174       0.000000000000
175       0.000000000000
176       0.000000000000
177       0.000000000000
178       0.000000000000
 Sym=     1a
 Ene=  3.68167984025902E-01
Spin= Alpha
 Occup= 0.190939
  1       0.000000000000
  2       0.000000000000
  3       0.000000000000
  4       0.000000000000
  5       0.000000000000
  6       0.000000000000
  7       0.000000000000
  8       0.000000000000
  9       0.000000000000
 10       0.000000000000
 11       0.000000000000
 12       0.000000000000
 13       0.000000000000
 14       0.000000000000
 15       0.000000000000
 16       0.000000000000
 17       0.000000000000
 18       0.000000000000
 19       0.000000000000
 20       0.000000000000
 21       0.000000000000
 22       0.000000000000
 23       0.000000000000
 24       0.000000000000
 25       0.000000000000
 26       0.000000000000
 27       0.000000000000
 28       0.000000000000
 29       0.000000000000
 30       0.000000000000
 31       0.000000000000
 32       0.000000000000
 33       0.000000000000
 34       0.000000000000
 35       0.000000000000
 36       0.000000000000
 37       0.000000000000
 38       0.000000000000
 39       0.000000000000
 40       0.000000000000
 41       0.000000000000
 42       0.000000000000
 43       0.000000000000
 44       0.000000000000
 45       0.000000000000
 46       0.000000000000
 47       0.000000000000
 48       0.000000000000
 49       0.000000000000
 50       0.000000000000
 51       0.000000000000
 52       0.000000000000
 53       0.000000000000
 54       0.000000000000
 55       0.000000000000
 56       0.000000000000
 57       0.000000000000
 58       0.000000000000
 59       0.000000000000
 60       0.000000000000
 61       0.000000000000
 62       0.000000000000
 63       0.000000000000
 64       0.000000000000
 65       0.000000000000
 66       0.000000000000
 67       0.000000000000
 68       0.000000000000
 69       0.000000000000
 70       0.000000000000
 71       0.000000000000
 72       0.000000000000
 73       0.000000000000
 74       0.000000000000
 75       0.000000000000
 76       0.000000000000
 77       0.000000000000
 78       0.000000000000
 79       0.000000000000
 80       0.000000000000
 81       0.000000000000
 82       0.000000000000
 83       0.000000000000
 84       0.000000000000
 85       0.000000000000
 86       0.000000000000
 87      -0.276435206493
 88       0.000000000000
 89       0.000000000000
 90       0.000000000000
 91       0.000000000000
 92       1.119148800412
 93       0.000000000000
 94       0.000000000000
 95       0.000000000000
 96       0.000000000000
 97       0.000000000000
 98       0.000000000000
 99       0.000000000000
100       0.000000000000
101       0.000000000000
102       0.000000000000
103       0.000000000000
104       0.000000000000
105       0.000000000000
106       0.000000000000
107       0.000000000000
108       0.000000000000
109       0.000000000000
110       0.000000000000
111       0.000000000000
112       0.000000000000
113       0.000000000000
114       0.000000000000
115       0.000000000000
116       0.000000000000
117       0.000000000000
118       0.000000000000
119       0.000000000000
120       0.000000000000
121       0.000000000000
122       0.000000000000
123       0.000000000000
124       0.000000000000
125       0.000000000000
126       0.000000000000
127       0.000000000000
128       0.000000000000
129       0.000000000000
130       0.000000000000
131       0.000000000000
132       0.000000000000
133       0.000000000000
134       0.000000000000
135       0.000000000000
136       0.000000000000
137       0.000000000000
138       0.000000000000
139       0.000000000000
140       0.000000000000
141       0.000000000000
142       0.000000000000
143       0.000000000000
144       0.000000000000
145       0.000000000000
146       0.000000000000
147       0.000000000000
148       0.000000000000
149       0.000000000000
150       0.000000000000
151       0.000000000000
152       0.000000000000
153       0.000000000000
154       0.000000000000
155       0.000000000000
156       0.000000000000
157       0.000000000000
158       0.000000000000
159       0.000000000000
160       0.000000000000
161       0.000000000000
162       0.000000000000
163       0.000000000000
164       0.000000000000
165       0.000000000000
166       0.000000000000
167       0.000000000000
168       0.000000000000
169       0.000000000000
170       0.000000000000
171       0.000000000000
172       0.000000000000
173       0.000000000000
174       0.000000000000
175       0.000000000000
176       0.000000000000
177       0.000000000000
178       0.000000000000
 Sym=     1a
 Ene=  2.38456017981983E+00
Spin= Alpha
 Occup= 0.016925
  1       0.000000000000
  2       0.000000000000
  3       0.000000000000
  4       0.000000000000
  5       0.000000000000
  6       0.000000000000
  7       0.000000000000
  8       0.000000000000
  9       0.000000000000
 10       0.000000000000
 11       0.000000000000
 12       0.000000000000
 13       0.000000000000
 14       0.000000000000
 15       0.000000000000
 16       0.000000000000
 17       0.000000000000
 18       0.000000000000
 19       0.000000000000
 20       0.000000000000
 21       0.000000000000
 22       0.000000000000
 23       0.000000000000
 24       0.000000000000
 25       0.000000000000
 26       0.000000000000
 27       0.000000000000
 28       0.000000000000
 29       0.000000000000
 30       0.000000000000
 31       0.000000000000
 32       0.000000000000
 33       0.000000000000
 34       0.000000000000
 35       0.000000000000
 36       0.000000000000
 37       0.000000000000
 38       0.000000000000
 39       0.000000000000
 40       0.000000000000
 41       0.000000000000
 42       0.000000000000
 43       0.000000000000
 44       0.000000000000
 45       0.000000000000
 46       0.000000000000
 47       0.000000000000
 48       0.000000000000
 49       0.000000000000
 50       0.000000000000
 51       0.000000000000
 52       0.000000000000
 53       0.000000000000
 54       0.000000000000
 55       0.000000000000
 56       0.000000000000
 57       0.000000000000
 58       0.000000000000
 59       0.000000000000
 60       0.000000000000
 61       0.000000000000
 62       0.000000000000
 63       0.000000000000
 64       0.000000000000
 65       0.000000000000
 66       0.000000000000
 67       0.000000000000
 68       0.000000000000
 69       0.000000000000
 70       0.000000000000
 71       0.000000000000
 72       0.000000000000
 73       0.000000000000
 74       0.000000000000
 75       0.000000000000
 76       0.000000000000
 77       0.000000000000
 78       0.000000000000
 79       0.000000000000
 80       0.000000000000
 81       0.000000000000
 82       0.000000000000
 83       0.000000000000
 84       0.000000000000
 85       0.000000000000
 86       0.000000000000
 87       0.000000000000
 88       0.000000000000
 89       0.000000000000
 90       0.000000000000
 91       0.000000000000
 92       0.000000000000
 93       1.000000000000
 94       0.000000000000
 95       0.000000000000
 96       0.000000000000
 97       0.000000000000
 98       0.000000000000
 99       0.000000000000
100       0.000000000000
101       0.000000000000
102       0.000000000000
103       0.000000000000
104       0.000000000000
105       0.000000000000
106       0.000000000000
107       0.000000000000
108       0.000000000000
109       0.000000000000
110       0.000000000000
111       0.000000000000
112       0.000000000000
113       0.000000000000
114       0.000000000000
115       0.000000000000
116       0.000000000000
117       0.000000000000
118       0.000000000000
119       0.000000000000
120       0.000000000000
121       0.000000000000
122       0.000000000000
123       0.000000000000
124       0.000000000000
125       0.000000000000
126       0.000000000000
127       0.000000000000
128       0.000000000000
129       0.000000000000
130       0.000000000000
131       0.000000000000
132       0.000000000000
133       0.000000000000
134       0.000000000000
135       0.000000000000
136       0.000000000000
137       0.000000000000
138       0.000000000000
139       0.000000000000
140       0.000000000000
141       0.000000000000
142       0.000000000000
143       0.000000000000
144       0.000000000000
145       0.000000000000
146       0.000000000000
147       0.000000000000
148       0.000000000000
149       0.000000000000
150       0.000000000000
151       0.000000000000
152       0.000000000000
153       0.000000000000
154       0.000000000000
155       0.000000000000
156       0.000000000000
157       0.000000000000
158       0.000000000000
159       0.000000000000
160       0.000000000000
161       0.000000000000
162       0.000000000000
163       0.000000000000
164       0.000000000000
165       0.000000000000
166       0.000000000000
167       0.000000000000
168       0.000000000000
169       0.000000000000
170       0.000000000000
171       0.000000000000
172       0.000000000000
173       0.000000000000
174       0.000000000000
175       0.000000000000
176       0.000000000000
177       0.000000000000
178       0.000000000000
 Sym=     1a
 Ene=  2.36402650805133E+00
Spin= Alpha
 Occup= 0.016925
  1       0.000000000000
  2       0.000000000000
  3       0.000000000000
  4       0.000000000000
  5       0.000000000000
  6       0.000000000000
  7       0.000000000000
  8       0.000000000000
  9       0.000000000000
 10       0.000000000000
 11       0.000000000000
 12       0.000000000000
 13       0.000000000000
 14       0.000000000000
 15       0.000000000000
 16       0.000000000000
 17       0.000000000000
 18       0.000000000000
 19       0.000000000000
 20       0.000000000000
 21       0.000000000000
 22       0.000000000000
 23       0.000000000000
 24       0.000000000000
 25       0.000000000000
 26       0.000000000000
 27       0.000000000000
 28       0.000000000000
 29       0.000000000000
 30       0.000000000000
 31       0.000000000000
 32       0.000000000000
 33       0.000000000000
 34       0.000000000000
 35       0.000000000000
 36       0.000000000000
 37       0.000000000000
 38       0.000000000000
 39       0.000000000000
 40       0.000000000000
 41       0.000000000000
 42       0.000000000000
 43       0.000000000000
 44       0.000000000000
 45       0.000000000000
 46       0.000000000000
 47       0.000000000000
 48       0.000000000000
 49       0.000000000000
 50       0.000000000000
 51       0.000000000000
 52       0.000000000000
 53       0.000000000000
 54       0.000000000000
 55       0.000000000000
 56       0.000000000000
 57       0.000000000000
 58       0.000000000000
 59       0.000000000000
 60       0.000000000000
 61       0.000000000000
 62       0.000000000000
 63       0.000000000000
 64       0.000000000000
 65       0.000000000000
 66       0.000000000000
 67       0.000000000000
 68       0.000000000000
 69       0.000000000000
 70       0.000000000000
 71       0.000000000000
 72       0.000000000000
 73       0.000000000000
 74       0.000000000000
 75       0.000000000000
 76       0.000000000000
 77       0.000000000000
 78       0.000000000000
 79       0.000000000000
 80       0.000000000000
 81       0.000000000000
 82       0.000000000000
 83       0.000000000000
 84       0.000000000000
 85       0.000000000000
 86       0.000000000000
 87       0.000000000000
 88       0.000000000000
 89       0.000000000000
 90       0.000000000000
 91       0.000000000000
 92       0.000000000000
 93       0.000000000000
 94       1.000000000000
 95       0.000000000000
 96       0.000000000000
 97       0.000000000000
 98       0.000000000000
 99       0.000000000000
100       0.000000000000
101       0.000000000000
102       0.000000000000
103       0.000000000000
104       0.000000000000
105       0.000000000000
106       0.000000000000
107       0.000000000000
108       0.000000000000
109       0.000000000000
110       0.000000000000
111       0.000000000000
112       0.000000000000
113       0.000000000000
114       0.000000000000
115       0.000000000000
116       0.000000000000
117       0.000000000000
118       0.000000000000
119       0.000000000000
120       0.000000000000
121       0.000000000000
122       0.000000000000
123       0.000000000000
124       0.000000000000
125       0.000000000000
126       0.000000000000
127       0.000000000000
128       0.000000000000
129       0.000000000000
130       0.000000000000
131       0.000000000000
132       0.000000000000
133       0.000000000000
134       0.000000000000
135       0.000000000000
136       0.000000000000
137       0.000000000000
138       0.000000000000
139       0.000000000000
140       0.000000000000
141       0.000000000000
142       0.000000000000
143       0.000000000000
144       0.000000000000
145       0.000000000000
146       0.000000000000
147       0.000000000000
148       0.000000000000
149       0.000000000000
150       0.000000000000
151       0.000000000000
152       0.000000000000
153       0.000000000000
154       0.000000000000
155       0.000000000000
156       0.000000000000
157       0.000000000000
158       0.000000000000
159       0.000000000000
160       0.000000000000
161       0.000000000000
162       0.000000000000
163       0.000000000000
164       0.000000000000
165       0.000000000000
166       0.000000000000
167       0.000000000000
168       0.000000000000
169       0.000000000000
170       0.000000000000
171       0.000000000000
172       0.000000000000
173       0.000000000000
174       0.000000000000
175       0.000000000000
176       0.000000000000
177       0.000000000000
178       0.000000000000
 Sym=     1a
 Ene=  2.37708803897263E+00
Spin= Alpha
 Occup= 0.016925
  1       0.000000000000
  2       0.000000000000
  3       0.000000000000
  4       0.000000000000
  5       0.000000000000
  6       0.000000000000
  7       0.000000000000
  8       0.000000000000
  9       0.000000000000
 10       0.000000000000
 11       0.000000000000
 12       0.000000000000
 13       0.000000000000
 14       0.000000000000
 15       0.000000000000
 16       0.000000000000
 17       0.000000000000
 18       0.000000000000
 19       0.000000000000
 20       0.000000000000
 21       0.000000000000
 22       0.000000000000
 23       0.000000000000
 24       0.000000000000
 25       0.000000000000
 26       0.000000000000
 27       0.000000000000
 28       0.000000000000
 29       0.000000000000
 30       0.000000000000
 31       0.000000000000
 32       0.000000000000
 33       0.000000000000
 34       0.000000000000
 35       0.000000000000
 36       0.000000000000
 37       0.000000000000
 38       0.000000000000
 39       0.000000000000
 40       0.000000000000
 41       0.000000000000
 42       0.000000000000
 43       0.000000000000
 44       0.000000000000
 45       0.000000000000
 46       0.000000000000
 47       0.000000000000
 48       0.000000000000
 49       0.000000000000
 50       0.000000000000
 51       0.000000000000
 52       0.000000000000
 53       0.000000000000
 54       0.000000000000
 55       0.000000000000
 56       0.000000000000
 57       0.000000000000
 58       0.000000000000
 59       0.000000000000
 60       0.000000000000
 61       0.000000000000
 62       0.000000000000
 63       0.000000000000
 64       0.000000000000
 65       0.000000000000
 66       0.000000000000
 67       0.000000000000
 68       0.000000000000
 69       0.000000000000
 70       0.000000000000
 71       0.000000000000
 72       0.000000000000
 73       0.000000000000
 74       0.000000000000
 75       0.000000000000
 76       0.000000000000
 77       0.000000000000
 78       0.000000000000
 79       0.000000000000
 80       0.000000000000
 81       0.000000000000
 82       0.000000000000
 83       0.000000000000
 84       0.000000000000
 85       0.000000000000
 86       0.000000000000
 87       0.000000000000
 88       0.000000000000
 89       0.000000000000
 90       0.000000000000
 91       0.000000000000
 92       0.000000000000
 93       0.000000000000
 94       0.000000000000
 95       1.000000000000
 96       0.000000000000
 97       0.000000000000
 98       0.000000000000
 99       0.000000000000
100       0.000000000000
101       0.000000000000
102       0.000000000000
103       0.000000000000
104       0.000000000000
105       0.000000000000
106       0.000000000000
107       0.000000000000
108       0.000000000000
109       0.000000000000
110       0.000000000000
111       0.000000000000
112       0.000000000000
113       0.000000000000
114       0.000000000000
115       0.000000000000
116       0.000000000000
117       0.000000000000
118       0.000000000000
119       0.000000000000
120       0.000000000000
121       0.000000000000
122       0.000000000000
123       0.000000000000
124       0.000000000000
125       0.000000000000
126       0.000000000000
127       0.000000000000
128       0.000000000000
129       0.000000000000
130       0.000000000000
131       0.000000000000
132       0.000000000000
133       0.000000000000
134       0.000000000000
135       0.000000000000
136       0.000000000000
137       0.000000000000
138       0.000000000000
139       0.000000000000
140       0.000000000000
141       0.000000000000
142       0.000000000000
143       0.000000000000
144       0.000000000000
145       0.000000000000
146       0.000000000000
147       0.000000000000
148       0.000000000000
149       0.000000000000
150       0.000000000000
151       0.000000000000
152       0.000000000000
153       0.000000000000
154       0.000000000000
155       0.000000000000
156       0.000000000000
157       0.000000000000
158       0.000000000000
159       0.000000000000
160       0.000000000000
161       0.000000000000
162       0.000000000000
163       0.000000000000
164       0.000000000000
165       0.000000000000
166       0.000000000000
167       0.000000000000
168       0.000000000000
169       0.000000000000
170       0.000000000000
171       0.000000000000
172       0.000000000000
173       0.000000000000
174       0.000000000000
175       0.000000000000
176       0.000000000000
177       0.000000000000
178       0.000000000000
 Sym=     1a
 Ene=  2.25893322807345E+00
Spin= Alpha
 Occup= 0.016925
  1       0.000000000000
  2       0.000000000000
  3       0.000000000000
  4       0.000000000000
  5       0.000000000000
  6       0.000000000000
  7       0.000000000000
  8       0.000000000000
  9       0.000000000000
 10       0.000000000000
 11       0.000000000000
 12       0.000000000000
 13       0.000000000000
 14       0.000000000000
 15       0.000000000000
 16       0.000000000000
 17       0.000000000000
 18       0.000000000000
 19       0.000000000000
 20       0.000000000000
 21       0.000000000000
 22       0.000000000000
 23       0.000000000000
 24       0.000000000000
 25       0.000000000000
 26       0.000000000000
 27       0.000000000000
 28       0.000000000000
 29       0.000000000000
 30       0.000000000000
 31       0.000000000000
 32       0.000000000000
 33       0.000000000000
 34       0.000000000000
 35       0.000000000000
 36       0.000000000000
 37       0.000000000000
 38       0.000000000000
 39       0.000000000000
 40       0.000000000000
 41       0.000000000000
 42       0.000000000000
 43       0.000000000000
 44       0.000000000000
 45       0.000000000000
 46       0.000000000000
 47       0.000000000000
 48       0.000000000000
 49       0.000000000000
 50       0.000000000000
 51       0.000000000000
 52       0.000000000000
 53       0.000000000000
 54       0.000000000000
 55       0.000000000000
 56       0.000000000000
 57       0.000000000000
 58       0.000000000000
 59       0.000000000000
 60       0.000000000000
 61       0.000000000000
 62       0.000000000000
 63       0.000000000000
 64       0.000000000000
 65       0.000000000000
 66       0.000000000000
 67       0.000000000000
 68       0.000000000000
 69       0.000000000000
 70       0.000000000000
 71       0.000000000000
 72       0.000000000000
 73       0.000000000000
 74       0.000000000000
 75       0.000000000000
 76       0.000000000000
 77       0.000000000000
 78       0.000000000000
 79       0.000000000000
 80       0.000000000000
 81       0.000000000000
 82       0.000000000000
 83       0.000000000000
 84       0.000000000000
 85       0.000000000000
 86       0.000000000000
 87       0.000000000000
 88       0.000000000000
 89       0.000000000000
 90       0.000000000000
 91       0.000000000000
 92       0.000000000000
 93       0.000000000000
 94       0.000000000000
 95       0.000000000000
 96       1.000000000000
 97       0.000000000000
 98       0.000000000000
 99       0.000000000000
100       0.000000000000
101       0.000000000000
102       0.000000000000
103       0.000000000000
104       0.000000000000
105       0.000000000000
106       0.000000000000
107       0.000000000000
108       0.000000000000
109       0.000000000000
110       0.000000000000
111       0.000000000000
112       0.000000000000
113       0.000000000000
114       0.000000000000
115       0.000000000000
116       0.000000000000
117       0.000000000000
118       0.000000000000
119       0.000000000000
120       0.000000000000
121       0.000000000000
122       0.000000000000
123       0.000000000000
124       0.000000000000
125       0.000000000000
126       0.000000000000
127       0.000000000000
128       0.000000000000
129       0.000000000000
130       0.000000000000
131       0.000000000000
132       0.000000000000
133       0.000000000000
134       0.000000000000
135       0.000000000000
136       0.000000000000
137       0.000000000000
138       0.000000000000
139       0.000000000000
140       0.000000000000
141       0.000000000000
142       0.000000000000
143       0.000000000000
144       0.000000000000
145       0.000000000000
146       0.000000000000
147       0.000000000000
148       0.000000000000
149       0.000000000000
150       0.000000000000
151       0.000000000000
152       0.000000000000
153       0.000000000000
154       0.000000000000
155       0.000000000000
156       0.000000000000
157       0.000000000000
158       0.000000000000
159       0.000000000000
160       0.000000000000
161       0.000000000000
162       0.000000000000
163       0.000000000000
164       0.000000000000
165       0.000000000000
166       0.000000000000
167       0.000000000000
168       0.000000000000
169       0.000000000000
170       0.000000000000
171       0.000000000000
172       0.000000000000
173       0.000000000000
174       0.000000000000
175       0.000000000000
176       0.000000000000
177       0.000000000000
178       0.000000000000
 Sym=     1a
 Ene=  2.33081345390772E+00
Spin= Alpha
 Occup= 0.016925
  1       0.000000000000
  2       0.000000000000
  3       0.000000000000
  4       0.000000000000
  5       0.000000000000
  6       0.000000000000
  7       0.000000000000
  8       0.000000000000
  9       0.000000000000
 10       0.000000000000
 11       0.000000000000
 12       0.000000000000
 13       0.000000000000
 14       0.000000000000
 15       0.000000000000
 16       0.000000000000
 17       0.000000000000
 18       0.000000000000
 19       0.000000000000
 20       0.000000000000
 21       0.000000000000
 22       0.000000000000
 23       0.000000000000
 24       0.000000000000
 25       0.000000000000
 26       0.000000000000
 27       0.000000000000
 28       0.000000000000
 29       0.000000000000
 30       0.000000000000
 31       0.000000000000
 32       0.000000000000
 33       0.000000000000
 34       0.000000000000
 35       0.000000000000
 36       0.000000000000
 37       0.000000000000
 38       0.000000000000
 39       0.000000000000
 40       0.000000000000
 41       0.000000000000
 42       0.000000000000
 43       0.000000000000
 44       0.000000000000
 45       0.000000000000
 46       0.000000000000
 47       0.000000000000
 48       0.000000000000
 49       0.000000000000
 50       0.000000000000
 51       0.000000000000
 52       0.000000000000
 53       0.000000000000
 54       0.000000000000
 55       0.000000000000
 56       0.000000000000
 57       0.000000000000
 58       0.000000000000
 59       0.000000000000
 60       0.000000000000
 61       0.000000000000
 62       0.000000000000
 63       0.000000000000
 64       0.000000000000
 65       0.000000000000
 66       0.000000000000
 67       0.000000000000
 68       0.000000000000
 69       0.000000000000
 70       0.000000000000
 71       0.000000000000
 72       0.000000000000
 73       0.000000000000
 74       0.000000000000
 75       0.000000000000
 76       0.000000000000
 77       0.000000000000
 78       0.000000000000
 79       0.000000000000
 80       0.000000000000
 81       0.000000000000
 82       0.000000000000
 83       0.000000000000
 84       0.000000000000
 85       0.000000000000
 86       0.000000000000
 87       0.000000000000
 88       0.000000000000
 89       0.000000000000
 90       0.000000000000
 91       0.000000000000
 92       0.000000000000
 93       0.000000000000
 94       0.000000000000
 95       0.000000000000
 96       0.000000000000
 97       1.000000000000
 98       0.000000000000
 99       0.000000000000
100       0.000000000000
101       0.000000000000
102       0.000000000000
103       0.000000000000
104       0.000000000000
105       0.000000000000
106       0.000000000000
107       0.000000000000
108       0.000000000000
109       0.000000000000
110       0.000000000000
111       0.000000000000
112       0.000000000000
113       0.000000000000
114       0.000000000000
115       0.000000000000
116       0.000000000000
117       0.000000000000
118       0.000000000000
119       0.000000000000
120       0.000000000000
121       0.000000000000
122       0.000000000000
123       0.000000000000
124       0.000000000000
125       0.000000000000
126       0.000000000000
127       0.000000000000
128       0.000000000000
129       0.000000000000
130       0.000000000000
131       0.000000000000
132       0.000000000000
133       0.000000000000
134       0.000000000000
135       0.000000000000
136       0.000000000000
137       0.000000000000
138       0.000000000000
139       0.000000000000
140       0.000000000000
141       0.000000000000
142       0.000000000000
143       0.000000000000
144       0.000000000000
145       0.000000000000
146       0.000000000000
147       0.000000000000
148       0.000000000000
149       0.000000000000
150       0.000000000000
151       0.000000000000
152       0.000000000000
153       0.000000000000
154       0.000000000000
155       0.000000000000
156       0.000000000000
157       0.000000000000
158       0.000000000000
159       0.000000000000
160       0.000000000000
161       0.000000000000
162       0.000000000000
163       0.000000000000
164       0.000000000000
165       0.000000000000
166       0.000000000000
167       0.000000000000
168       0.000000000000
169       0.000000000000
170       0.000000000000
171       0.000000000000
172       0.000000000000
173       0.000000000000
174       0.000000000000
175       0.000000000000
176       0.000000000000
177       0.000000000000
178       0.000000000000
 Sym=     1a
 Ene=  2.36427230065236E+00
Spin= Alpha
 Occup= 0.016925
  1       0.000000000000
  2       0.000000000000
  3       0.000000000000
  4       0.000000000000
  5       0.000000000000
  6       0.000000000000
  7       0.000000000000
  8       0.000000000000
  9       0.000000000000
 10       0.000000000000
 11       0.000000000000
 12       0.000000000000
 13       0.000000000000
 14       0.000000000000
 15       0.000000000000
 16       0.000000000000
 17       0.000000000000
 18       0.000000000000
 19       0.000000000000
 20       0.000000000000
 21       0.000000000000
 22       0.000000000000
 23       0.000000000000
 24       0.000000000000
 25       0.000000000000
 26       0.000000000000
 27       0.000000000000
 28       0.000000000000
 29       0.000000000000
 30       0.000000000000
 31       0.000000000000
 32       0.000000000000
 33       0.000000000000
 34       0.000000000000
 35       0.000000000000
 36       0.000000000000
 37       0.000000000000
 38       0.000000000000
 39       0.000000000000
 40       0.000000000000
 41       0.000000000000
 42       0.000000000000
 43       0.000000000000
 44       0.000000000000
 45       0.000000000000
 46       0.000000000000
 47       0.000000000000
 48       0.000000000000
 49       0.000000000000
 50       0.000000000000
 51       0.000000000000
 52       0.000000000000
 53       0.000000000000
 54       0.000000000000
 55       0.000000000000
 56       0.000000000000
 57       0.000000000000
 58       0.000000000000
 59       0.000000000000
 60       0.000000000000
 61       0.000000000000
 62       0.000000000000
 63       0.000000000000
 64       0.000000000000
 65       0.000000000000
 66       0.000000000000
 67       0.000000000000
 68       0.000000000000
 69       0.000000000000
 70       0.000000000000
 71       0.000000000000
 72       0.000000000000
 73       0.000000000000
 74       0.000000000000
 75       0.000000000000
 76       0.000000000000
 77       0.000000000000
 78       0.000000000000
 79       0.000000000000
 80       0.000000000000
 81       0.000000000000
 82       0.000000000000
 83       0.000000000000
 84       0.000000000000
 85       0.000000000000
 86       0.000000000000
 87       0.000000000000
 88       0.000000000000
 89       0.000000000000
 90       0.000000000000
 91       0.000000000000
 92       0.000000000000
 93       0.000000000000
 94       0.000000000000
 95       0.000000000000
 96       0.000000000000
 97       0.000000000000
 98       1.000000000000
 99       0.000000000000
100       0.000000000000
101       0.000000000000
102       0.000000000000
103       0.000000000000
104       0.000000000000
105       0.000000000000
106       0.000000000000
107       0.000000000000
108       0.000000000000
109       0.000000000000
110       0.000000000000
111       0.000000000000
112       0.000000000000
113       0.000000000000
114       0.000000000000
115       0.000000000000
116       0.000000000000
117       0.000000000000
118       0.000000000000
119       0.000000000000
120       0.000000000000
121       0.000000000000
122       0.000000000000
123       0.000000000000
124       0.000000000000
125       0.000000000000
126       0.000000000000
127       0.000000000000
128       0.000000000000
129       0.000000000000
130       0.000000000000
131       0.000000000000
132       0.000000000000
133       0.000000000000
134       0.000000000000
135       0.000000000000
136       0.000000000000
137       0.000000000000
138       0.000000000000
139       0.000000000000
140       0.000000000000
141       0.000000000000
142       0.000000000000
143       0.000000000000
144       0.000000000000
145       0.000000000000
146       0.000000000000
147       0.000000000000
148       0.000000000000
149       0.000000000000
150       0.000000000000
151       0.000000000000
152       0.000000000000
153       0.000000000000
154       0.000000000000
155       0.000000000000
156       0.000000000000
157       0.000000000000
158       0.000000000000
159       0.000000000000
160       0.000000000000
161       0.000000000000
162       0.000000000000
163       0.000000000000
164       0.000000000000
165       0.000000000000
166       0.000000000000
167       0.000000000000
168       0.000000000000
169       0.000000000000
170       0.000000000000
171       0.000000000000
172       0.000000000000
173       0.000000000000
174       0.000000000000
175       0.000000000000
176       0.000000000000
177       0.000000000000
178       0.000000000000
 Sym=     1a
 Ene=  2.36654022900578E+00
Spin= Alpha
 Occup= 0.016925
  1       0.000000000000
  2       0.000000000000
  3       0.000000000000
  4       0.000000000000
  5       0.000000000000
  6       0.000000000000
  7       0.000000000000
  8       0.000000000000
  9       0.000000000000
 10       0.000000000000
 11       0.000000000000
 12       0.000000000000
 13       0.000000000000
 14       0.000000000000
 15       0.000000000000
 16       0.000000000000
 17       0.000000000000
 18       0.000000000000
 19       0.000000000000
 20       0.000000000000
 21       0.000000000000
 22       0.000000000000
 23       0.000000000000
 24       0.000000000000
 25       0.000000000000
 26       0.000000000000
 27       0.000000000000
 28       0.000000000000
 29       0.000000000000
 30       0.000000000000
 31       0.000000000000
 32       0.000000000000
 33       0.000000000000
 34       0.000000000000
 35       0.000000000000
 36       0.000000000000
 37       0.000000000000
 38       0.000000000000
 39       0.000000000000
 40       0.000000000000
 41       0.000000000000
 42       0.000000000000
 43       0.000000000000
 44       0.000000000000
 45       0.000000000000
 46       0.000000000000
 47       0.000000000000
 48       0.000000000000
 49       0.000000000000
 50       0.000000000000
 51       0.000000000000
 52       0.000000000000
 53       0.000000000000
 54       0.000000000000
 55       0.000000000000
 56       0.000000000000
 57       0.000000000000
 58       0.000000000000
 59       0.000000000000
 60       0.000000000000
 61       0.000000000000
 62       0.000000000000
 63       0.000000000000
 64       0.000000000000
 65       0.000000000000
 66       0.000000000000
 67       0.000000000000
 68       0.000000000000
 69       0.000000000000
 70       0.000000000000
 71       0.000000000000
 72       0.000000000000
 73       0.000000000000
 74       0.000000000000
 75       0.000000000000
 76       0.000000000000
 77       0.000000000000
 78       0.000000000000
 79       0.000000000000
 80       0.000000000000
 81       0.000000000000
 82       0.000000000000
 83       0.000000000000
 84       0.000000000000
 85       0.000000000000
 86       0.000000000000
 87       0.000000000000
 88       0.000000000000
 89       0.000000000000
 90       0.000000000000
 91       0.000000000000
 92       0.000000000000
 93       0.000000000000
 94       0.000000000000
 95       0.000000000000
 96       0.000000000000
 97       0.000000000000
 98       0.000000000000
 99       1.000000000000
100       0.000000000000
101       0.000000000000
102       0.000000000000
103       0.000000000000
104       0.000000000000
105       0.000000000000
106       0.000000000000
107       0.000000000000
108       0.000000000000
109       0.000000000000
110       0.000000000000
111       0.000000000000
112       0.000000000000
113       0.000000000000
114       0.000000000000
115       0.000000000000
116       0.000000000000
117       0.000000000000
118       0.000000000000
119       0.000000000000
120       0.000000000000
121       0.000000000000
122       0.000000000000
123       0.000000000000
124       0.000000000000
125       0.000000000000
126       0.000000000000
127       0.000000000000
128       0.000000000000
129       0.000000000000
130       0.000000000000
131       0.000000000000
132       0.000000000000
133       0.000000000000
134       0.000000000000
135       0.000000000000
136       0.000000000000
137       0.000000000000
138       0.000000000000
139       0.000000000000
140       0.000000000000
141       0.000000000000
142       0.000000000000
143       0.000000000000
144       0.000000000000
145       0.000000000000
146       0.000000000000
147       0.000000000000
148       0.000000000000
149       0.000000000000
150       0.000000000000
151       0.000000000000
152       0.000000000000
153       0.000000000000
154       0.000000000000
155       0.000000000000
156       0.000000000000
157       0.000000000000
158       0.000000000000
159       0.000000000000
160       0.000000000000
161       0.000000000000
162       0.000000000000
163       0.000000000000
164       0.000000000000
165       0.000000000000
166       0.000000000000
167       0.000000000000
168       0.000000000000
169       0.000000000000
170       0.000000000000
171       0.000000000000
172       0.000000000000
173       0.000000000000
174       0.000000000000
175       0.000000000000
176       0.000000000000
177       0.000000000000
178       0.000000000000
 Sym=     1a
 Ene=  2.00163047151388E+01
Spin= Alpha
 Occup= 0.000055
  1       0.000000000000
  2       0.000000000000
  3       0.000000000000
  4       0.000000000000
  5       0.000000000000
  6       0.000000000000
  7       0.000000000000
  8       0.000000000000
  9       0.000000000000
 10       0.000000000000
 11       0.000000000000
 12       0.000000000000
 13       0.000000000000
 14       0.000000000000
 15       0.000000000000
 16       0.000000000000
 17       0.000000000000
 18       0.000000000000
 19       0.000000000000
 20       0.000000000000
 21       0.000000000000
 22       0.000000000000
 23       0.000000000000
 24       0.000000000000
 25       0.000000000000
 26       0.000000000000
 27       0.000000000000
 28       0.000000000000
 29       0.000000000000
 30       0.000000000000
 31       0.000000000000
 32       0.000000000000
 33       0.000000000000
 34       0.000000000000
 35       0.000000000000
 36       0.000000000000
 37       0.000000000000
 38       0.000000000000
 39       0.000000000000
 40       0.000000000000
 41       0.000000000000
 42       0.000000000000
 43       0.000000000000
 44       0.000000000000
 45       0.000000000000
 46       0.000000000000
 47       0.000000000000
 48       0.000000000000
 49       0.000000000000
 50       0.000000000000
 51       0.000000000000
 52       0.000000000000
 53       0.000000000000
 54       0.000000000000
 55       0.000000000000
 56       0.000000000000
 57       0.000000000000
 58       0.000000000000
 59       0.000000000000
 60       0.000000000000
 61       0.000000000000
 62       0.000000000000
 63       0.000000000000
 64       0.000000000000
 65       0.000000000000
 66       0.000000000000
 67       0.000000000000
 68       0.000000000000
 69       0.000000000000
 70       0.000000000000
 71       0.000000000000
 72       0.000000000000
 73       0.000000000000
 74       0.000000000000
 75       0.000000000000
 76       0.000000000000
 77       0.000000000000
 78       0.000000000000
 79       0.000000000000
 80       0.000000000000
 81       0.000000000000
 82       0.000000000000
 83       0.000000000000
 84       0.000000000000
 85       0.000000000000
 86       0.000000000000
 87       0.000000000000
 88       0.000000000000
 89       0.000000000000
 90       0.000000000000
 91       0.000000000000
 92       0.000000000000
 93       0.000000000000
 94       0.000000000000
 95       0.000000000000
 96       0.000000000000
 97       0.000000000000
 98       0.000000000000
 99       0.000000000000
100      -1.371441531018
101       1.507767130665
102      -0.575193411471
103       0.213120067801
104      -0.037887592076
105       0.000000000000
106       0.000000000000
107       0.000000000000
108       0.000000000000
109       0.000000000000
110       0.000000000000
111       0.000000000000
112       0.000000000000
113       0.000000000000
114       0.000000000000
115       0.000000000000
116       0.000000000000
117       0.000000000000
118       0.000000000000
119       0.000000000000
120       0.000000000000
121       0.000000000000
122       0.000000000000
123       0.000000000000
124       0.000000000000
125       0.000000000000
126       0.000000000000
127       0.000000000000
128       0.000000000000
129       0.000000000000
130       0.000000000000
131       0.000000000000
132       0.000000000000
133       0.000000000000
134       0.000000000000
135       0.000000000000
136       0.000000000000
137       0.000000000000
138       0.000000000000
139       0.000000000000
140       0.000000000000
141       0.000000000000
142       0.000000000000
143       0.000000000000
144       0.000000000000
145       0.000000000000
146       0.000000000000
147       0.000000000000
148       0.000000000000
149       0.000000000000
150       0.000000000000
151       0.000000000000
152       0.000000000000
153       0.000000000000
154       0.000000000000
155       0.000000000000
156       0.000000000000
157       0.000000000000
158       0.000000000000
159       0.000000000000
160       0.000000000000
161       0.000000000000
162       0.000000000000
163       0.000000000000
164       0.000000000000
165       0.000000000000
166       0.000000000000
167       0.000000000000
168       0.000000000000
169       0.000000000000
170       0.000000000000
171       0.000000000000
172       0.000000000000
173       0.000000000000
174       0.000000000000
175       0.000000000000
176       0.000000000000
177       0.000000000000
178       0.000000000000
 Sym=     1a
 Ene=  1.99178167290495E+00
Spin= Alpha
 Occup= 0.027656
  1       0.000000000000
  2       0.000000000000
  3       0.000000000000
  4       0.000000000000
  5       0.000000000000
  6       0.000000000000
  7       0.000000000000
  8       0.000000000000
  9       0.000000000000
 10       0.000000000000
 11       0.000000000000
 12       0.000000000000
 13       0.000000000000
 14       0.000000000000
 15       0.000000000000
 16       0.000000000000
 17       0.000000000000
 18       0.000000000000
 19       0.000000000000
 20       0.000000000000
 21       0.000000000000
 22       0.000000000000
 23       0.000000000000
 24       0.000000000000
 25       0.000000000000
 26       0.000000000000
 27       0.000000000000
 28       0.000000000000
 29       0.000000000000
 30       0.000000000000
 31       0.000000000000
 32       0.000000000000
 33       0.000000000000
 34       0.000000000000
 35       0.000000000000
 36       0.000000000000
 37       0.000000000000
 38       0.000000000000
 39       0.000000000000
 40       0.000000000000
 41       0.000000000000
 42       0.000000000000
 43       0.000000000000
 44       0.000000000000
 45       0.000000000000
 46       0.000000000000
 47       0.000000000000
 48       0.000000000000
 49       0.000000000000
 50       0.000000000000
 51       0.000000000000
 52       0.000000000000
 53       0.000000000000
 54       0.000000000000
 55       0.000000000000
 56       0.000000000000
 57       0.000000000000
 58       0.000000000000
 59       0.000000000000
 60       0.000000000000
 61       0.000000000000
 62       0.000000000000
 63       0.000000000000
 64       0.000000000000
 65       0.000000000000
 66       0.000000000000
 67       0.000000000000
 68       0.000000000000
 69       0.000000000000
 70       0.000000000000
 71       0.000000000000
 72       0.000000000000
 73       0.000000000000
 74       0.000000000000
 75       0.000000000000
 76       0.000000000000
 77       0.000000000000
 78       0.000000000000
 79       0.000000000000
 80       0.000000000000
 81       0.000000000000
 82       0.000000000000
 83       0.000000000000
 84       0.000000000000
 85       0.000000000000
 86       0.000000000000
 87       0.000000000000
 88       0.000000000000
 89       0.000000000000
 90       0.000000000000
 91       0.000000000000
 92       0.000000000000
 93       0.000000000000
 94       0.000000000000
 95       0.000000000000
 96       0.000000000000
 97       0.000000000000
 98       0.000000000000
 99       0.000000000000
100      -0.172451924876
101       0.830673843113
102      -3.019120288831
103       3.381405004127
104      -1.156653559357
105       0.000000000000
106       0.000000000000
107       0.000000000000
108       0.000000000000
109       0.000000000000
110       0.000000000000
111       0.000000000000
112       0.000000000000
113       0.000000000000
114       0.000000000000
115       0.000000000000
116       0.000000000000
117       0.000000000000
118       0.000000000000
119       0.000000000000
120       0.000000000000
121       0.000000000000
122       0.000000000000
123       0.000000000000
124       0.000000000000
125       0.000000000000
126       0.000000000000
127       0.000000000000
128       0.000000000000
129       0.000000000000
130       0.000000000000
131       0.000000000000
132       0.000000000000
133       0.000000000000
134       0.000000000000
135       0.000000000000
136       0.000000000000
137       0.000000000000
138       0.000000000000
139       0.000000000000
140       0.000000000000
141       0.000000000000
142       0.000000000000
143       0.000000000000
144       0.000000000000
145       0.000000000000
146       0.000000000000
147       0.000000000000
148       0.000000000000
149       0.000000000000
150       0.000000000000
151       0.000000000000
152       0.000000000000
153       0.000000000000
154       0.000000000000
155       0.000000000000
156       0.000000000000
157       0.000000000000
158       0.000000000000
159       0.000000000000
160       0.000000000000
161       0.000000000000
162       0.000000000000
163       0.000000000000
164       0.000000000000
165       0.000000000000
166       0.000000000000
167       0.000000000000
168       0.000000000000
169       0.000000000000
170       0.000000000000
171       0.000000000000
172       0.000000000000
173       0.000000000000
174       0.000000000000
175       0.000000000000
176       0.000000000000
177       0.000000000000
178       0.000000000000
 Sym=     1a
 Ene= -9.35402119386577E-02
Spin= Alpha
 Occup= 0.397975
  1       0.000000000000
  2       0.000000000000
  3       0.000000000000
  4       0.000000000000
  5       0.000000000000
  6       0.000000000000
  7       0.000000000000
  8       0.000000000000
  9       0.000000000000
 10       0.000000000000
 11       0.000000000000
 12       0.000000000000
 13       0.000000000000
 14       0.000000000000
 15       0.000000000000
 16       0.000000000000
 17       0.000000000000
 18       0.000000000000
 19       0.000000000000
 20       0.000000000000
 21       0.000000000000
 22       0.000000000000
 23       0.000000000000
 24       0.000000000000
 25       0.000000000000
 26       0.000000000000
 27       0.000000000000
 28       0.000000000000
 29       0.000000000000
 30       0.000000000000
 31       0.000000000000
 32       0.000000000000
 33       0.000000000000
 34       0.000000000000
 35       0.000000000000
 36       0.000000000000
 37       0.000000000000
 38       0.000000000000
 39       0.000000000000
 40       0.000000000000
 41       0.000000000000
 42       0.000000000000
 43       0.000000000000
 44       0.000000000000
 45       0.000000000000
 46       0.000000000000
 47       0.000000000000
 48       0.000000000000
 49       0.000000000000
 50       0.000000000000
 51       0.000000000000
 52       0.000000000000
 53       0.000000000000
 54       0.000000000000
 55       0.000000000000
 56       0.000000000000
 57       0.000000000000
 58       0.000000000000
 59       0.000000000000
 60       0.000000000000
 61       0.000000000000
 62       0.000000000000
 63       0.000000000000
 64       0.000000000000
 65       0.000000000000
 66       0.000000000000
 67       0.000000000000
 68       0.000000000000
 69       0.000000000000
 70       0.000000000000
 71       0.000000000000
 72       0.000000000000
 73       0.000000000000
 74       0.000000000000
 75       0.000000000000
 76       0.000000000000
 77       0.000000000000
 78       0.000000000000
 79       0.000000000000
 80       0.000000000000
 81       0.000000000000
 82       0.000000000000
 83       0.000000000000
 84       0.000000000000
 85       0.000000000000
 86       0.000000000000
 87       0.000000000000
 88       0.000000000000
 89       0.000000000000
 90       0.000000000000
 91       0.000000000000
 92       0.000000000000
 93       0.000000000000
 94       0.000000000000
 95       0.000000000000
 96       0.000000000000
 97       0.000000000000
 98       0.000000000000
 99       0.000000000000
100       0.083980462496
101      -0.063017401206
102       0.818439409171
103      -2.839704785183
104       2.440083409305
105       0.000000000000
106       0.000000000000
107       0.000000000000
108       0.000000000000
109       0.000000000000
110       0.000000000000
111       0.000000000000
112       0.000000000000
113       0.000000000000
114       0.000000000000
115       0.000000000000
116       0.000000000000
117       0.000000000000
118       0.000000000000
119       0.000000000000
120       0.000000000000
121       0.000000000000
122       0.000000000000
123       0.000000000000
124       0.000000000000
125       0.000000000000
126       0.000000000000
127       0.000000000000
128       0.000000000000
129       0.000000000000
130       0.000000000000
131       0.000000000000
132       0.000000000000
133       0.000000000000
134       0.000000000000
135       0.000000000000
136       0.000000000000
137       0.000000000000
138       0.000000000000
139       0.000000000000
140       0.000000000000
141       0.000000000000
142       0.000000000000
143       0.000000000000
144       0.000000000000
145       0.000000000000
146       0.000000000000
147       0.000000000000
148       0.000000000000
149       0.000000000000
150       0.000000000000
151       0.000000000000
152       0.000000000000
153       0.000000000000
154       0.000000000000
155       0.000000000000
156       0.000000000000
157       0.000000000000
158       0.000000000000
159       0.000000000000
160       0.000000000000
161       0.000000000000
162       0.000000000000
163       0.000000000000
164       0.000000000000
165       0.000000000000
166       0.000000000000
167       0.000000000000
168       0.000000000000
169       0.000000000000
170       0.000000000000
171       0.000000000000
172       0.000000000000
173       0.000000000000
174       0.000000000000
175       0.000000000000
176       0.000000000000
177       0.000000000000
178       0.000000000000
 Sym=     1a
 Ene= -1.02651166743340E+00
Spin= Alpha
 Occup= 1.925413
  1       0.000000000000
  2       0.000000000000
  3       0.000000000000
  4       0.000000000000
  5       0.000000000000
  6       0.000000000000
  7       0.000000000000
  8       0.000000000000
  9       0.000000000000
 10       0.000000000000
 11       0.000000000000
 12       0.000000000000
 13       0.000000000000
 14       0.000000000000
 15       0.000000000000
 16       0.000000000000
 17       0.000000000000
 18       0.000000000000
 19       0.000000000000
 20       0.000000000000
 21       0.000000000000
 22       0.000000000000
 23       0.000000000000
 24       0.000000000000
 25       0.000000000000
 26       0.000000000000
 27       0.000000000000
 28       0.000000000000
 29       0.000000000000
 30       0.000000000000
 31       0.000000000000
 32       0.000000000000
 33       0.000000000000
 34       0.000000000000
 35       0.000000000000
 36       0.000000000000
 37       0.000000000000
 38       0.000000000000
 39       0.000000000000
 40       0.000000000000
 41       0.000000000000
 42       0.000000000000
 43       0.000000000000
 44       0.000000000000
 45       0.000000000000
 46       0.000000000000
 47       0.000000000000
 48       0.000000000000
 49       0.000000000000
 50       0.000000000000
 51       0.000000000000
 52       0.000000000000
 53       0.000000000000
 54       0.000000000000
 55       0.000000000000
 56       0.000000000000
 57       0.000000000000
 58       0.000000000000
 59       0.000000000000
 60       0.000000000000
 61       0.000000000000
 62       0.000000000000
 63       0.000000000000
 64       0.000000000000
 65       0.000000000000
 66       0.000000000000
 67       0.000000000000
 68       0.000000000000
 69       0.000000000000
 70       0.000000000000
 71       0.000000000000
 72       0.000000000000
 73       0.000000000000
 74       0.000000000000
 75       0.000000000000
 76       0.000000000000
 77       0.000000000000
 78       0.000000000000
 79       0.000000000000
 80       0.000000000000
 81       0.000000000000
 82       0.000000000000
 83       0.000000000000
 84       0.000000000000
 85       0.000000000000
 86       0.000000000000
 87       0.000000000000
 88       0.000000000000
 89       0.000000000000
 90       0.000000000000
 91       0.000000000000
 92       0.000000000000
 93       0.000000000000
 94       0.000000000000
 95       0.000000000000
 96       0.000000000000
 97       0.000000000000
 98       0.000000000000
 99       0.000000000000
100       0.099340435972
101       0.184132839912
102      -0.087877601394
103      -0.873215061057
104      -0.099097676729
105       0.000000000000
106       0.000000000000
107       0.000000000000
108       0.000000000000
109       0.000000000000
110       0.000000000000
111       0.000000000000
112       0.000000000000
113       0.000000000000
114       0.000000000000
115       0.000000000000
116       0.000000000000
117       0.000000000000
118       0.000000000000
119       0.000000000000
120       0.000000000000
121       0.000000000000
122       0.000000000000
123       0.000000000000
124       0.000000000000
125       0.000000000000
126       0.000000000000
127       0.000000000000
128       0.000000000000
129       0.000000000000
130       0.000000000000
131       0.000000000000
132       0.000000000000
133       0.000000000000
134       0.000000000000
135       0.000000000000
136       0.000000000000
137       0.000000000000
138       0.000000000000
139       0.000000000000
140       0.000000000000
141       0.000000000000
142       0.000000000000
143       0.000000000000
144       0.000000000000
145       0.000000000000
146       0.000000000000
147       0.000000000000
148       0.000000000000
149       0.000000000000
150       0.000000000000
151       0.000000000000
152       0.000000000000
153       0.000000000000
154       0.000000000000
155       0.000000000000
156       0.000000000000
157       0.000000000000
158       0.000000000000
159       0.000000000000
160       0.000000000000
161       0.000000000000
162       0.000000000000
163       0.000000000000
164       0.000000000000
165       0.000000000000
166       0.000000000000
167       0.000000000000
168       0.000000000000
169       0.000000000000
170       0.000000000000
171       0.000000000000
172       0.000000000000
173       0.000000000000
174       0.000000000000
175       0.000000000000
176       0.000000000000
177       0.000000000000
178       0.000000000000
 Sym=     1a
 Ene= -1.04895185385684E+01
Spin= Alpha
 Occup= 1.999989
  1       0.000000000000
  2       0.000000000000
  3       0.000000000000
  4       0.000000000000
  5       0.000000000000
  6       0.000000000000
  7       0.000000000000
  8       0.000000000000
  9       0.000000000000
 10       0.000000000000
 11       0.000000000000
 12       0.000000000000
 13       0.000000000000
 14       0.000000000000
 15       0.000000000000
 16       0.000000000000
 17       0.000000000000
 18       0.000000000000
 19       0.000000000000
 20       0.000000000000
 21       0.000000000000
 22       0.000000000000
 23       0.000000000000
 24       0.000000000000
 25       0.000000000000
 26       0.000000000000
 27       0.000000000000
 28       0.000000000000
 29       0.000000000000
 30       0.000000000000
 31       0.000000000000
 32       0.000000000000
 33       0.000000000000
 34       0.000000000000
 35       0.000000000000
 36       0.000000000000
 37       0.000000000000
 38       0.000000000000
 39       0.000000000000
 40       0.000000000000
 41       0.000000000000
 42       0.000000000000
 43       0.000000000000
 44       0.000000000000
 45       0.000000000000
 46       0.000000000000
 47       0.000000000000
 48       0.000000000000
 49       0.000000000000
 50       0.000000000000
 51       0.000000000000
 52       0.000000000000
 53       0.000000000000
 54       0.000000000000
 55       0.000000000000
 56       0.000000000000
 57       0.000000000000
 58       0.000000000000
 59       0.000000000000
 60       0.000000000000
 61       0.000000000000
 62       0.000000000000
 63       0.000000000000
 64       0.000000000000
 65       0.000000000000
 66       0.000000000000
 67       0.000000000000
 68       0.000000000000
 69       0.000000000000
 70       0.000000000000
 71       0.000000000000
 72       0.000000000000
 73       0.000000000000
 74       0.000000000000
 75       0.000000000000
 76       0.000000000000
 77       0.000000000000
 78       0.000000000000
 79       0.000000000000
 80       0.000000000000
 81       0.000000000000
 82       0.000000000000
 83       0.000000000000
 84       0.000000000000
 85       0.000000000000
 86       0.000000000000
 87       0.000000000000
 88       0.000000000000
 89       0.000000000000
 90       0.000000000000
 91       0.000000000000
 92       0.000000000000
 93       0.000000000000
 94       0.000000000000
 95       0.000000000000
 96       0.000000000000
 97       0.000000000000
 98       0.000000000000
 99       0.000000000000
100       0.467321125594
101       0.609873172990
102       0.031273941891
103      -0.018871486333
104       0.005871496080
105       0.000000000000
106       0.000000000000
107       0.000000000000
108       0.000000000000
109       0.000000000000
110       0.000000000000
111       0.000000000000
112       0.000000000000
113       0.000000000000
114       0.000000000000
115       0.000000000000
116       0.000000000000
117       0.000000000000
118       0.000000000000
119       0.000000000000
120       0.000000000000
121       0.000000000000
122       0.000000000000
123       0.000000000000
124       0.000000000000
125       0.000000000000
126       0.000000000000
127       0.000000000000
128       0.000000000000
129       0.000000000000
130       0.000000000000
131       0.000000000000
132       0.000000000000
133       0.000000000000
134       0.000000000000
135       0.000000000000
136       0.000000000000
137       0.000000000000
138       0.000000000000
139       0.000000000000
140       0.000000000000
141       0.000000000000
142       0.000000000000
143       0.000000000000
144       0.000000000000
145       0.000000000000
146       0.000000000000
147       0.000000000000
148       0.000000000000
149       0.000000000000
150       0.000000000000
151       0.000000000000
152       0.000000000000
153       0.000000000000
154       0.000000000000
155       0.000000000000
156       0.000000000000
157       0.000000000000
158       0.000000000000
159       0.000000000000
160       0.000000000000
161       0.000000000000
162       0.000000000000
163       0.000000000000
164       0.000000000000
165       0.000000000000
166       0.000000000000
167       0.000000000000
168       0.000000000000
169       0.000000000000
170       0.000000000000
171       0.000000000000
172       0.000000000000
173       0.000000000000
174       0.000000000000
175       0.000000000000
176       0.000000000000
177       0.000000000000
178       0.000000000000
 Sym=     1a
 Ene=  1.13060913893140E+00
Spin= Alpha
 Occup= 0.015778
  1       0.000000000000
  2       0.000000000000
  3       0.000000000000
  4       0.000000000000
  5       0.000000000000
  6       0.000000000000
  7       0.000000000000
  8       0.000000000000
  9       0.000000000000
 10       0.000000000000
 11       0.000000000000
 12       0.000000000000
 13       0.000000000000
 14       0.000000000000
 15       0.000000000000
 16       0.000000000000
 17       0.000000000000
 18       0.000000000000
 19       0.000000000000
 20       0.000000000000
 21       0.000000000000
 22       0.000000000000
 23       0.000000000000
 24       0.000000000000
 25       0.000000000000
 26       0.000000000000
 27       0.000000000000
 28       0.000000000000
 29       0.000000000000
 30       0.000000000000
 31       0.000000000000
 32       0.000000000000
 33       0.000000000000
 34       0.000000000000
 35       0.000000000000
 36       0.000000000000
 37       0.000000000000
 38       0.000000000000
 39       0.000000000000
 40       0.000000000000
 41       0.000000000000
 42       0.000000000000
 43       0.000000000000
 44       0.000000000000
 45       0.000000000000
 46       0.000000000000
 47       0.000000000000
 48       0.000000000000
 49       0.000000000000
 50       0.000000000000
 51       0.000000000000
 52       0.000000000000
 53       0.000000000000
 54       0.000000000000
 55       0.000000000000
 56       0.000000000000
 57       0.000000000000
 58       0.000000000000
 59       0.000000000000
 60       0.000000000000
 61       0.000000000000
 62       0.000000000000
 63       0.000000000000
 64       0.000000000000
 65       0.000000000000
 66       0.000000000000
 67       0.000000000000
 68       0.000000000000
 69       0.000000000000
 70       0.000000000000
 71       0.000000000000
 72       0.000000000000
 73       0.000000000000
 74       0.000000000000
 75       0.000000000000
 76       0.000000000000
 77       0.000000000000
 78       0.000000000000
 79       0.000000000000
 80       0.000000000000
 81       0.000000000000
 82       0.000000000000
 83       0.000000000000
 84       0.000000000000
 85       0.000000000000
 86       0.000000000000
 87       0.000000000000
 88       0.000000000000
 89       0.000000000000
 90       0.000000000000
 91       0.000000000000
 92       0.000000000000
 93       0.000000000000
 94       0.000000000000
 95       0.000000000000
 96       0.000000000000
 97       0.000000000000
 98       0.000000000000
 99       0.000000000000
100       0.000000000000
101       0.000000000000
102       0.000000000000
103       0.000000000000
104       0.000000000000
105      -1.345056703200
106       0.000000000000
107       0.000000000000
108       1.331429361800
109       0.000000000000
110       0.000000000000
111      -0.431603954330
112       0.000000000000
113       0.000000000000
114       0.000000000000
115       0.000000000000
116       0.000000000000
117       0.000000000000
118       0.000000000000
119       0.000000000000
120       0.000000000000
121       0.000000000000
122       0.000000000000
123       0.000000000000
124       0.000000000000
125       0.000000000000
126       0.000000000000
127       0.000000000000
128       0.000000000000
129       0.000000000000
130       0.000000000000
131       0.000000000000
132       0.000000000000
133       0.000000000000
134       0.000000000000
135       0.000000000000
136       0.000000000000
137       0.000000000000
138       0.000000000000
139       0.000000000000
140       0.000000000000
141       0.000000000000
142       0.000000000000
143       0.000000000000
144       0.000000000000
145       0.000000000000
146       0.000000000000
147       0.000000000000
148       0.000000000000
149       0.000000000000
150       0.000000000000
151       0.000000000000
152       0.000000000000
153       0.000000000000
154       0.000000000000
155       0.000000000000
156       0.000000000000
157       0.000000000000
158       0.000000000000
159       0.000000000000
160       0.000000000000
161       0.000000000000
162       0.000000000000
163       0.000000000000
164       0.000000000000
165       0.000000000000
166       0.000000000000
167       0.000000000000
168       0.000000000000
169       0.000000000000
170       0.000000000000
171       0.000000000000
172       0.000000000000
173       0.000000000000
174       0.000000000000
175       0.000000000000
176       0.000000000000
177       0.000000000000
178       0.000000000000
 Sym=     1a
 Ene=  1.12776817814251E+00
Spin= Alpha
 Occup= 0.015778
  1       0.000000000000
  2       0.000000000000
  3       0.000000000000
  4       0.000000000000
  5       0.000000000000
  6       0.000000000000
  7       0.000000000000
  8       0.000000000000
  9       0.000000000000
 10       0.000000000000
 11       0.000000000000
 12       0.000000000000
 13       0.000000000000
 14       0.000000000000
 15       0.000000000000
 16       0.000000000000
 17       0.000000000000
 18       0.000000000000
 19       0.000000000000
 20       0.000000000000
 21       0.000000000000
 22       0.000000000000
 23       0.000000000000
 24       0.000000000000
 25       0.000000000000
 26       0.000000000000
 27       0.000000000000
 28       0.000000000000
 29       0.000000000000
 30       0.000000000000
 31       0.000000000000
 32       0.000000000000
 33       0.000000000000
 34       0.000000000000
 35       0.000000000000
 36       0.000000000000
 37       0.000000000000
 38       0.000000000000
 39       0.000000000000
 40       0.000000000000
 41       0.000000000000
 42       0.000000000000
 43       0.000000000000
 44       0.000000000000
 45       0.000000000000
 46       0.000000000000
 47       0.000000000000
 48       0.000000000000
 49       0.000000000000
 50       0.000000000000
 51       0.000000000000
 52       0.000000000000
 53       0.000000000000
 54       0.000000000000
 55       0.000000000000
 56       0.000000000000
 57       0.000000000000
 58       0.000000000000
 59       0.000000000000
 60       0.000000000000
 61       0.000000000000
 62       0.000000000000
 63       0.000000000000
 64       0.000000000000
 65       0.000000000000
 66       0.000000000000
 67       0.000000000000
 68       0.000000000000
 69       0.000000000000
 70       0.000000000000
 71       0.000000000000
 72       0.000000000000
 73       0.000000000000
 74       0.000000000000
 75       0.000000000000
 76       0.000000000000
 77       0.000000000000
 78       0.000000000000
 79       0.000000000000
 80       0.000000000000
 81       0.000000000000
 82       0.000000000000
 83       0.000000000000
 84       0.000000000000
 85       0.000000000000
 86       0.000000000000
 87       0.000000000000
 88       0.000000000000
 89       0.000000000000
 90       0.000000000000
 91       0.000000000000
 92       0.000000000000
 93       0.000000000000
 94       0.000000000000
 95       0.000000000000
 96       0.000000000000
 97       0.000000000000
 98       0.000000000000
 99       0.000000000000
100       0.000000000000
101       0.000000000000
102       0.000000000000
103       0.000000000000
104       0.000000000000
105       0.000000000000
106      -1.345056703200
107       0.000000000000
108       0.000000000000
109       1.331429361800
110       0.000000000000
111       0.000000000000
112      -0.431603954330
113       0.000000000000
114       0.000000000000
115       0.000000000000
116       0.000000000000
117       0.000000000000
118       0.000000000000
119       0.000000000000
120       0.000000000000
121       0.000000000000
122       0.000000000000
123       0.000000000000
124       0.000000000000
125       0.000000000000
126       0.000000000000
127       0.000000000000
128       0.000000000000
129       0.000000000000
130       0.000000000000
131       0.000000000000
132       0.000000000000
133       0.000000000000
134       0.000000000000
135       0.000000000000
136       0.000000000000
137       0.000000000000
138       0.000000000000
139       0.000000000000
140       0.000000000000
141       0.000000000000
142       0.000000000000
143       0.000000000000
144       0.000000000000
145       0.000000000000
146       0.000000000000
147       0.000000000000
148       0.000000000000
149       0.000000000000
150       0.000000000000
151       0.000000000000
152       0.000000000000
153       0.000000000000
154       0.000000000000
155       0.000000000000
156       0.000000000000
157       0.000000000000
158       0.000000000000
159       0.000000000000
160       0.000000000000
161       0.000000000000
162       0.000000000000
163       0.000000000000
164       0.000000000000
165       0.000000000000
166       0.000000000000
167       0.000000000000
168       0.000000000000
169       0.000000000000
170       0.000000000000
171       0.000000000000
172       0.000000000000
173       0.000000000000
174       0.000000000000
175       0.000000000000
176       0.000000000000
177       0.000000000000
178       0.000000000000
 Sym=     1a
 Ene=  1.05403731910993E+00
Spin= Alpha
 Occup= 0.015778
  1       0.000000000000
  2       0.000000000000
  3       0.000000000000
  4       0.000000000000
  5       0.000000000000
  6       0.000000000000
  7       0.000000000000
  8       0.000000000000
  9       0.000000000000
 10       0.000000000000
 11       0.000000000000
 12       0.000000000000
 13       0.000000000000
 14       0.000000000000
 15       0.000000000000
 16       0.000000000000
 17       0.000000000000
 18       0.000000000000
 19       0.000000000000
 20       0.000000000000
 21       0.000000000000
 22       0.000000000000
 23       0.000000000000
 24       0.000000000000
 25       0.000000000000
 26       0.000000000000
 27       0.000000000000
 28       0.000000000000
 29       0.000000000000
 30       0.000000000000
 31       0.000000000000
 32       0.000000000000
 33       0.000000000000
 34       0.000000000000
 35       0.000000000000
 36       0.000000000000
 37       0.000000000000
 38       0.000000000000
 39       0.000000000000
 40       0.000000000000
 41       0.000000000000
 42       0.000000000000
 43       0.000000000000
 44       0.000000000000
 45       0.000000000000
 46       0.000000000000
 47       0.000000000000
 48       0.000000000000
 49       0.000000000000
 50       0.000000000000
 51       0.000000000000
 52       0.000000000000
 53       0.000000000000
 54       0.000000000000
 55       0.000000000000
 56       0.000000000000
 57       0.000000000000
 58       0.000000000000
 59       0.000000000000
 60       0.000000000000
 61       0.000000000000
 62       0.000000000000
 63       0.000000000000
 64       0.000000000000
 65       0.000000000000
 66       0.000000000000
 67       0.000000000000
 68       0.000000000000
 69       0.000000000000
 70       0.000000000000
 71       0.000000000000
 72       0.000000000000
 73       0.000000000000
 74       0.000000000000
 75       0.000000000000
 76       0.000000000000
 77       0.000000000000
 78       0.000000000000
 79       0.000000000000
 80       0.000000000000
 81       0.000000000000
 82       0.000000000000
 83       0.000000000000
 84       0.000000000000
 85       0.000000000000
 86       0.000000000000
 87       0.000000000000
 88       0.000000000000
 89       0.000000000000
 90       0.000000000000
 91       0.000000000000
 92       0.000000000000
 93       0.000000000000
 94       0.000000000000
 95       0.000000000000
 96       0.000000000000
 97       0.000000000000
 98       0.000000000000
 99       0.000000000000
100       0.000000000000
101       0.000000000000
102       0.000000000000
103       0.000000000000
104       0.000000000000
105       0.000000000000
106       0.000000000000
107      -1.345056703200
108       0.000000000000
109       0.000000000000
110       1.331429361800
111       0.000000000000
112       0.000000000000
113      -0.431603954330
114       0.000000000000
115       0.000000000000
116       0.000000000000
117       0.000000000000
118       0.000000000000
119       0.000000000000
120       0.000000000000
121       0.000000000000
122       0.000000000000
123       0.000000000000
124       0.000000000000
125       0.000000000000
126       0.000000000000
127       0.000000000000
128       0.000000000000
129       0.000000000000
130       0.000000000000
131       0.000000000000
132       0.000000000000
133       0.000000000000
134       0.000000000000
135       0.000000000000
136       0.000000000000
137       0.000000000000
138       0.000000000000
139       0.000000000000
140       0.000000000000
141       0.000000000000
142       0.000000000000
143       0.000000000000
144       0.000000000000
145       0.000000000000
146       0.000000000000
147       0.000000000000
148       0.000000000000
149       0.000000000000
150       0.000000000000
151       0.000000000000
152       0.000000000000
153       0.000000000000
154       0.000000000000
155       0.000000000000
156       0.000000000000
157       0.000000000000
158       0.000000000000
159       0.000000000000
160       0.000000000000
161       0.000000000000
162       0.000000000000
163       0.000000000000
164       0.000000000000
165       0.000000000000
166       0.000000000000
167       0.000000000000
168       0.000000000000
169       0.000000000000
170       0.000000000000
171       0.000000000000
172       0.000000000000
173       0.000000000000
174       0.000000000000
175       0.000000000000
176       0.000000000000
177       0.000000000000
178       0.000000000000
 Sym=     1a
 Ene=  3.51372181270622E-02
Spin= Alpha
 Occup= 0.331330
  1       0.000000000000
  2       0.000000000000
  3       0.000000000000
  4       0.000000000000
  5       0.000000000000
  6       0.000000000000
  7       0.000000000000
  8       0.000000000000
  9       0.000000000000
 10       0.000000000000
 11       0.000000000000
 12       0.000000000000
 13       0.000000000000
 14       0.000000000000
 15       0.000000000000
 16       0.000000000000
 17       0.000000000000
 18       0.000000000000
 19       0.000000000000
 20       0.000000000000
 21       0.000000000000
 22       0.000000000000
 23       0.000000000000
 24       0.000000000000
 25       0.000000000000
 26       0.000000000000
 27       0.000000000000
 28       0.000000000000
 29       0.000000000000
 30       0.000000000000
 31       0.000000000000
 32       0.000000000000
 33       0.000000000000
 34       0.000000000000
 35       0.000000000000
 36       0.000000000000
 37       0.000000000000
 38       0.000000000000
 39       0.000000000000
 40       0.000000000000
 41       0.000000000000
 42       0.000000000000
 43       0.000000000000
 44       0.000000000000
 45       0.000000000000
 46       0.000000000000
 47       0.000000000000
 48       0.000000000000
 49       0.000000000000
 50       0.000000000000
 51       0.000000000000
 52       0.000000000000
 53       0.000000000000
 54       0.000000000000
 55       0.000000000000
 56       0.000000000000
 57       0.000000000000
 58       0.000000000000
 59       0.000000000000
 60       0.000000000000
 61       0.000000000000
 62       0.000000000000
 63       0.000000000000
 64       0.000000000000
 65       0.000000000000
 66       0.000000000000
 67       0.000000000000
 68       0.000000000000
 69       0.000000000000
 70       0.000000000000
 71       0.000000000000
 72       0.000000000000
 73       0.000000000000
 74       0.000000000000
 75       0.000000000000
 76       0.000000000000
 77       0.000000000000
 78       0.000000000000
 79       0.000000000000
 80       0.000000000000
 81       0.000000000000
 82       0.000000000000
 83       0.000000000000
 84       0.000000000000
 85       0.000000000000
 86       0.000000000000
 87       0.000000000000
 88       0.000000000000
 89       0.000000000000
 90       0.000000000000
 91       0.000000000000
 92       0.000000000000
 93       0.000000000000
 94       0.000000000000
 95       0.000000000000
 96       0.000000000000
 97       0.000000000000
 98       0.000000000000
 99       0.000000000000
100       0.000000000000
101       0.000000000000
102       0.000000000000
103       0.000000000000
104       0.000000000000
105       0.074836303160
106       0.000000000000
107       0.000000000000
108      -1.178374568160
109       0.000000000000
110       0.000000000000
111       1.456156176443
112       0.000000000000
113       0.000000000000
114       0.000000000000
115       0.000000000000
116       0.000000000000
117       0.000000000000
118       0.000000000000
119       0.000000000000
120       0.000000000000
121       0.000000000000
122       0.000000000000
123       0.000000000000
124       0.000000000000
125       0.000000000000
126       0.000000000000
127       0.000000000000
128       0.000000000000
129       0.000000000000
130       0.000000000000
131       0.000000000000
132       0.000000000000
133       0.000000000000
134       0.000000000000
135       0.000000000000
136       0.000000000000
137       0.000000000000
138       0.000000000000
139       0.000000000000
140       0.000000000000
141       0.000000000000
142       0.000000000000
143       0.000000000000
144       0.000000000000
145       0.000000000000
146       0.000000000000
147       0.000000000000
148       0.000000000000
149       0.000000000000
150       0.000000000000
151       0.000000000000
152       0.000000000000
153       0.000000000000
154       0.000000000000
155       0.000000000000
156       0.000000000000
157       0.000000000000
158       0.000000000000
159       0.000000000000
160       0.000000000000
161       0.000000000000
162       0.000000000000
163       0.000000000000
164       0.000000000000
165       0.000000000000
166       0.000000000000
167       0.000000000000
168       0.000000000000
169       0.000000000000
170       0.000000000000
171       0.000000000000
172       0.000000000000
173       0.000000000000
174       0.000000000000
175       0.000000000000
176       0.000000000000
177       0.000000000000
178       0.000000000000
 Sym=     1a
 Ene=  8.71098220097194E-02
Spin= Alpha
 Occup= 0.331330
  1       0.000000000000
  2       0.000000000000
  3       0.000000000000
  4       0.000000000000
  5       0.000000000000
  6       0.000000000000
  7       0.000000000000
  8       0.000000000000
  9       0.000000000000
 10       0.000000000000
 11       0.000000000000
 12       0.000000000000
 13       0.000000000000
 14       0.000000000000
 15       0.000000000000
 16       0.000000000000
 17       0.000000000000
 18       0.000000000000
 19       0.000000000000
 20       0.000000000000
 21       0.000000000000
 22       0.000000000000
 23       0.000000000000
 24       0.000000000000
 25       0.000000000000
 26       0.000000000000
 27       0.000000000000
 28       0.000000000000
 29       0.000000000000
 30       0.000000000000
 31       0.000000000000
 32       0.000000000000
 33       0.000000000000
 34       0.000000000000
 35       0.000000000000
 36       0.000000000000
 37       0.000000000000
 38       0.000000000000
 39       0.000000000000
 40       0.000000000000
 41       0.000000000000
 42       0.000000000000
 43       0.000000000000
 44       0.000000000000
 45       0.000000000000
 46       0.000000000000
 47       0.000000000000
 48       0.000000000000
 49       0.000000000000
 50       0.000000000000
 51       0.000000000000
 52       0.000000000000
 53       0.000000000000
 54       0.000000000000
 55       0.000000000000
 56       0.000000000000
 57       0.000000000000
 58       0.000000000000
 59       0.000000000000
 60       0.000000000000
 61       0.000000000000
 62       0.000000000000
 63       0.000000000000
 64       0.000000000000
 65       0.000000000000
 66       0.000000000000
 67       0.000000000000
 68       0.000000000000
 69       0.000000000000
 70       0.000000000000
 71       0.000000000000
 72       0.000000000000
 73       0.000000000000
 74       0.000000000000
 75       0.000000000000
 76       0.000000000000
 77       0.000000000000
 78       0.000000000000
 79       0.000000000000
 80       0.000000000000
 81       0.000000000000
 82       0.000000000000
 83       0.000000000000
 84       0.000000000000
 85       0.000000000000
 86       0.000000000000
 87       0.000000000000
 88       0.000000000000
 89       0.000000000000
 90       0.000000000000
 91       0.000000000000
 92       0.000000000000
 93       0.000000000000
 94       0.000000000000
 95       0.000000000000
 96       0.000000000000
 97       0.000000000000
 98       0.000000000000
 99       0.000000000000
100       0.000000000000
101       0.000000000000
102       0.000000000000
103       0.000000000000
104       0.000000000000
105       0.000000000000
106       0.074836303160
107       0.000000000000
108       0.000000000000
109      -1.178374568160
110       0.000000000000
111       0.000000000000
112       1.456156176443
113       0.000000000000
114       0.000000000000
115       0.000000000000
116       0.000000000000
117       0.000000000000
118       0.000000000000
119       0.000000000000
120       0.000000000000
121       0.000000000000
122       0.000000000000
123       0.000000000000
124       0.000000000000
125       0.000000000000
126       0.000000000000
127       0.000000000000
128       0.000000000000
129       0.000000000000
130       0.000000000000
131       0.000000000000
132       0.000000000000
133       0.000000000000
134       0.000000000000
135       0.000000000000
136       0.000000000000
137       0.000000000000
138       0.000000000000
139       0.000000000000
140       0.000000000000
141       0.000000000000
142       0.000000000000
143       0.000000000000
144       0.000000000000
145       0.000000000000
146       0.000000000000
147       0.000000000000
148       0.000000000000
149       0.000000000000
150       0.000000000000
151       0.000000000000
152       0.000000000000
153       0.000000000000
154       0.000000000000
155       0.000000000000
156       0.000000000000
157       0.000000000000
158       0.000000000000
159       0.000000000000
160       0.000000000000
161       0.000000000000
162       0.000000000000
163       0.000000000000
164       0.000000000000
165       0.000000000000
166       0.000000000000
167       0.000000000000
168       0.000000000000
169       0.000000000000
170       0.000000000000
171       0.000000000000
172       0.000000000000
173       0.000000000000
174       0.000000000000
175       0.000000000000
176       0.000000000000
177       0.000000000000
178       0.000000000000
 Sym=     1a
 Ene= -1.61762479801109E-01
Spin= Alpha
 Occup= 0.331330
  1       0.000000000000
  2       0.000000000000
  3       0.000000000000
  4       0.000000000000
  5       0.000000000000
  6       0.000000000000
  7       0.000000000000
  8       0.000000000000
  9       0.000000000000
 10       0.000000000000
 11       0.000000000000
 12       0.000000000000
 13       0.000000000000
 14       0.000000000000
 15       0.000000000000
 16       0.000000000000
 17       0.000000000000
 18       0.000000000000
 19       0.000000000000
 20       0.000000000000
 21       0.000000000000
 22       0.000000000000
 23       0.000000000000
 24       0.000000000000
 25       0.000000000000
 26       0.000000000000
 27       0.000000000000
 28       0.000000000000
 29       0.000000000000
 30       0.000000000000
 31       0.000000000000
 32       0.000000000000
 33       0.000000000000
 34       0.000000000000
 35       0.000000000000
 36       0.000000000000
 37       0.000000000000
 38       0.000000000000
 39       0.000000000000
 40       0.000000000000
 41       0.000000000000
 42       0.000000000000
 43       0.000000000000
 44       0.000000000000
 45       0.000000000000
 46       0.000000000000
 47       0.000000000000
 48       0.000000000000
 49       0.000000000000
 50       0.000000000000
 51       0.000000000000
 52       0.000000000000
 53       0.000000000000
 54       0.000000000000
 55       0.000000000000
 56       0.000000000000
 57       0.000000000000
 58       0.000000000000
 59       0.000000000000
 60       0.000000000000
 61       0.000000000000
 62       0.000000000000
 63       0.000000000000
 64       0.000000000000
 65       0.000000000000
 66       0.000000000000
 67       0.000000000000
 68       0.000000000000
 69       0.000000000000
 70       0.000000000000
 71       0.000000000000
 72       0.000000000000
 73       0.000000000000
 74       0.000000000000
 75       0.000000000000
 76       0.000000000000
 77       0.000000000000
 78       0.000000000000
 79       0.000000000000
 80       0.000000000000
 81       0.000000000000
 82       0.000000000000
 83       0.000000000000
 84       0.000000000000
 85       0.000000000000
 86       0.000000000000
 87       0.000000000000
 88       0.000000000000
 89       0.000000000000
 90       0.000000000000
 91       0.000000000000
 92       0.000000000000
 93       0.000000000000
 94       0.000000000000
 95       0.000000000000
 96       0.000000000000
 97       0.000000000000
 98       0.000000000000
 99       0.000000000000
100       0.000000000000
101       0.000000000000
102       0.000000000000
103       0.000000000000
104       0.000000000000
105       0.000000000000
106       0.000000000000
107       0.074836303160
108       0.000000000000
109       0.000000000000
110      -1.178374568160
111       0.000000000000
112       0.000000000000
113       1.456156176443
114       0.000000000000
115       0.000000000000
116       0.000000000000
117       0.000000000000
118       0.000000000000
119       0.000000000000
120       0.000000000000
121       0.000000000000
122       0.000000000000
123       0.000000000000
124       0.000000000000
125       0.000000000000
126       0.000000000000
127       0.000000000000
128       0.000000000000
129       0.000000000000
130       0.000000000000
131       0.000000000000
132       0.000000000000
133       0.000000000000
134       0.000000000000
135       0.000000000000
136       0.000000000000
137       0.000000000000
138       0.000000000000
139       0.000000000000
140       0.000000000000
141       0.000000000000
142       0.000000000000
143       0.000000000000
144       0.000000000000
145       0.000000000000
146       0.000000000000
147       0.000000000000
148       0.000000000000
149       0.000000000000
150       0.000000000000
151       0.000000000000
152       0.000000000000
153       0.000000000000
154       0.000000000000
155       0.000000000000
156       0.000000000000
157       0.000000000000
158       0.000000000000
159       0.000000000000
160       0.000000000000
161       0.000000000000
162       0.000000000000
163       0.000000000000
164       0.000000000000
165       0.000000000000
166       0.000000000000
167       0.000000000000
168       0.000000000000
169       0.000000000000
170       0.000000000000
171       0.000000000000
172       0.000000000000
173       0.000000000000
174       0.000000000000
175       0.000000000000
176       0.000000000000
177       0.000000000000
178       0.000000000000
 Sym=     1a
 Ene= -6.35230544282392E-01
Spin= Alpha
 Occup= 1.767364
  1       0.000000000000
  2       0.000000000000
  3       0.000000000000
  4       0.000000000000
  5       0.000000000000
  6       0.000000000000
  7       0.000000000000
  8       0.000000000000
  9       0.000000000000
 10       0.000000000000
 11       0.000000000000
 12       0.000000000000
 13       0.000000000000
 14       0.000000000000
 15       0.000000000000
 16       0.000000000000
 17       0.000000000000
 18       0.000000000000
 19       0.000000000000
 20       0.000000000000
 21       0.000000000000
 22       0.000000000000
 23       0.000000000000
 24       0.000000000000
 25       0.000000000000
 26       0.000000000000
 27       0.000000000000
 28       0.000000000000
 29       0.000000000000
 30       0.000000000000
 31       0.000000000000
 32       0.000000000000
 33       0.000000000000
 34       0.000000000000
 35       0.000000000000
 36       0.000000000000
 37       0.000000000000
 38       0.000000000000
 39       0.000000000000
 40       0.000000000000
 41       0.000000000000
 42       0.000000000000
 43       0.000000000000
 44       0.000000000000
 45       0.000000000000
 46       0.000000000000
 47       0.000000000000
 48       0.000000000000
 49       0.000000000000
 50       0.000000000000
 51       0.000000000000
 52       0.000000000000
 53       0.000000000000
 54       0.000000000000
 55       0.000000000000
 56       0.000000000000
 57       0.000000000000
 58       0.000000000000
 59       0.000000000000
 60       0.000000000000
 61       0.000000000000
 62       0.000000000000
 63       0.000000000000
 64       0.000000000000
 65       0.000000000000
 66       0.000000000000
 67       0.000000000000
 68       0.000000000000
 69       0.000000000000
 70       0.000000000000
 71       0.000000000000
 72       0.000000000000
 73       0.000000000000
 74       0.000000000000
 75       0.000000000000
 76       0.000000000000
 77       0.000000000000
 78       0.000000000000
 79       0.000000000000
 80       0.000000000000
 81       0.000000000000
 82       0.000000000000
 83       0.000000000000
 84       0.000000000000
 85       0.000000000000
 86       0.000000000000
 87       0.000000000000
 88       0.000000000000
 89       0.000000000000
 90       0.000000000000
 91       0.000000000000
 92       0.000000000000
 93       0.000000000000
 94       0.000000000000
 95       0.000000000000
 96       0.000000000000
 97       0.000000000000
 98       0.000000000000
 99       0.000000000000
100       0.000000000000
101       0.000000000000
102       0.000000000000
103       0.000000000000
104       0.000000000000
105       0.253784914619
106       0.000000000000
107       0.000000000000
108       0.670624218089
109       0.000000000000
110       0.000000000000
111       0.209600535489
112       0.000000000000
113       0.000000000000
114       0.000000000000
115       0.000000000000
116       0.000000000000
117       0.000000000000
118       0.000000000000
119       0.000000000000
120       0.000000000000
121       0.000000000000
122       0.000000000000
123       0.000000000000
124       0.000000000000
125       0.000000000000
126       0.000000000000
127       0.000000000000
128       0.000000000000
129       0.000000000000
130       0.000000000000
131       0.000000000000
132       0.000000000000
133       0.000000000000
134       0.000000000000
135       0.000000000000
136       0.000000000000
137       0.000000000000
138       0.000000000000
139       0.000000000000
140       0.000000000000
141       0.000000000000
142       0.000000000000
143       0.000000000000
144       0.000000000000
145       0.000000000000
146       0.000000000000
147       0.000000000000
148       0.000000000000
149       0.000000000000
150       0.000000000000
151       0.000000000000
152       0.000000000000
153       0.000000000000
154       0.000000000000
155       0.000000000000
156       0.000000000000
157       0.000000000000
158       0.000000000000
159       0.000000000000
160       0.000000000000
161       0.000000000000
162       0.000000000000
163       0.000000000000
164       0.000000000000
165       0.000000000000
166       0.000000000000
167       0.000000000000
168       0.000000000000
169       0.000000000000
170       0.000000000000
171       0.000000000000
172       0.000000000000
173       0.000000000000
174       0.000000000000
175       0.000000000000
176       0.000000000000
177       0.000000000000
178       0.000000000000
 Sym=     1a
 Ene= -6.24426868879291E-01
Spin= Alpha
 Occup= 1.767364
  1       0.000000000000
  2       0.000000000000
  3       0.000000000000
  4       0.000000000000
  5       0.000000000000
  6       0.000000000000
  7       0.000000000000
  8       0.000000000000
  9       0.000000000000
 10       0.000000000000
 11       0.000000000000
 12       0.000000000000
 13       0.000000000000
 14       0.000000000000
 15       0.000000000000
 16       0.000000000000
 17       0.000000000000
 18       0.000000000000
 19       0.000000000000
 20       0.000000000000
 21       0.000000000000
 22       0.000000000000
 23       0.000000000000
 24       0.000000000000
 25       0.000000000000
 26       0.000000000000
 27       0.000000000000
 28       0.000000000000
 29       0.000000000000
 30       0.000000000000
 31       0.000000000000
 32       0.000000000000
 33       0.000000000000
 34       0.000000000000
 35       0.000000000000
 36       0.000000000000
 37       0.000000000000
 38       0.000000000000
 39       0.000000000000
 40       0.000000000000
 41       0.000000000000
 42       0.000000000000
 43       0.000000000000
 44       0.000000000000
 45       0.000000000000
 46       0.000000000000
 47       0.000000000000
 48       0.000000000000
 49       0.000000000000
 50       0.000000000000
 51       0.000000000000
 52       0.000000000000
 53       0.000000000000
 54       0.000000000000
 55       0.000000000000
 56       0.000000000000
 57       0.000000000000
 58       0.000000000000
 59       0.000000000000
 60       0.000000000000
 61       0.000000000000
 62       0.000000000000
 63       0.000000000000
 64       0.000000000000
 65       0.000000000000
 66       0.000000000000
 67       0.000000000000
 68       0.000000000000
 69       0.000000000000
 70       0.000000000000
 71       0.000000000000
 72       0.000000000000
 73       0.000000000000
 74       0.000000000000
 75       0.000000000000
 76       0.000000000000
 77       0.000000000000
 78       0.000000000000
 79       0.000000000000
 80       0.000000000000
 81       0.000000000000
 82       0.000000000000
 83       0.000000000000
 84       0.000000000000
 85       0.000000000000
 86       0.000000000000
 87       0.000000000000
 88       0.000000000000
 89       0.000000000000
 90       0.000000000000
 91       0.000000000000
 92       0.000000000000
 93       0.000000000000
 94       0.000000000000
 95       0.000000000000
 96       0.000000000000
 97       0.000000000000
 98       0.000000000000
 99       0.000000000000
100       0.000000000000
101       0.000000000000
102       0.000000000000
103       0.000000000000
104       0.000000000000
105       0.000000000000
106       0.253784914619
107       0.000000000000
108       0.000000000000
109       0.670624218089
110       0.000000000000
111       0.000000000000
112       0.209600535489
113       0.000000000000
114       0.000000000000
115       0.000000000000
116       0.000000000000
117       0.000000000000
118       0.000000000000
119       0.000000000000
120       0.000000000000
121       0.000000000000
122       0.000000000000
123       0.000000000000
124       0.000000000000
125       0.000000000000
126       0.000000000000
127       0.000000000000
128       0.000000000000
129       0.000000000000
130       0.000000000000
131       0.000000000000
132       0.000000000000
133       0.000000000000
134       0.000000000000
135       0.000000000000
136       0.000000000000
137       0.000000000000
138       0.000000000000
139       0.000000000000
140       0.000000000000
141       0.000000000000
142       0.000000000000
143       0.000000000000
144       0.000000000000
145       0.000000000000
146       0.000000000000
147       0.000000000000
148       0.000000000000
149       0.000000000000
150       0.000000000000
151       0.000000000000
152       0.000000000000
153       0.000000000000
154       0.000000000000
155       0.000000000000
156       0.000000000000
157       0.000000000000
158       0.000000000000
159       0.000000000000
160       0.000000000000
161       0.000000000000
162       0.000000000000
163       0.000000000000
164       0.000000000000
165       0.000000000000
166       0.000000000000
167       0.000000000000
168       0.000000000000
169       0.000000000000
170       0.000000000000
171       0.000000000000
172       0.000000000000
173       0.000000000000
174       0.000000000000
175       0.000000000000
176       0.000000000000
177       0.000000000000
178       0.000000000000
 Sym=     1a
 Ene= -7.35074539072792E-01
Spin= Alpha
 Occup= 1.767364
  1       0.000000000000
  2       0.000000000000
  3       0.000000000000
  4       0.000000000000
  5       0.000000000000
  6       0.000000000000
  7       0.000000000000
  8       0.000000000000
  9       0.000000000000
 10       0.000000000000
 11       0.000000000000
 12       0.000000000000
 13       0.000000000000
 14       0.000000000000
 15       0.000000000000
 16       0.000000000000
 17       0.000000000000
 18       0.000000000000
 19       0.000000000000
 20       0.000000000000
 21       0.000000000000
 22       0.000000000000
 23       0.000000000000
 24       0.000000000000
 25       0.000000000000
 26       0.000000000000
 27       0.000000000000
 28       0.000000000000
 29       0.000000000000
 30       0.000000000000
 31       0.000000000000
 32       0.000000000000
 33       0.000000000000
 34       0.000000000000
 35       0.000000000000
 36       0.000000000000
 37       0.000000000000
 38       0.000000000000
 39       0.000000000000
 40       0.000000000000
 41       0.000000000000
 42       0.000000000000
 43       0.000000000000
 44       0.000000000000
 45       0.000000000000
 46       0.000000000000
 47       0.000000000000
 48       0.000000000000
 49       0.000000000000
 50       0.000000000000
 51       0.000000000000
 52       0.000000000000
 53       0.000000000000
 54       0.000000000000
 55       0.000000000000
 56       0.000000000000
 57       0.000000000000
 58       0.000000000000
 59       0.000000000000
 60       0.000000000000
 61       0.000000000000
 62       0.000000000000
 63       0.000000000000
 64       0.000000000000
 65       0.000000000000
 66       0.000000000000
 67       0.000000000000
 68       0.000000000000
 69       0.000000000000
 70       0.000000000000
 71       0.000000000000
 72       0.000000000000
 73       0.000000000000
 74       0.000000000000
 75       0.000000000000
 76       0.000000000000
 77       0.000000000000
 78       0.000000000000
 79       0.000000000000
 80       0.000000000000
 81       0.000000000000
 82       0.000000000000
 83       0.000000000000
 84       0.000000000000
 85       0.000000000000
 86       0.000000000000
 87       0.000000000000
 88       0.000000000000
 89       0.000000000000
 90       0.000000000000
 91       0.000000000000
 92       0.000000000000
 93       0.000000000000
 94       0.000000000000
 95       0.000000000000
 96       0.000000000000
 97       0.000000000000
 98       0.000000000000
 99       0.000000000000
100       0.000000000000
101       0.000000000000
102       0.000000000000
103       0.000000000000
104       0.000000000000
105       0.000000000000
106       0.000000000000
107       0.253784914619
108       0.000000000000
109       0.000000000000
110       0.670624218089
111       0.000000000000
112       0.000000000000
113       0.209600535489
114       0.000000000000
115       0.000000000000
116       0.000000000000
117       0.000000000000
118       0.000000000000
119       0.000000000000
120       0.000000000000
121       0.000000000000
122       0.000000000000
123       0.000000000000
124       0.000000000000
125       0.000000000000
126       0.000000000000
127       0.000000000000
128       0.000000000000
129       0.000000000000
130       0.000000000000
131       0.000000000000
132       0.000000000000
133       0.000000000000
134       0.000000000000
135       0.000000000000
136       0.000000000000
137       0.000000000000
138       0.000000000000
139       0.000000000000
140       0.000000000000
141       0.000000000000
142       0.000000000000
143       0.000000000000
144       0.000000000000
145       0.000000000000
146       0.000000000000
147       0.000000000000
148       0.000000000000
149       0.000000000000
150       0.000000000000
151       0.000000000000
152       0.000000000000
153       0.000000000000
154       0.000000000000
155       0.000000000000
156       0.000000000000
157       0.000000000000
158       0.000000000000
159       0.000000000000
160       0.000000000000
161       0.000000000000
162       0.000000000000
163       0.000000000000
164       0.000000000000
165       0.000000000000
166       0.000000000000
167       0.000000000000
168       0.000000000000
169       0.000000000000
170       0.000000000000
171       0.000000000000
172       0.000000000000
173       0.000000000000
174       0.000000000000
175       0.000000000000
176       0.000000000000
177       0.000000000000
178       0.000000000000
 Sym=     1a
 Ene=  2.65516691909716E+00
Spin= Alpha
 Occup= 0.008022
  1       0.000000000000
  2       0.000000000000
  3       0.000000000000
  4       0.000000000000
  5       0.000000000000
  6       0.000000000000
  7       0.000000000000
  8       0.000000000000
  9       0.000000000000
 10       0.000000000000
 11       0.000000000000
 12       0.000000000000
 13       0.000000000000
 14       0.000000000000
 15       0.000000000000
 16       0.000000000000
 17       0.000000000000
 18       0.000000000000
 19       0.000000000000
 20       0.000000000000
 21       0.000000000000
 22       0.000000000000
 23       0.000000000000
 24       0.000000000000
 25       0.000000000000
 26       0.000000000000
 27       0.000000000000
 28       0.000000000000
 29       0.000000000000
 30       0.000000000000
 31       0.000000000000
 32       0.000000000000
 33       0.000000000000
 34       0.000000000000
 35       0.000000000000
 36       0.000000000000
 37       0.000000000000
 38       0.000000000000
 39       0.000000000000
 40       0.000000000000
 41       0.000000000000
 42       0.000000000000
 43       0.000000000000
 44       0.000000000000
 45       0.000000000000
 46       0.000000000000
 47       0.000000000000
 48       0.000000000000
 49       0.000000000000
 50       0.000000000000
 51       0.000000000000
 52       0.000000000000
 53       0.000000000000
 54       0.000000000000
 55       0.000000000000
 56       0.000000000000
 57       0.000000000000
 58       0.000000000000
 59       0.000000000000
 60       0.000000000000
 61       0.000000000000
 62       0.000000000000
 63       0.000000000000
 64       0.000000000000
 65       0.000000000000
 66       0.000000000000
 67       0.000000000000
 68       0.000000000000
 69       0.000000000000
 70       0.000000000000
 71       0.000000000000
 72       0.000000000000
 73       0.000000000000
 74       0.000000000000
 75       0.000000000000
 76       0.000000000000
 77       0.000000000000
 78       0.000000000000
 79       0.000000000000
 80       0.000000000000
 81       0.000000000000
 82       0.000000000000
 83       0.000000000000
 84       0.000000000000
 85       0.000000000000
 86       0.000000000000
 87       0.000000000000
 88       0.000000000000
 89       0.000000000000
 90       0.000000000000
 91       0.000000000000
 92       0.000000000000
 93       0.000000000000
 94       0.000000000000
 95       0.000000000000
 96       0.000000000000
 97       0.000000000000
 98       0.000000000000
 99       0.000000000000
100       0.000000000000
101       0.000000000000
102       0.000000000000
103       0.000000000000
104       0.000000000000
105       0.000000000000
106       0.000000000000
107       0.000000000000
108       0.000000000000
109       0.000000000000
110       0.000000000000
111       0.000000000000
112       0.000000000000
113       0.000000000000
114      -1.147795914435
115       0.000000000000
116       0.000000000000
117       0.000000000000
118       0.000000000000
119       0.375966701908
120       0.000000000000
121       0.000000000000
122       0.000000000000
123       0.000000000000
124       0.000000000000
125       0.000000000000
126       0.000000000000
127       0.000000000000
128       0.000000000000
129       0.000000000000
130       0.000000000000
131       0.000000000000
132       0.000000000000
133       0.000000000000
134       0.000000000000
135       0.000000000000
136       0.000000000000
137       0.000000000000
138       0.000000000000
139       0.000000000000
140       0.000000000000
141       0.000000000000
142       0.000000000000
143       0.000000000000
144       0.000000000000
145       0.000000000000
146       0.000000000000
147       0.000000000000
148       0.000000000000
149       0.000000000000
150       0.000000000000
151       0.000000000000
152       0.000000000000
153       0.000000000000
154       0.000000000000
155       0.000000000000
156       0.000000000000
157       0.000000000000
158       0.000000000000
159       0.000000000000
160       0.000000000000
161       0.000000000000
162       0.000000000000
163       0.000000000000
164       0.000000000000
165       0.000000000000
166       0.000000000000
167       0.000000000000
168       0.000000000000
169       0.000000000000
170       0.000000000000
171       0.000000000000
172       0.000000000000
173       0.000000000000
174       0.000000000000
175       0.000000000000
176       0.000000000000
177       0.000000000000
178       0.000000000000
 Sym=     1a
 Ene=  2.65862520945677E+00
Spin= Alpha
 Occup= 0.008022
  1       0.000000000000
  2       0.000000000000
  3       0.000000000000
  4       0.000000000000
  5       0.000000000000
  6       0.000000000000
  7       0.000000000000
  8       0.000000000000
  9       0.000000000000
 10       0.000000000000
 11       0.000000000000
 12       0.000000000000
 13       0.000000000000
 14       0.000000000000
 15       0.000000000000
 16       0.000000000000
 17       0.000000000000
 18       0.000000000000
 19       0.000000000000
 20       0.000000000000
 21       0.000000000000
 22       0.000000000000
 23       0.000000000000
 24       0.000000000000
 25       0.000000000000
 26       0.000000000000
 27       0.000000000000
 28       0.000000000000
 29       0.000000000000
 30       0.000000000000
 31       0.000000000000
 32       0.000000000000
 33       0.000000000000
 34       0.000000000000
 35       0.000000000000
 36       0.000000000000
 37       0.000000000000
 38       0.000000000000
 39       0.000000000000
 40       0.000000000000
 41       0.000000000000
 42       0.000000000000
 43       0.000000000000
 44       0.000000000000
 45       0.000000000000
 46       0.000000000000
 47       0.000000000000
 48       0.000000000000
 49       0.000000000000
 50       0.000000000000
 51       0.000000000000
 52       0.000000000000
 53       0.000000000000
 54       0.000000000000
 55       0.000000000000
 56       0.000000000000
 57       0.000000000000
 58       0.000000000000
 59       0.000000000000
 60       0.000000000000
 61       0.000000000000
 62       0.000000000000
 63       0.000000000000
 64       0.000000000000
 65       0.000000000000
 66       0.000000000000
 67       0.000000000000
 68       0.000000000000
 69       0.000000000000
 70       0.000000000000
 71       0.000000000000
 72       0.000000000000
 73       0.000000000000
 74       0.000000000000
 75       0.000000000000
 76       0.000000000000
 77       0.000000000000
 78       0.000000000000
 79       0.000000000000
 80       0.000000000000
 81       0.000000000000
 82       0.000000000000
 83       0.000000000000
 84       0.000000000000
 85       0.000000000000
 86       0.000000000000
 87       0.000000000000
 88       0.000000000000
 89       0.000000000000
 90       0.000000000000
 91       0.000000000000
 92       0.000000000000
 93       0.000000000000
 94       0.000000000000
 95       0.000000000000
 96       0.000000000000
 97       0.000000000000
 98       0.000000000000
 99       0.000000000000
100       0.000000000000
101       0.000000000000
102       0.000000000000
103       0.000000000000
104       0.000000000000
105       0.000000000000
106       0.000000000000
107       0.000000000000
108       0.000000000000
109       0.000000000000
110       0.000000000000
111       0.000000000000
112       0.000000000000
113       0.000000000000
114       0.000000000000
115      -1.147795914435
116       0.000000000000
117       0.000000000000
118       0.000000000000
119       0.000000000000
120       0.375966701908
121       0.000000000000
122       0.000000000000
123       0.000000000000
124       0.000000000000
125       0.000000000000
126       0.000000000000
127       0.000000000000
128       0.000000000000
129       0.000000000000
130       0.000000000000
131       0.000000000000
132       0.000000000000
133       0.000000000000
134       0.000000000000
135       0.000000000000
136       0.000000000000
137       0.000000000000
138       0.000000000000
139       0.000000000000
140       0.000000000000
141       0.000000000000
142       0.000000000000
143       0.000000000000
144       0.000000000000
145       0.000000000000
146       0.000000000000
147       0.000000000000
148       0.000000000000
149       0.000000000000
150       0.000000000000
151       0.000000000000
152       0.000000000000
153       0.000000000000
154       0.000000000000
155       0.000000000000
156       0.000000000000
157       0.000000000000
158       0.000000000000
159       0.000000000000
160       0.000000000000
161       0.000000000000
162       0.000000000000
163       0.000000000000
164       0.000000000000
165       0.000000000000
166       0.000000000000
167       0.000000000000
168       0.000000000000
169       0.000000000000
170       0.000000000000
171       0.000000000000
172       0.000000000000
173       0.000000000000
174       0.000000000000
175       0.000000000000
176       0.000000000000
177       0.000000000000
178       0.000000000000
 Sym=     1a
 Ene=  2.66822467495126E+00
Spin= Alpha
 Occup= 0.008022
  1       0.000000000000
  2       0.000000000000
  3       0.000000000000
  4       0.000000000000
  5       0.000000000000
  6       0.000000000000
  7       0.000000000000
  8       0.000000000000
  9       0.000000000000
 10       0.000000000000
 11       0.000000000000
 12       0.000000000000
 13       0.000000000000
 14       0.000000000000
 15       0.000000000000
 16       0.000000000000
 17       0.000000000000
 18       0.000000000000
 19       0.000000000000
 20       0.000000000000
 21       0.000000000000
 22       0.000000000000
 23       0.000000000000
 24       0.000000000000
 25       0.000000000000
 26       0.000000000000
 27       0.000000000000
 28       0.000000000000
 29       0.000000000000
 30       0.000000000000
 31       0.000000000000
 32       0.000000000000
 33       0.000000000000
 34       0.000000000000
 35       0.000000000000
 36       0.000000000000
 37       0.000000000000
 38       0.000000000000
 39       0.000000000000
 40       0.000000000000
 41       0.000000000000
 42       0.000000000000
 43       0.000000000000
 44       0.000000000000
 45       0.000000000000
 46       0.000000000000
 47       0.000000000000
 48       0.000000000000
 49       0.000000000000
 50       0.000000000000
 51       0.000000000000
 52       0.000000000000
 53       0.000000000000
 54       0.000000000000
 55       0.000000000000
 56       0.000000000000
 57       0.000000000000
 58       0.000000000000
 59       0.000000000000
 60       0.000000000000
 61       0.000000000000
 62       0.000000000000
 63       0.000000000000
 64       0.000000000000
 65       0.000000000000
 66       0.000000000000
 67       0.000000000000
 68       0.000000000000
 69       0.000000000000
 70       0.000000000000
 71       0.000000000000
 72       0.000000000000
 73       0.000000000000
 74       0.000000000000
 75       0.000000000000
 76       0.000000000000
 77       0.000000000000
 78       0.000000000000
 79       0.000000000000
 80       0.000000000000
 81       0.000000000000
 82       0.000000000000
 83       0.000000000000
 84       0.000000000000
 85       0.000000000000
 86       0.000000000000
 87       0.000000000000
 88       0.000000000000
 89       0.000000000000
 90       0.000000000000
 91       0.000000000000
 92       0.000000000000
 93       0.000000000000
 94       0.000000000000
 95       0.000000000000
 96       0.000000000000
 97       0.000000000000
 98       0.000000000000
 99       0.000000000000
100       0.000000000000
101       0.000000000000
102       0.000000000000
103       0.000000000000
104       0.000000000000
105       0.000000000000
106       0.000000000000
107       0.000000000000
108       0.000000000000
109       0.000000000000
110       0.000000000000
111       0.000000000000
112       0.000000000000
113       0.000000000000
114       0.000000000000
115       0.000000000000
116      -1.147795914435
117       0.000000000000
118       0.000000000000
119       0.000000000000
120       0.000000000000
121       0.375966701908
122       0.000000000000
123       0.000000000000
124       0.000000000000
125       0.000000000000
126       0.000000000000
127       0.000000000000
128       0.000000000000
129       0.000000000000
130       0.000000000000
131       0.000000000000
132       0.000000000000
133       0.000000000000
134       0.000000000000
135       0.000000000000
136       0.000000000000
137       0.000000000000
138       0.000000000000
139       0.000000000000
140       0.000000000000
141       0.000000000000
142       0.000000000000
143       0.000000000000
144       0.000000000000
145       0.000000000000
146       0.000000000000
147       0.000000000000
148       0.000000000000
149       0.000000000000
150       0.000000000000
151       0.000000000000
152       0.000000000000
153       0.000000000000
154       0.000000000000
155       0.000000000000
156       0.000000000000
157       0.000000000000
158       0.000000000000
159       0.000000000000
160       0.000000000000
161       0.000000000000
162       0.000000000000
163       0.000000000000
164       0.000000000000
165       0.000000000000
166       0.000000000000
167       0.000000000000
168       0.000000000000
169       0.000000000000
170       0.000000000000
171       0.000000000000
172       0.000000000000
173       0.000000000000
174       0.000000000000
175       0.000000000000
176       0.000000000000
177       0.000000000000
178       0.000000000000
 Sym=     1a
 Ene=  2.66442320974340E+00
Spin= Alpha
 Occup= 0.008022
  1       0.000000000000
  2       0.000000000000
  3       0.000000000000
  4       0.000000000000
  5       0.000000000000
  6       0.000000000000
  7       0.000000000000
  8       0.000000000000
  9       0.000000000000
 10       0.000000000000
 11       0.000000000000
 12       0.000000000000
 13       0.000000000000
 14       0.000000000000
 15       0.000000000000
 16       0.000000000000
 17       0.000000000000
 18       0.000000000000
 19       0.000000000000
 20       0.000000000000
 21       0.000000000000
 22       0.000000000000
 23       0.000000000000
 24       0.000000000000
 25       0.000000000000
 26       0.000000000000
 27       0.000000000000
 28       0.000000000000
 29       0.000000000000
 30       0.000000000000
 31       0.000000000000
 32       0.000000000000
 33       0.000000000000
 34       0.000000000000
 35       0.000000000000
 36       0.000000000000
 37       0.000000000000
 38       0.000000000000
 39       0.000000000000
 40       0.000000000000
 41       0.000000000000
 42       0.000000000000
 43       0.000000000000
 44       0.000000000000
 45       0.000000000000
 46       0.000000000000
 47       0.000000000000
 48       0.000000000000
 49       0.000000000000
 50       0.000000000000
 51       0.000000000000
 52       0.000000000000
 53       0.000000000000
 54       0.000000000000
 55       0.000000000000
 56       0.000000000000
 57       0.000000000000
 58       0.000000000000
 59       0.000000000000
 60       0.000000000000
 61       0.000000000000
 62       0.000000000000
 63       0.000000000000
 64       0.000000000000
 65       0.000000000000
 66       0.000000000000
 67       0.000000000000
 68       0.000000000000
 69       0.000000000000
 70       0.000000000000
 71       0.000000000000
 72       0.000000000000
 73       0.000000000000
 74       0.000000000000
 75       0.000000000000
 76       0.000000000000
 77       0.000000000000
 78       0.000000000000
 79       0.000000000000
 80       0.000000000000
 81       0.000000000000
 82       0.000000000000
 83       0.000000000000
 84       0.000000000000
 85       0.000000000000
 86       0.000000000000
 87       0.000000000000
 88       0.000000000000
 89       0.000000000000
 90       0.000000000000
 91       0.000000000000
 92       0.000000000000
 93       0.000000000000
 94       0.000000000000
 95       0.000000000000
 96       0.000000000000
 97       0.000000000000
 98       0.000000000000
 99       0.000000000000
100       0.000000000000
101       0.000000000000
102       0.000000000000
103       0.000000000000
104       0.000000000000
105       0.000000000000
106       0.000000000000
107       0.000000000000
108       0.000000000000
109       0.000000000000
110       0.000000000000
111       0.000000000000
112       0.000000000000
113       0.000000000000
114       0.000000000000
115       0.000000000000
116       0.000000000000
117      -1.147795914435
118       0.000000000000
119       0.000000000000
120       0.000000000000
121       0.000000000000
122       0.375966701908
123       0.000000000000
124       0.000000000000
125       0.000000000000
126       0.000000000000
127       0.000000000000
128       0.000000000000
129       0.000000000000
130       0.000000000000
131       0.000000000000
132       0.000000000000
133       0.000000000000
134       0.000000000000
135       0.000000000000
136       0.000000000000
137       0.000000000000
138       0.000000000000
139       0.000000000000
140       0.000000000000
141       0.000000000000
142       0.000000000000
143       0.000000000000
144       0.000000000000
145       0.000000000000
146       0.000000000000
147       0.000000000000
148       0.000000000000
149       0.000000000000
150       0.000000000000
151       0.000000000000
152       0.000000000000
153       0.000000000000
154       0.000000000000
155       0.000000000000
156       0.000000000000
157       0.000000000000
158       0.000000000000
159       0.000000000000
160       0.000000000000
161       0.000000000000
162       0.000000000000
163       0.000000000000
164       0.000000000000
165       0.000000000000
166       0.000000000000
167       0.000000000000
168       0.000000000000
169       0.000000000000
170       0.000000000000
171       0.000000000000
172       0.000000000000
173       0.000000000000
174       0.000000000000
175       0.000000000000
176       0.000000000000
177       0.000000000000
178       0.000000000000
 Sym=     1a
 Ene=  2.69959696716153E+00
Spin= Alpha
 Occup= 0.008022
  1       0.000000000000
  2       0.000000000000
  3       0.000000000000
  4       0.000000000000
  5       0.000000000000
  6       0.000000000000
  7       0.000000000000
  8       0.000000000000
  9       0.000000000000
 10       0.000000000000
 11       0.000000000000
 12       0.000000000000
 13       0.000000000000
 14       0.000000000000
 15       0.000000000000
 16       0.000000000000
 17       0.000000000000
 18       0.000000000000
 19       0.000000000000
 20       0.000000000000
 21       0.000000000000
 22       0.000000000000
 23       0.000000000000
 24       0.000000000000
 25       0.000000000000
 26       0.000000000000
 27       0.000000000000
 28       0.000000000000
 29       0.000000000000
 30       0.000000000000
 31       0.000000000000
 32       0.000000000000
 33       0.000000000000
 34       0.000000000000
 35       0.000000000000
 36       0.000000000000
 37       0.000000000000
 38       0.000000000000
 39       0.000000000000
 40       0.000000000000
 41       0.000000000000
 42       0.000000000000
 43       0.000000000000
 44       0.000000000000
 45       0.000000000000
 46       0.000000000000
 47       0.000000000000
 48       0.000000000000
 49       0.000000000000
 50       0.000000000000
 51       0.000000000000
 52       0.000000000000
 53       0.000000000000
 54       0.000000000000
 55       0.000000000000
 56       0.000000000000
 57       0.000000000000
 58       0.000000000000
 59       0.000000000000
 60       0.000000000000
 61       0.000000000000
 62       0.000000000000
 63       0.000000000000
 64       0.000000000000
 65       0.000000000000
 66       0.000000000000
 67       0.000000000000
 68       0.000000000000
 69       0.000000000000
 70       0.000000000000
 71       0.000000000000
 72       0.000000000000
 73       0.000000000000
 74       0.000000000000
 75       0.000000000000
 76       0.000000000000
 77       0.000000000000
 78       0.000000000000
 79       0.000000000000
 80       0.000000000000
 81       0.000000000000
 82       0.000000000000
 83       0.000000000000
 84       0.000000000000
 85       0.000000000000
 86       0.000000000000
 87       0.000000000000
 88       0.000000000000
 89       0.000000000000
 90       0.000000000000
 91       0.000000000000
 92       0.000000000000
 93       0.000000000000
 94       0.000000000000
 95       0.000000000000
 96       0.000000000000
 97       0.000000000000
 98       0.000000000000
 99       0.000000000000
100       0.000000000000
101       0.000000000000
102       0.000000000000
103       0.000000000000
104       0.000000000000
105       0.000000000000
106       0.000000000000
107       0.000000000000
108       0.000000000000
109       0.000000000000
110       0.000000000000
111       0.000000000000
112       0.000000000000
113       0.000000000000
114       0.000000000000
115       0.000000000000
116       0.000000000000
117       0.000000000000
118      -1.147795914435
119       0.000000000000
120       0.000000000000
121       0.000000000000
122       0.000000000000
123       0.375966701908
124       0.000000000000
125       0.000000000000
126       0.000000000000
127       0.000000000000
128       0.000000000000
129       0.000000000000
130       0.000000000000
131       0.000000000000
132       0.000000000000
133       0.000000000000
134       0.000000000000
135       0.000000000000
136       0.000000000000
137       0.000000000000
138       0.000000000000
139       0.000000000000
140       0.000000000000
141       0.000000000000
142       0.000000000000
143       0.000000000000
144       0.000000000000
145       0.000000000000
146       0.000000000000
147       0.000000000000
148       0.000000000000
149       0.000000000000
150       0.000000000000
151       0.000000000000
152       0.000000000000
153       0.000000000000
154       0.000000000000
155       0.000000000000
156       0.000000000000
157       0.000000000000
158       0.000000000000
159       0.000000000000
160       0.000000000000
161       0.000000000000
162       0.000000000000
163       0.000000000000
164       0.000000000000
165       0.000000000000
166       0.000000000000
167       0.000000000000
168       0.000000000000
169       0.000000000000
170       0.000000000000
171       0.000000000000
172       0.000000000000
173       0.000000000000
174       0.000000000000
175       0.000000000000
176       0.000000000000
177       0.000000000000
178       0.000000000000
 Sym=     1a
 Ene=  1.92809499132137E-01
Spin= Alpha
 Occup= 0.190969
  1       0.000000000000
  2       0.000000000000
  3       0.000000000000
  4       0.000000000000
  5       0.000000000000
  6       0.000000000000
  7       0.000000000000
  8       0.000000000000
  9       0.000000000000
 10       0.000000000000
 11       0.000000000000
 12       0.000000000000
 13       0.000000000000
 14       0.000000000000
 15       0.000000000000
 16       0.000000000000
 17       0.000000000000
 18       0.000000000000
 19       0.000000000000
 20       0.000000000000
 21       0.000000000000
 22       0.000000000000
 23       0.000000000000
 24       0.000000000000
 25       0.000000000000
 26       0.000000000000
 27       0.000000000000
 28       0.000000000000
 29       0.000000000000
 30       0.000000000000
 31       0.000000000000
 32       0.000000000000
 33       0.000000000000
 34       0.000000000000
 35       0.000000000000
 36       0.000000000000
 37       0.000000000000
 38       0.000000000000
 39       0.000000000000
 40       0.000000000000
 41       0.000000000000
 42       0.000000000000
 43       0.000000000000
 44       0.000000000000
 45       0.000000000000
 46       0.000000000000
 47       0.000000000000
 48       0.000000000000
 49       0.000000000000
 50       0.000000000000
 51       0.000000000000
 52       0.000000000000
 53       0.000000000000
 54       0.000000000000
 55       0.000000000000
 56       0.000000000000
 57       0.000000000000
 58       0.000000000000
 59       0.000000000000
 60       0.000000000000
 61       0.000000000000
 62       0.000000000000
 63       0.000000000000
 64       0.000000000000
 65       0.000000000000
 66       0.000000000000
 67       0.000000000000
 68       0.000000000000
 69       0.000000000000
 70       0.000000000000
 71       0.000000000000
 72       0.000000000000
 73       0.000000000000
 74       0.000000000000
 75       0.000000000000
 76       0.000000000000
 77       0.000000000000
 78       0.000000000000
 79       0.000000000000
 80       0.000000000000
 81       0.000000000000
 82       0.000000000000
 83       0.000000000000
 84       0.000000000000
 85       0.000000000000
 86       0.000000000000
 87       0.000000000000
 88       0.000000000000
 89       0.000000000000
 90       0.000000000000
 91       0.000000000000
 92       0.000000000000
 93       0.000000000000
 94       0.000000000000
 95       0.000000000000
 96       0.000000000000
 97       0.000000000000
 98       0.000000000000
 99       0.000000000000
100       0.000000000000
101       0.000000000000
102       0.000000000000
103       0.000000000000
104       0.000000000000
105       0.000000000000
106       0.000000000000
107       0.000000000000
108       0.000000000000
109       0.000000000000
110       0.000000000000
111       0.000000000000
112       0.000000000000
113       0.000000000000
114      -0.276473400368
115       0.000000000000
116       0.000000000000
117       0.000000000000
118       0.000000000000
119       1.119161311590
120       0.000000000000
121       0.000000000000
122       0.000000000000
123       0.000000000000
124       0.000000000000
125       0.000000000000
126       0.000000000000
127       0.000000000000
128       0.000000000000
129       0.000000000000
130       0.000000000000
131       0.000000000000
132       0.000000000000
133       0.000000000000
134       0.000000000000
135       0.000000000000
136       0.000000000000
137       0.000000000000
138       0.000000000000
139       0.000000000000
140       0.000000000000
141       0.000000000000
142       0.000000000000
143       0.000000000000
144       0.000000000000
145       0.000000000000
146       0.000000000000
147       0.000000000000
148       0.000000000000
149       0.000000000000
150       0.000000000000
151       0.000000000000
152       0.000000000000
153       0.000000000000
154       0.000000000000
155       0.000000000000
156       0.000000000000
157       0.000000000000
158       0.000000000000
159       0.000000000000
160       0.000000000000
161       0.000000000000
162       0.000000000000
163       0.000000000000
164       0.000000000000
165       0.000000000000
166       0.000000000000
167       0.000000000000
168       0.000000000000
169       0.000000000000
170       0.000000000000
171       0.000000000000
172       0.000000000000
173       0.000000000000
174       0.000000000000
175       0.000000000000
176       0.000000000000
177       0.000000000000
178       0.000000000000
 Sym=     1a
 Ene=  2.94124037065738E-01
Spin= Alpha
 Occup= 0.190969
  1       0.000000000000
  2       0.000000000000
  3       0.000000000000
  4       0.000000000000
  5       0.000000000000
  6       0.000000000000
  7       0.000000000000
  8       0.000000000000
  9       0.000000000000
 10       0.000000000000
 11       0.000000000000
 12       0.000000000000
 13       0.000000000000
 14       0.000000000000
 15       0.000000000000
 16       0.000000000000
 17       0.000000000000
 18       0.000000000000
 19       0.000000000000
 20       0.000000000000
 21       0.000000000000
 22       0.000000000000
 23       0.000000000000
 24       0.000000000000
 25       0.000000000000
 26       0.000000000000
 27       0.000000000000
 28       0.000000000000
 29       0.000000000000
 30       0.000000000000
 31       0.000000000000
 32       0.000000000000
 33       0.000000000000
 34       0.000000000000
 35       0.000000000000
 36       0.000000000000
 37       0.000000000000
 38       0.000000000000
 39       0.000000000000
 40       0.000000000000
 41       0.000000000000
 42       0.000000000000
 43       0.000000000000
 44       0.000000000000
 45       0.000000000000
 46       0.000000000000
 47       0.000000000000
 48       0.000000000000
 49       0.000000000000
 50       0.000000000000
 51       0.000000000000
 52       0.000000000000
 53       0.000000000000
 54       0.000000000000
 55       0.000000000000
 56       0.000000000000
 57       0.000000000000
 58       0.000000000000
 59       0.000000000000
 60       0.000000000000
 61       0.000000000000
 62       0.000000000000
 63       0.000000000000
 64       0.000000000000
 65       0.000000000000
 66       0.000000000000
 67       0.000000000000
 68       0.000000000000
 69       0.000000000000
 70       0.000000000000
 71       0.000000000000
 72       0.000000000000
 73       0.000000000000
 74       0.000000000000
 75       0.000000000000
 76       0.000000000000
 77       0.000000000000
 78       0.000000000000
 79       0.000000000000
 80       0.000000000000
 81       0.000000000000
 82       0.000000000000
 83       0.000000000000
 84       0.000000000000
 85       0.000000000000
 86       0.000000000000
 87       0.000000000000
 88       0.000000000000
 89       0.000000000000
 90       0.000000000000
 91       0.000000000000
 92       0.000000000000
 93       0.000000000000
 94       0.000000000000
 95       0.000000000000
 96       0.000000000000
 97       0.000000000000
 98       0.000000000000
 99       0.000000000000
100       0.000000000000
101       0.000000000000
102       0.000000000000
103       0.000000000000
104       0.000000000000
105       0.000000000000
106       0.000000000000
107       0.000000000000
108       0.000000000000
109       0.000000000000
110       0.000000000000
111       0.000000000000
112       0.000000000000
113       0.000000000000
114       0.000000000000
115      -0.276473400368
116       0.000000000000
117       0.000000000000
118       0.000000000000
119       0.000000000000
120       1.119161311590
121       0.000000000000
122       0.000000000000
123       0.000000000000
124       0.000000000000
125       0.000000000000
126       0.000000000000
127       0.000000000000
128       0.000000000000
129       0.000000000000
130       0.000000000000
131       0.000000000000
132       0.000000000000
133       0.000000000000
134       0.000000000000
135       0.000000000000
136       0.000000000000
137       0.000000000000
138       0.000000000000
139       0.000000000000
140       0.000000000000
141       0.000000000000
142       0.000000000000
143       0.000000000000
144       0.000000000000
145       0.000000000000
146       0.000000000000
147       0.000000000000
148       0.000000000000
149       0.000000000000
150       0.000000000000
151       0.000000000000
152       0.000000000000
153       0.000000000000
154       0.000000000000
155       0.000000000000
156       0.000000000000
157       0.000000000000
158       0.000000000000
159       0.000000000000
160       0.000000000000
161       0.000000000000
162       0.000000000000
163       0.000000000000
164       0.000000000000
165       0.000000000000
166       0.000000000000
167       0.000000000000
168       0.000000000000
169       0.000000000000
170       0.000000000000
171       0.000000000000
172       0.000000000000
173       0.000000000000
174       0.000000000000
175       0.000000000000
176       0.000000000000
177       0.000000000000
178       0.000000000000
 Sym=     1a
 Ene=  2.68182217179399E-01
Spin= Alpha
 Occup= 0.190969
  1       0.000000000000
  2       0.000000000000
  3       0.000000000000
  4       0.000000000000
  5       0.000000000000
  6       0.000000000000
  7       0.000000000000
  8       0.000000000000
  9       0.000000000000
 10       0.000000000000
 11       0.000000000000
 12       0.000000000000
 13       0.000000000000
 14       0.000000000000
 15       0.000000000000
 16       0.000000000000
 17       0.000000000000
 18       0.000000000000
 19       0.000000000000
 20       0.000000000000
 21       0.000000000000
 22       0.000000000000
 23       0.000000000000
 24       0.000000000000
 25       0.000000000000
 26       0.000000000000
 27       0.000000000000
 28       0.000000000000
 29       0.000000000000
 30       0.000000000000
 31       0.000000000000
 32       0.000000000000
 33       0.000000000000
 34       0.000000000000
 35       0.000000000000
 36       0.000000000000
 37       0.000000000000
 38       0.000000000000
 39       0.000000000000
 40       0.000000000000
 41       0.000000000000
 42       0.000000000000
 43       0.000000000000
 44       0.000000000000
 45       0.000000000000
 46       0.000000000000
 47       0.000000000000
 48       0.000000000000
 49       0.000000000000
 50       0.000000000000
 51       0.000000000000
 52       0.000000000000
 53       0.000000000000
 54       0.000000000000
 55       0.000000000000
 56       0.000000000000
 57       0.000000000000
 58       0.000000000000
 59       0.000000000000
 60       0.000000000000
 61       0.000000000000
 62       0.000000000000
 63       0.000000000000
 64       0.000000000000
 65       0.000000000000
 66       0.000000000000
 67       0.000000000000
 68       0.000000000000
 69       0.000000000000
 70       0.000000000000
 71       0.000000000000
 72       0.000000000000
 73       0.000000000000
 74       0.000000000000
 75       0.000000000000
 76       0.000000000000
 77       0.000000000000
 78       0.000000000000
 79       0.000000000000
 80       0.000000000000
 81       0.000000000000
 82       0.000000000000
 83       0.000000000000
 84       0.000000000000
 85       0.000000000000
 86       0.000000000000
 87       0.000000000000
 88       0.000000000000
 89       0.000000000000
 90       0.000000000000
 91       0.000000000000
 92       0.000000000000
 93       0.000000000000
 94       0.000000000000
 95       0.000000000000
 96       0.000000000000
 97       0.000000000000
 98       0.000000000000
 99       0.000000000000
100       0.000000000000
101       0.000000000000
102       0.000000000000
103       0.000000000000
104       0.000000000000
105       0.000000000000
106       0.000000000000
107       0.000000000000
108       0.000000000000
109       0.000000000000
110       0.000000000000
111       0.000000000000
112       0.000000000000
113       0.000000000000
114       0.000000000000
115       0.000000000000
116      -0.276473400368
117       0.000000000000
118       0.000000000000
119       0.000000000000
120       0.000000000000
121       1.119161311590
122       0.000000000000
123       0.000000000000
124       0.000000000000
125       0.000000000000
126       0.000000000000
127       0.000000000000
128       0.000000000000
129       0.000000000000
130       0.000000000000
131       0.000000000000
132       0.000000000000
133       0.000000000000
134       0.000000000000
135       0.000000000000
136       0.000000000000
137       0.000000000000
138       0.000000000000
139       0.000000000000
140       0.000000000000
141       0.000000000000
142       0.000000000000
143       0.000000000000
144       0.000000000000
145       0.000000000000
146       0.000000000000
147       0.000000000000
148       0.000000000000
149       0.000000000000
150       0.000000000000
151       0.000000000000
152       0.000000000000
153       0.000000000000
154       0.000000000000
155       0.000000000000
156       0.000000000000
157       0.000000000000
158       0.000000000000
159       0.000000000000
160       0.000000000000
161       0.000000000000
162       0.000000000000
163       0.000000000000
164       0.000000000000
165       0.000000000000
166       0.000000000000
167       0.000000000000
168       0.000000000000
169       0.000000000000
170       0.000000000000
171       0.000000000000
172       0.000000000000
173       0.000000000000
174       0.000000000000
175       0.000000000000
176       0.000000000000
177       0.000000000000
178       0.000000000000
 Sym=     1a
 Ene=  3.55020947930993E-01
Spin= Alpha
 Occup= 0.190969
  1       0.000000000000
  2       0.000000000000
  3       0.000000000000
  4       0.000000000000
  5       0.000000000000
  6       0.000000000000
  7       0.000000000000
  8       0.000000000000
  9       0.000000000000
 10       0.000000000000
 11       0.000000000000
 12       0.000000000000
 13       0.000000000000
 14       0.000000000000
 15       0.000000000000
 16       0.000000000000
 17       0.000000000000
 18       0.000000000000
 19       0.000000000000
 20       0.000000000000
 21       0.000000000000
 22       0.000000000000
 23       0.000000000000
 24       0.000000000000
 25       0.000000000000
 26       0.000000000000
 27       0.000000000000
 28       0.000000000000
 29       0.000000000000
 30       0.000000000000
 31       0.000000000000
 32       0.000000000000
 33       0.000000000000
 34       0.000000000000
 35       0.000000000000
 36       0.000000000000
 37       0.000000000000
 38       0.000000000000
 39       0.000000000000
 40       0.000000000000
 41       0.000000000000
 42       0.000000000000
 43       0.000000000000
 44       0.000000000000
 45       0.000000000000
 46       0.000000000000
 47       0.000000000000
 48       0.000000000000
 49       0.000000000000
 50       0.000000000000
 51       0.000000000000
 52       0.000000000000
 53       0.000000000000
 54       0.000000000000
 55       0.000000000000
 56       0.000000000000
 57       0.000000000000
 58       0.000000000000
 59       0.000000000000
 60       0.000000000000
 61       0.000000000000
 62       0.000000000000
 63       0.000000000000
 64       0.000000000000
 65       0.000000000000
 66       0.000000000000
 67       0.000000000000
 68       0.000000000000
 69       0.000000000000
 70       0.000000000000
 71       0.000000000000
 72       0.000000000000
 73       0.000000000000
 74       0.000000000000
 75       0.000000000000
 76       0.000000000000
 77       0.000000000000
 78       0.000000000000
 79       0.000000000000
 80       0.000000000000
 81       0.000000000000
 82       0.000000000000
 83       0.000000000000
 84       0.000000000000
 85       0.000000000000
 86       0.000000000000
 87       0.000000000000
 88       0.000000000000
 89       0.000000000000
 90       0.000000000000
 91       0.000000000000
 92       0.000000000000
 93       0.000000000000
 94       0.000000000000
 95       0.000000000000
 96       0.000000000000
 97       0.000000000000
 98       0.000000000000
 99       0.000000000000
100       0.000000000000
101       0.000000000000
102       0.000000000000
103       0.000000000000
104       0.000000000000
105       0.000000000000
106       0.000000000000
107       0.000000000000
108       0.000000000000
109       0.000000000000
110       0.000000000000
111       0.000000000000
112       0.000000000000
113       0.000000000000
114       0.000000000000
115       0.000000000000
116       0.000000000000
117      -0.276473400368
118       0.000000000000
119       0.000000000000
120       0.000000000000
121       0.000000000000
122       1.119161311590
123       0.000000000000
124       0.000000000000
125       0.000000000000
126       0.000000000000
127       0.000000000000
128       0.000000000000
129       0.000000000000
130       0.000000000000
131       0.000000000000
132       0.000000000000
133       0.000000000000
134       0.000000000000
135       0.000000000000
136       0.000000000000
137       0.000000000000
138       0.000000000000
139       0.000000000000
140       0.000000000000
141       0.000000000000
142       0.000000000000
143       0.000000000000
144       0.000000000000
145       0.000000000000
146       0.000000000000
147       0.000000000000
148       0.000000000000
149       0.000000000000
150       0.000000000000
151       0.000000000000
152       0.000000000000
153       0.000000000000
154       0.000000000000
155       0.000000000000
156       0.000000000000
157       0.000000000000
158       0.000000000000
159       0.000000000000
160       0.000000000000
161       0.000000000000
162       0.000000000000
163       0.000000000000
164       0.000000000000
165       0.000000000000
166       0.000000000000
167       0.000000000000
168       0.000000000000
169       0.000000000000
170       0.000000000000
171       0.000000000000
172       0.000000000000
173       0.000000000000
174       0.000000000000
175       0.000000000000
176       0.000000000000
177       0.000000000000
178       0.000000000000
 Sym=     1a
 Ene=  5.05120434602094E-01
Spin= Alpha
 Occup= 0.190969
  1       0.000000000000
  2       0.000000000000
  3       0.000000000000
  4       0.000000000000
  5       0.000000000000
  6       0.000000000000
  7       0.000000000000
  8       0.000000000000
  9       0.000000000000
 10       0.000000000000
 11       0.000000000000
 12       0.000000000000
 13       0.000000000000
 14       0.000000000000
 15       0.000000000000
 16       0.000000000000
 17       0.000000000000
 18       0.000000000000
 19       0.000000000000
 20       0.000000000000
 21       0.000000000000
 22       0.000000000000
 23       0.000000000000
 24       0.000000000000
 25       0.000000000000
 26       0.000000000000
 27       0.000000000000
 28       0.000000000000
 29       0.000000000000
 30       0.000000000000
 31       0.000000000000
 32       0.000000000000
 33       0.000000000000
 34       0.000000000000
 35       0.000000000000
 36       0.000000000000
 37       0.000000000000
 38       0.000000000000
 39       0.000000000000
 40       0.000000000000
 41       0.000000000000
 42       0.000000000000
 43       0.000000000000
 44       0.000000000000
 45       0.000000000000
 46       0.000000000000
 47       0.000000000000
 48       0.000000000000
 49       0.000000000000
 50       0.000000000000
 51       0.000000000000
 52       0.000000000000
 53       0.000000000000
 54       0.000000000000
 55       0.000000000000
 56       0.000000000000
 57       0.000000000000
 58       0.000000000000
 59       0.000000000000
 60       0.000000000000
 61       0.000000000000
 62       0.000000000000
 63       0.000000000000
 64       0.000000000000
 65       0.000000000000
 66       0.000000000000
 67       0.000000000000
 68       0.000000000000
 69       0.000000000000
 70       0.000000000000
 71       0.000000000000
 72       0.000000000000
 73       0.000000000000
 74       0.000000000000
 75       0.000000000000
 76       0.000000000000
 77       0.000000000000
 78       0.000000000000
 79       0.000000000000
 80       0.000000000000
 81       0.000000000000
 82       0.000000000000
 83       0.000000000000
 84       0.000000000000
 85       0.000000000000
 86       0.000000000000
 87       0.000000000000
 88       0.000000000000
 89       0.000000000000
 90       0.000000000000
 91       0.000000000000
 92       0.000000000000
 93       0.000000000000
 94       0.000000000000
 95       0.000000000000
 96       0.000000000000
 97       0.000000000000
 98       0.000000000000
 99       0.000000000000
100       0.000000000000
101       0.000000000000
102       0.000000000000
103       0.000000000000
104       0.000000000000
105       0.000000000000
106       0.000000000000
107       0.000000000000
108       0.000000000000
109       0.000000000000
110       0.000000000000
111       0.000000000000
112       0.000000000000
113       0.000000000000
114       0.000000000000
115       0.000000000000
116       0.000000000000
117       0.000000000000
118      -0.276473400368
119       0.000000000000
120       0.000000000000
121       0.000000000000
122       0.000000000000
123       1.119161311590
124       0.000000000000
125       0.000000000000
126       0.000000000000
127       0.000000000000
128       0.000000000000
129       0.000000000000
130       0.000000000000
131       0.000000000000
132       0.000000000000
133       0.000000000000
134       0.000000000000
135       0.000000000000
136       0.000000000000
137       0.000000000000
138       0.000000000000
139       0.000000000000
140       0.000000000000
141       0.000000000000
142       0.000000000000
143       0.000000000000
144       0.000000000000
145       0.000000000000
146       0.000000000000
147       0.000000000000
148       0.000000000000
149       0.000000000000
150       0.000000000000
151       0.000000000000
152       0.000000000000
153       0.000000000000
154       0.000000000000
155       0.000000000000
156       0.000000000000
157       0.000000000000
158       0.000000000000
159       0.000000000000
160       0.000000000000
161       0.000000000000
162       0.000000000000
163       0.000000000000
164       0.000000000000
165       0.000000000000
166       0.000000000000
167       0.000000000000
168       0.000000000000
169       0.000000000000
170       0.000000000000
171       0.000000000000
172       0.000000000000
173       0.000000000000
174       0.000000000000
175       0.000000000000
176       0.000000000000
177       0.000000000000
178       0.000000000000
 Sym=     1a
 Ene=  2.31807043451500E+00
Spin= Alpha
 Occup= 0.016928
  1       0.000000000000
  2       0.000000000000
  3       0.000000000000
  4       0.000000000000
  5       0.000000000000
  6       0.000000000000
  7       0.000000000000
  8       0.000000000000
  9       0.000000000000
 10       0.000000000000
 11       0.000000000000
 12       0.000000000000
 13       0.000000000000
 14       0.000000000000
 15       0.000000000000
 16       0.000000000000
 17       0.000000000000
 18       0.000000000000
 19       0.000000000000
 20       0.000000000000
 21       0.000000000000
 22       0.000000000000
 23       0.000000000000
 24       0.000000000000
 25       0.000000000000
 26       0.000000000000
 27       0.000000000000
 28       0.000000000000
 29       0.000000000000
 30       0.000000000000
 31       0.000000000000
 32       0.000000000000
 33       0.000000000000
 34       0.000000000000
 35       0.000000000000
 36       0.000000000000
 37       0.000000000000
 38       0.000000000000
 39       0.000000000000
 40       0.000000000000
 41       0.000000000000
 42       0.000000000000
 43       0.000000000000
 44       0.000000000000
 45       0.000000000000
 46       0.000000000000
 47       0.000000000000
 48       0.000000000000
 49       0.000000000000
 50       0.000000000000
 51       0.000000000000
 52       0.000000000000
 53       0.000000000000
 54       0.000000000000
 55       0.000000000000
 56       0.000000000000
 57       0.000000000000
 58       0.000000000000
 59       0.000000000000
 60       0.000000000000
 61       0.000000000000
 62       0.000000000000
 63       0.000000000000
 64       0.000000000000
 65       0.000000000000
 66       0.000000000000
 67       0.000000000000
 68       0.000000000000
 69       0.000000000000
 70       0.000000000000
 71       0.000000000000
 72       0.000000000000
 73       0.000000000000
 74       0.000000000000
 75       0.000000000000
 76       0.000000000000
 77       0.000000000000
 78       0.000000000000
 79       0.000000000000
 80       0.000000000000
 81       0.000000000000
 82       0.000000000000
 83       0.000000000000
 84       0.000000000000
 85       0.000000000000
 86       0.000000000000
 87       0.000000000000
 88       0.000000000000
 89       0.000000000000
 90       0.000000000000
 91       0.000000000000
 92       0.000000000000
 93       0.000000000000
 94       0.000000000000
 95       0.000000000000
 96       0.000000000000
 97       0.000000000000
 98       0.000000000000
 99       0.000000000000
100       0.000000000000
101       0.000000000000
102       0.000000000000
103       0.000000000000
104       0.000000000000
105       0.000000000000
106       0.000000000000
107       0.000000000000
108       0.000000000000
109       0.000000000000
110       0.000000000000
111       0.000000000000
112       0.000000000000
113       0.000000000000
114       0.000000000000
115       0.000000000000
116       0.000000000000
117       0.000000000000
118       0.000000000000
119       0.000000000000
120       0.000000000000
121       0.000000000000
122       0.000000000000
123       0.000000000000
124       1.000000000000
125       0.000000000000
126       0.000000000000
127       0.000000000000
128       0.000000000000
129       0.000000000000
130       0.000000000000
131       0.000000000000
132       0.000000000000
133       0.000000000000
134       0.000000000000
135       0.000000000000
136       0.000000000000
137       0.000000000000
138       0.000000000000
139       0.000000000000
140       0.000000000000
141       0.000000000000
142       0.000000000000
143       0.000000000000
144       0.000000000000
145       0.000000000000
146       0.000000000000
147       0.000000000000
148       0.000000000000
149       0.000000000000
150       0.000000000000
151       0.000000000000
152       0.000000000000
153       0.000000000000
154       0.000000000000
155       0.000000000000
156       0.000000000000
157       0.000000000000
158       0.000000000000
159       0.000000000000
160       0.000000000000
161       0.000000000000
162       0.000000000000
163       0.000000000000
164       0.000000000000
165       0.000000000000
166       0.000000000000
167       0.000000000000
168       0.000000000000
169       0.000000000000
170       0.000000000000
171       0.000000000000
172       0.000000000000
173       0.000000000000
174       0.000000000000
175       0.000000000000
176       0.000000000000
177       0.000000000000
178       0.000000000000
 Sym=     1a
 Ene=  2.36349266855264E+00
Spin= Alpha
 Occup= 0.016928
  1       0.000000000000
  2       0.000000000000
  3       0.000000000000
  4       0.000000000000
  5       0.000000000000
  6       0.000000000000
  7       0.000000000000
  8       0.000000000000
  9       0.000000000000
 10       0.000000000000
 11       0.000000000000
 12       0.000000000000
 13       0.000000000000
 14       0.000000000000
 15       0.000000000000
 16       0.000000000000
 17       0.000000000000
 18       0.000000000000
 19       0.000000000000
 20       0.000000000000
 21       0.000000000000
 22       0.000000000000
 23       0.000000000000
 24       0.000000000000
 25       0.000000000000
 26       0.000000000000
 27       0.000000000000
 28       0.000000000000
 29       0.000000000000
 30       0.000000000000
 31       0.000000000000
 32       0.000000000000
 33       0.000000000000
 34       0.000000000000
 35       0.000000000000
 36       0.000000000000
 37       0.000000000000
 38       0.000000000000
 39       0.000000000000
 40       0.000000000000
 41       0.000000000000
 42       0.000000000000
 43       0.000000000000
 44       0.000000000000
 45       0.000000000000
 46       0.000000000000
 47       0.000000000000
 48       0.000000000000
 49       0.000000000000
 50       0.000000000000
 51       0.000000000000
 52       0.000000000000
 53       0.000000000000
 54       0.000000000000
 55       0.000000000000
 56       0.000000000000
 57       0.000000000000
 58       0.000000000000
 59       0.000000000000
 60       0.000000000000
 61       0.000000000000
 62       0.000000000000
 63       0.000000000000
 64       0.000000000000
 65       0.000000000000
 66       0.000000000000
 67       0.000000000000
 68       0.000000000000
 69       0.000000000000
 70       0.000000000000
 71       0.000000000000
 72       0.000000000000
 73       0.000000000000
 74       0.000000000000
 75       0.000000000000
 76       0.000000000000
 77       0.000000000000
 78       0.000000000000
 79       0.000000000000
 80       0.000000000000
 81       0.000000000000
 82       0.000000000000
 83       0.000000000000
 84       0.000000000000
 85       0.000000000000
 86       0.000000000000
 87       0.000000000000
 88       0.000000000000
 89       0.000000000000
 90       0.000000000000
 91       0.000000000000
 92       0.000000000000
 93       0.000000000000
 94       0.000000000000
 95       0.000000000000
 96       0.000000000000
 97       0.000000000000
 98       0.000000000000
 99       0.000000000000
100       0.000000000000
101       0.000000000000
102       0.000000000000
103       0.000000000000
104       0.000000000000
105       0.000000000000
106       0.000000000000
107       0.000000000000
108       0.000000000000
109       0.000000000000
110       0.000000000000
111       0.000000000000
112       0.000000000000
113       0.000000000000
114       0.000000000000
115       0.000000000000
116       0.000000000000
117       0.000000000000
118       0.000000000000
119       0.000000000000
120       0.000000000000
121       0.000000000000
122       0.000000000000
123       0.000000000000
124       0.000000000000
125       1.000000000000
126       0.000000000000
127       0.000000000000
128       0.000000000000
129       0.000000000000
130       0.000000000000
131       0.000000000000
132       0.000000000000
133       0.000000000000
134       0.000000000000
135       0.000000000000
136       0.000000000000
137       0.000000000000
138       0.000000000000
139       0.000000000000
140       0.000000000000
141       0.000000000000
142       0.000000000000
143       0.000000000000
144       0.000000000000
145       0.000000000000
146       0.000000000000
147       0.000000000000
148       0.000000000000
149       0.000000000000
150       0.000000000000
151       0.000000000000
152       0.000000000000
153       0.000000000000
154       0.000000000000
155       0.000000000000
156       0.000000000000
157       0.000000000000
158       0.000000000000
159       0.000000000000
160       0.000000000000
161       0.000000000000
162       0.000000000000
163       0.000000000000
164       0.000000000000
165       0.000000000000
166       0.000000000000
167       0.000000000000
168       0.000000000000
169       0.000000000000
170       0.000000000000
171       0.000000000000
172       0.000000000000
173       0.000000000000
174       0.000000000000
175       0.000000000000
176       0.000000000000
177       0.000000000000
178       0.000000000000
 Sym=     1a
 Ene=  2.31333133914580E+00
Spin= Alpha
 Occup= 0.016928
  1       0.000000000000
  2       0.000000000000
  3       0.000000000000
  4       0.000000000000
  5       0.000000000000
  6       0.000000000000
  7       0.000000000000
  8       0.000000000000
  9       0.000000000000
 10       0.000000000000
 11       0.000000000000
 12       0.000000000000
 13       0.000000000000
 14       0.000000000000
 15       0.000000000000
 16       0.000000000000
 17       0.000000000000
 18       0.000000000000
 19       0.000000000000
 20       0.000000000000
 21       0.000000000000
 22       0.000000000000
 23       0.000000000000
 24       0.000000000000
 25       0.000000000000
 26       0.000000000000
 27       0.000000000000
 28       0.000000000000
 29       0.000000000000
 30       0.000000000000
 31       0.000000000000
 32       0.000000000000
 33       0.000000000000
 34       0.000000000000
 35       0.000000000000
 36       0.000000000000
 37       0.000000000000
 38       0.000000000000
 39       0.000000000000
 40       0.000000000000
 41       0.000000000000
 42       0.000000000000
 43       0.000000000000
 44       0.000000000000
 45       0.000000000000
 46       0.000000000000
 47       0.000000000000
 48       0.000000000000
 49       0.000000000000
 50       0.000000000000
 51       0.000000000000
 52       0.000000000000
 53       0.000000000000
 54       0.000000000000
 55       0.000000000000
 56       0.000000000000
 57       0.000000000000
 58       0.000000000000
 59       0.000000000000
 60       0.000000000000
 61       0.000000000000
 62       0.000000000000
 63       0.000000000000
 64       0.000000000000
 65       0.000000000000
 66       0.000000000000
 67       0.000000000000
 68       0.000000000000
 69       0.000000000000
 70       0.000000000000
 71       0.000000000000
 72       0.000000000000
 73       0.000000000000
 74       0.000000000000
 75       0.000000000000
 76       0.000000000000
 77       0.000000000000
 78       0.000000000000
 79       0.000000000000
 80       0.000000000000
 81       0.000000000000
 82       0.000000000000
 83       0.000000000000
 84       0.000000000000
 85       0.000000000000
 86       0.000000000000
 87       0.000000000000
 88       0.000000000000
 89       0.000000000000
 90       0.000000000000
 91       0.000000000000
 92       0.000000000000
 93       0.000000000000
 94       0.000000000000
 95       0.000000000000
 96       0.000000000000
 97       0.000000000000
 98       0.000000000000
 99       0.000000000000
100       0.000000000000
101       0.000000000000
102       0.000000000000
103       0.000000000000
104       0.000000000000
105       0.000000000000
106       0.000000000000
107       0.000000000000
108       0.000000000000
109       0.000000000000
110       0.000000000000
111       0.000000000000
112       0.000000000000
113       0.000000000000
114       0.000000000000
115       0.000000000000
116       0.000000000000
117       0.000000000000
118       0.000000000000
119       0.000000000000
120       0.000000000000
121       0.000000000000
122       0.000000000000
123       0.000000000000
124       0.000000000000
125       0.000000000000
126       1.000000000000
127       0.000000000000
128       0.000000000000
129       0.000000000000
130       0.000000000000
131       0.000000000000
132       0.000000000000
133       0.000000000000
134       0.000000000000
135       0.000000000000
136       0.000000000000
137       0.000000000000
138       0.000000000000
139       0.000000000000
140       0.000000000000
141       0.000000000000
142       0.000000000000
143       0.000000000000
144       0.000000000000
145       0.000000000000
146       0.000000000000
147       0.000000000000
148       0.000000000000
149       0.000000000000
150       0.000000000000
151       0.000000000000
152       0.000000000000
153       0.000000000000
154       0.000000000000
155       0.000000000000
156       0.000000000000
157       0.000000000000
158       0.000000000000
159       0.000000000000
160       0.000000000000
161       0.000000000000
162       0.000000000000
163       0.000000000000
164       0.000000000000
165       0.000000000000
166       0.000000000000
167       0.000000000000
168       0.000000000000
169       0.000000000000
170       0.000000000000
171       0.000000000000
172       0.000000000000
173       0.000000000000
174       0.000000000000
175       0.000000000000
176       0.000000000000
177       0.000000000000
178       0.000000000000
 Sym=     1a
 Ene=  2.29714865133431E+00
Spin= Alpha
 Occup= 0.016928
  1       0.000000000000
  2       0.000000000000
  3       0.000000000000
  4       0.000000000000
  5       0.000000000000
  6       0.000000000000
  7       0.000000000000
  8       0.000000000000
  9       0.000000000000
 10       0.000000000000
 11       0.000000000000
 12       0.000000000000
 13       0.000000000000
 14       0.000000000000
 15       0.000000000000
 16       0.000000000000
 17       0.000000000000
 18       0.000000000000
 19       0.000000000000
 20       0.000000000000
 21       0.000000000000
 22       0.000000000000
 23       0.000000000000
 24       0.000000000000
 25       0.000000000000
 26       0.000000000000
 27       0.000000000000
 28       0.000000000000
 29       0.000000000000
 30       0.000000000000
 31       0.000000000000
 32       0.000000000000
 33       0.000000000000
 34       0.000000000000
 35       0.000000000000
 36       0.000000000000
 37       0.000000000000
 38       0.000000000000
 39       0.000000000000
 40       0.000000000000
 41       0.000000000000
 42       0.000000000000
 43       0.000000000000
 44       0.000000000000
 45       0.000000000000
 46       0.000000000000
 47       0.000000000000
 48       0.000000000000
 49       0.000000000000
 50       0.000000000000
 51       0.000000000000
 52       0.000000000000
 53       0.000000000000
 54       0.000000000000
 55       0.000000000000
 56       0.000000000000
 57       0.000000000000
 58       0.000000000000
 59       0.000000000000
 60       0.000000000000
 61       0.000000000000
 62       0.000000000000
 63       0.000000000000
 64       0.000000000000
 65       0.000000000000
 66       0.000000000000
 67       0.000000000000
 68       0.000000000000
 69       0.000000000000
 70       0.000000000000
 71       0.000000000000
 72       0.000000000000
 73       0.000000000000
 74       0.000000000000
 75       0.000000000000
 76       0.000000000000
 77       0.000000000000
 78       0.000000000000
 79       0.000000000000
 80       0.000000000000
 81       0.000000000000
 82       0.000000000000
 83       0.000000000000
 84       0.000000000000
 85       0.000000000000
 86       0.000000000000
 87       0.000000000000
 88       0.000000000000
 89       0.000000000000
 90       0.000000000000
 91       0.000000000000
 92       0.000000000000
 93       0.000000000000
 94       0.000000000000
 95       0.000000000000
 96       0.000000000000
 97       0.000000000000
 98       0.000000000000
 99       0.000000000000
100       0.000000000000
101       0.000000000000
102       0.000000000000
103       0.000000000000
104       0.000000000000
105       0.000000000000
106       0.000000000000
107       0.000000000000
108       0.000000000000
109       0.000000000000
110       0.000000000000
111       0.000000000000
112       0.000000000000
113       0.000000000000
114       0.000000000000
115       0.000000000000
116       0.000000000000
117       0.000000000000
118       0.000000000000
119       0.000000000000
120       0.000000000000
121       0.000000000000
122       0.000000000000
123       0.000000000000
124       0.000000000000
125       0.000000000000
126       0.000000000000
127       1.000000000000
128       0.000000000000
129       0.000000000000
130       0.000000000000
131       0.000000000000
132       0.000000000000
133       0.000000000000
134       0.000000000000
135       0.000000000000
136       0.000000000000
137       0.000000000000
138       0.000000000000
139       0.000000000000
140       0.000000000000
141       0.000000000000
142       0.000000000000
143       0.000000000000
144       0.000000000000
145       0.000000000000
146       0.000000000000
147       0.000000000000
148       0.000000000000
149       0.000000000000
150       0.000000000000
151       0.000000000000
152       0.000000000000
153       0.000000000000
154       0.000000000000
155       0.000000000000
156       0.000000000000
157       0.000000000000
158       0.000000000000
159       0.000000000000
160       0.000000000000
161       0.000000000000
162       0.000000000000
163       0.000000000000
164       0.000000000000
165       0.000000000000
166       0.000000000000
167       0.000000000000
168       0.000000000000
169       0.000000000000
170       0.000000000000
171       0.000000000000
172       0.000000000000
173       0.000000000000
174       0.000000000000
175       0.000000000000
176       0.000000000000
177       0.000000000000
178       0.000000000000
 Sym=     1a
 Ene=  2.39130403665075E+00
Spin= Alpha
 Occup= 0.016928
  1       0.000000000000
  2       0.000000000000
  3       0.000000000000
  4       0.000000000000
  5       0.000000000000
  6       0.000000000000
  7       0.000000000000
  8       0.000000000000
  9       0.000000000000
 10       0.000000000000
 11       0.000000000000
 12       0.000000000000
 13       0.000000000000
 14       0.000000000000
 15       0.000000000000
 16       0.000000000000
 17       0.000000000000
 18       0.000000000000
 19       0.000000000000
 20       0.000000000000
 21       0.000000000000
 22       0.000000000000
 23       0.000000000000
 24       0.000000000000
 25       0.000000000000
 26       0.000000000000
 27       0.000000000000
 28       0.000000000000
 29       0.000000000000
 30       0.000000000000
 31       0.000000000000
 32       0.000000000000
 33       0.000000000000
 34       0.000000000000
 35       0.000000000000
 36       0.000000000000
 37       0.000000000000
 38       0.000000000000
 39       0.000000000000
 40       0.000000000000
 41       0.000000000000
 42       0.000000000000
 43       0.000000000000
 44       0.000000000000
 45       0.000000000000
 46       0.000000000000
 47       0.000000000000
 48       0.000000000000
 49       0.000000000000
 50       0.000000000000
 51       0.000000000000
 52       0.000000000000
 53       0.000000000000
 54       0.000000000000
 55       0.000000000000
 56       0.000000000000
 57       0.000000000000
 58       0.000000000000
 59       0.000000000000
 60       0.000000000000
 61       0.000000000000
 62       0.000000000000
 63       0.000000000000
 64       0.000000000000
 65       0.000000000000
 66       0.000000000000
 67       0.000000000000
 68       0.000000000000
 69       0.000000000000
 70       0.000000000000
 71       0.000000000000
 72       0.000000000000
 73       0.000000000000
 74       0.000000000000
 75       0.000000000000
 76       0.000000000000
 77       0.000000000000
 78       0.000000000000
 79       0.000000000000
 80       0.000000000000
 81       0.000000000000
 82       0.000000000000
 83       0.000000000000
 84       0.000000000000
 85       0.000000000000
 86       0.000000000000
 87       0.000000000000
 88       0.000000000000
 89       0.000000000000
 90       0.000000000000
 91       0.000000000000
 92       0.000000000000
 93       0.000000000000
 94       0.000000000000
 95       0.000000000000
 96       0.000000000000
 97       0.000000000000
 98       0.000000000000
 99       0.000000000000
100       0.000000000000
101       0.000000000000
102       0.000000000000
103       0.000000000000
104       0.000000000000
105       0.000000000000
106       0.000000000000
107       0.000000000000
108       0.000000000000
109       0.000000000000
110       0.000000000000
111       0.000000000000
112       0.000000000000
113       0.000000000000
114       0.000000000000
115       0.000000000000
116       0.000000000000
117       0.000000000000
118       0.000000000000
119       0.000000000000
120       0.000000000000
121       0.000000000000
122       0.000000000000
123       0.000000000000
124       0.000000000000
125       0.000000000000
126       0.000000000000
127       0.000000000000
128       1.000000000000
129       0.000000000000
130       0.000000000000
131       0.000000000000
132       0.000000000000
133       0.000000000000
134       0.000000000000
135       0.000000000000
136       0.000000000000
137       0.000000000000
138       0.000000000000
139       0.000000000000
140       0.000000000000
141       0.000000000000
142       0.000000000000
143       0.000000000000
144       0.000000000000
145       0.000000000000
146       0.000000000000
147       0.000000000000
148       0.000000000000
149       0.000000000000
150       0.000000000000
151       0.000000000000
152       0.000000000000
153       0.000000000000
154       0.000000000000
155       0.000000000000
156       0.000000000000
157       0.000000000000
158       0.000000000000
159       0.000000000000
160       0.000000000000
161       0.000000000000
162       0.000000000000
163       0.000000000000
164       0.000000000000
165       0.000000000000
166       0.000000000000
167       0.000000000000
168       0.000000000000
169       0.000000000000
170       0.000000000000
171       0.000000000000
172       0.000000000000
173       0.000000000000
174       0.000000000000
175       0.000000000000
176       0.000000000000
177       0.000000000000
178       0.000000000000
 Sym=     1a
 Ene=  2.39162031181688E+00
Spin= Alpha
 Occup= 0.016928
  1       0.000000000000
  2       0.000000000000
  3       0.000000000000
  4       0.000000000000
  5       0.000000000000
  6       0.000000000000
  7       0.000000000000
  8       0.000000000000
  9       0.000000000000
 10       0.000000000000
 11       0.000000000000
 12       0.000000000000
 13       0.000000000000
 14       0.000000000000
 15       0.000000000000
 16       0.000000000000
 17       0.000000000000
 18       0.000000000000
 19       0.000000000000
 20       0.000000000000
 21       0.000000000000
 22       0.000000000000
 23       0.000000000000
 24       0.000000000000
 25       0.000000000000
 26       0.000000000000
 27       0.000000000000
 28       0.000000000000
 29       0.000000000000
 30       0.000000000000
 31       0.000000000000
 32       0.000000000000
 33       0.000000000000
 34       0.000000000000
 35       0.000000000000
 36       0.000000000000
 37       0.000000000000
 38       0.000000000000
 39       0.000000000000
 40       0.000000000000
 41       0.000000000000
 42       0.000000000000
 43       0.000000000000
 44       0.000000000000
 45       0.000000000000
 46       0.000000000000
 47       0.000000000000
 48       0.000000000000
 49       0.000000000000
 50       0.000000000000
 51       0.000000000000
 52       0.000000000000
 53       0.000000000000
 54       0.000000000000
 55       0.000000000000
 56       0.000000000000
 57       0.000000000000
 58       0.000000000000
 59       0.000000000000
 60       0.000000000000
 61       0.000000000000
 62       0.000000000000
 63       0.000000000000
 64       0.000000000000
 65       0.000000000000
 66       0.000000000000
 67       0.000000000000
 68       0.000000000000
 69       0.000000000000
 70       0.000000000000
 71       0.000000000000
 72       0.000000000000
 73       0.000000000000
 74       0.000000000000
 75       0.000000000000
 76       0.000000000000
 77       0.000000000000
 78       0.000000000000
 79       0.000000000000
 80       0.000000000000
 81       0.000000000000
 82       0.000000000000
 83       0.000000000000
 84       0.000000000000
 85       0.000000000000
 86       0.000000000000
 87       0.000000000000
 88       0.000000000000
 89       0.000000000000
 90       0.000000000000
 91       0.000000000000
 92       0.000000000000
 93       0.000000000000
 94       0.000000000000
 95       0.000000000000
 96       0.000000000000
 97       0.000000000000
 98       0.000000000000
 99       0.000000000000
100       0.000000000000
101       0.000000000000
102       0.000000000000
103       0.000000000000
104       0.000000000000
105       0.000000000000
106       0.000000000000
107       0.000000000000
108       0.000000000000
109       0.000000000000
110       0.000000000000
111       0.000000000000
112       0.000000000000
113       0.000000000000
114       0.000000000000
115       0.000000000000
116       0.000000000000
117       0.000000000000
118       0.000000000000
119       0.000000000000
120       0.000000000000
121       0.000000000000
122       0.000000000000
123       0.000000000000
124       0.000000000000
125       0.000000000000
126       0.000000000000
127       0.000000000000
128       0.000000000000
129       1.000000000000
130       0.000000000000
131       0.000000000000
132       0.000000000000
133       0.000000000000
134       0.000000000000
135       0.000000000000
136       0.000000000000
137       0.000000000000
138       0.000000000000
139       0.000000000000
140       0.000000000000
141       0.000000000000
142       0.000000000000
143       0.000000000000
144       0.000000000000
145       0.000000000000
146       0.000000000000
147       0.000000000000
148       0.000000000000
149       0.000000000000
150       0.000000000000
151       0.000000000000
152       0.000000000000
153       0.000000000000
154       0.000000000000
155       0.000000000000
156       0.000000000000
157       0.000000000000
158       0.000000000000
159       0.000000000000
160       0.000000000000
161       0.000000000000
162       0.000000000000
163       0.000000000000
164       0.000000000000
165       0.000000000000
166       0.000000000000
167       0.000000000000
168       0.000000000000
169       0.000000000000
170       0.000000000000
171       0.000000000000
172       0.000000000000
173       0.000000000000
174       0.000000000000
175       0.000000000000
176       0.000000000000
177       0.000000000000
178       0.000000000000
 Sym=     1a
 Ene=  2.37086821711684E+00
Spin= Alpha
 Occup= 0.016928
  1       0.000000000000
  2       0.000000000000
  3       0.000000000000
  4       0.000000000000
  5       0.000000000000
  6       0.000000000000
  7       0.000000000000
  8       0.000000000000
  9       0.000000000000
 10       0.000000000000
 11       0.000000000000
 12       0.000000000000
 13       0.000000000000
 14       0.000000000000
 15       0.000000000000
 16       0.000000000000
 17       0.000000000000
 18       0.000000000000
 19       0.000000000000
 20       0.000000000000
 21       0.000000000000
 22       0.000000000000
 23       0.000000000000
 24       0.000000000000
 25       0.000000000000
 26       0.000000000000
 27       0.000000000000
 28       0.000000000000
 29       0.000000000000
 30       0.000000000000
 31       0.000000000000
 32       0.000000000000
 33       0.000000000000
 34       0.000000000000
 35       0.000000000000
 36       0.000000000000
 37       0.000000000000
 38       0.000000000000
 39       0.000000000000
 40       0.000000000000
 41       0.000000000000
 42       0.000000000000
 43       0.000000000000
 44       0.000000000000
 45       0.000000000000
 46       0.000000000000
 47       0.000000000000
 48       0.000000000000
 49       0.000000000000
 50       0.000000000000
 51       0.000000000000
 52       0.000000000000
 53       0.000000000000
 54       0.000000000000
 55       0.000000000000
 56       0.000000000000
 57       0.000000000000
 58       0.000000000000
 59       0.000000000000
 60       0.000000000000
 61       0.000000000000
 62       0.000000000000
 63       0.000000000000
 64       0.000000000000
 65       0.000000000000
 66       0.000000000000
 67       0.000000000000
 68       0.000000000000
 69       0.000000000000
 70       0.000000000000
 71       0.000000000000
 72       0.000000000000
 73       0.000000000000
 74       0.000000000000
 75       0.000000000000
 76       0.000000000000
 77       0.000000000000
 78       0.000000000000
 79       0.000000000000
 80       0.000000000000
 81       0.000000000000
 82       0.000000000000
 83       0.000000000000
 84       0.000000000000
 85       0.000000000000
 86       0.000000000000
 87       0.000000000000
 88       0.000000000000
 89       0.000000000000
 90       0.000000000000
 91       0.000000000000
 92       0.000000000000
 93       0.000000000000
 94       0.000000000000
 95       0.000000000000
 96       0.000000000000
 97       0.000000000000
 98       0.000000000000
 99       0.000000000000
100       0.000000000000
101       0.000000000000
102       0.000000000000
103       0.000000000000
104       0.000000000000
105       0.000000000000
106       0.000000000000
107       0.000000000000
108       0.000000000000
109       0.000000000000
110       0.000000000000
111       0.000000000000
112       0.000000000000
113       0.000000000000
114       0.000000000000
115       0.000000000000
116       0.000000000000
117       0.000000000000
118       0.000000000000
119       0.000000000000
120       0.000000000000
121       0.000000000000
122       0.000000000000
123       0.000000000000
124       0.000000000000
125       0.000000000000
126       0.000000000000
127       0.000000000000
128       0.000000000000
129       0.000000000000
130       1.000000000000
131       0.000000000000
132       0.000000000000
133       0.000000000000
134       0.000000000000
135       0.000000000000
136       0.000000000000
137       0.000000000000
138       0.000000000000
139       0.000000000000
140       0.000000000000
141       0.000000000000
142       0.000000000000
143       0.000000000000
144       0.000000000000
145       0.000000000000
146       0.000000000000
147       0.000000000000
148       0.000000000000
149       0.000000000000
150       0.000000000000
151       0.000000000000
152       0.000000000000
153       0.000000000000
154       0.000000000000
155       0.000000000000
156       0.000000000000
157       0.000000000000
158       0.000000000000
159       0.000000000000
160       0.000000000000
161       0.000000000000
162       0.000000000000
163       0.000000000000
164       0.000000000000
165       0.000000000000
166       0.000000000000
167       0.000000000000
168       0.000000000000
169       0.000000000000
170       0.000000000000
171       0.000000000000
172       0.000000000000
173       0.000000000000
174       0.000000000000
175       0.000000000000
176       0.000000000000
177       0.000000000000
178       0.000000000000
 Sym=     1a
 Ene=  1.94532598854794E+00
Spin= Alpha
 Occup= 0.018656
  1       0.000000000000
  2       0.000000000000
  3       0.000000000000
  4       0.000000000000
  5       0.000000000000
  6       0.000000000000
  7       0.000000000000
  8       0.000000000000
  9       0.000000000000
 10       0.000000000000
 11       0.000000000000
 12       0.000000000000
 13       0.000000000000
 14       0.000000000000
 15       0.000000000000
 16       0.000000000000
 17       0.000000000000
 18       0.000000000000
 19       0.000000000000
 20       0.000000000000
 21       0.000000000000
 22       0.000000000000
 23       0.000000000000
 24       0.000000000000
 25       0.000000000000
 26       0.000000000000
 27       0.000000000000
 28       0.000000000000
 29       0.000000000000
 30       0.000000000000
 31       0.000000000000
 32       0.000000000000
 33       0.000000000000
 34       0.000000000000
 35       0.000000000000
 36       0.000000000000
 37       0.000000000000
 38       0.000000000000
 39       0.000000000000
 40       0.000000000000
 41       0.000000000000
 42       0.000000000000
 43       0.000000000000
 44       0.000000000000
 45       0.000000000000
 46       0.000000000000
 47       0.000000000000
 48       0.000000000000
 49       0.000000000000
 50       0.000000000000
 51       0.000000000000
 52       0.000000000000
 53       0.000000000000
 54       0.000000000000
 55       0.000000000000
 56       0.000000000000
 57       0.000000000000
 58       0.000000000000
 59       0.000000000000
 60       0.000000000000
 61       0.000000000000
 62       0.000000000000
 63       0.000000000000
 64       0.000000000000
 65       0.000000000000
 66       0.000000000000
 67       0.000000000000
 68       0.000000000000
 69       0.000000000000
 70       0.000000000000
 71       0.000000000000
 72       0.000000000000
 73       0.000000000000
 74       0.000000000000
 75       0.000000000000
 76       0.000000000000
 77       0.000000000000
 78       0.000000000000
 79       0.000000000000
 80       0.000000000000
 81       0.000000000000
 82       0.000000000000
 83       0.000000000000
 84       0.000000000000
 85       0.000000000000
 86       0.000000000000
 87       0.000000000000
 88       0.000000000000
 89       0.000000000000
 90       0.000000000000
 91       0.000000000000
 92       0.000000000000
 93       0.000000000000
 94       0.000000000000
 95       0.000000000000
 96       0.000000000000
 97       0.000000000000
 98       0.000000000000
 99       0.000000000000
100       0.000000000000
101       0.000000000000
102       0.000000000000
103       0.000000000000
104       0.000000000000
105       0.000000000000
106       0.000000000000
107       0.000000000000
108       0.000000000000
109       0.000000000000
110       0.000000000000
111       0.000000000000
112       0.000000000000
113       0.000000000000
114       0.000000000000
115       0.000000000000
116       0.000000000000
117       0.000000000000
118       0.000000000000
119       0.000000000000
120       0.000000000000
121       0.000000000000
122       0.000000000000
123       0.000000000000
124       0.000000000000
125       0.000000000000
126       0.000000000000
127       0.000000000000
128       0.000000000000
129       0.000000000000
130       0.000000000000
131      -1.546276139254
132       1.612866637790
133      -0.581138655411
134       0.000000000000
135       0.000000000000
136       0.000000000000
137       0.000000000000
138       0.000000000000
139       0.000000000000
140       0.000000000000
141       0.000000000000
142       0.000000000000
143       0.000000000000
144       0.000000000000
145       0.000000000000
146       0.000000000000
147       0.000000000000
148       0.000000000000
149       0.000000000000
150       0.000000000000
151       0.000000000000
152       0.000000000000
153       0.000000000000
154       0.000000000000
155       0.000000000000
156       0.000000000000
157       0.000000000000
158       0.000000000000
159       0.000000000000
160       0.000000000000
161       0.000000000000
162       0.000000000000
163       0.000000000000
164       0.000000000000
165       0.000000000000
166       0.000000000000
167       0.000000000000
168       0.000000000000
169       0.000000000000
170       0.000000000000
171       0.000000000000
172       0.000000000000
173       0.000000000000
174       0.000000000000
175       0.000000000000
176       0.000000000000
177       0.000000000000
178       0.000000000000
 Sym=     1a
 Ene= -9.46576663236449E-02
Spin= Alpha
 Occup= 0.495973
  1       0.000000000000
  2       0.000000000000
  3       0.000000000000
  4       0.000000000000
  5       0.000000000000
  6       0.000000000000
  7       0.000000000000
  8       0.000000000000
  9       0.000000000000
 10       0.000000000000
 11       0.000000000000
 12       0.000000000000
 13       0.000000000000
 14       0.000000000000
 15       0.000000000000
 16       0.000000000000
 17       0.000000000000
 18       0.000000000000
 19       0.000000000000
 20       0.000000000000
 21       0.000000000000
 22       0.000000000000
 23       0.000000000000
 24       0.000000000000
 25       0.000000000000
 26       0.000000000000
 27       0.000000000000
 28       0.000000000000
 29       0.000000000000
 30       0.000000000000
 31       0.000000000000
 32       0.000000000000
 33       0.000000000000
 34       0.000000000000
 35       0.000000000000
 36       0.000000000000
 37       0.000000000000
 38       0.000000000000
 39       0.000000000000
 40       0.000000000000
 41       0.000000000000
 42       0.000000000000
 43       0.000000000000
 44       0.000000000000
 45       0.000000000000
 46       0.000000000000
 47       0.000000000000
 48       0.000000000000
 49       0.000000000000
 50       0.000000000000
 51       0.000000000000
 52       0.000000000000
 53       0.000000000000
 54       0.000000000000
 55       0.000000000000
 56       0.000000000000
 57       0.000000000000
 58       0.000000000000
 59       0.000000000000
 60       0.000000000000
 61       0.000000000000
 62       0.000000000000
 63       0.000000000000
 64       0.000000000000
 65       0.000000000000
 66       0.000000000000
 67       0.000000000000
 68       0.000000000000
 69       0.000000000000
 70       0.000000000000
 71       0.000000000000
 72       0.000000000000
 73       0.000000000000
 74       0.000000000000
 75       0.000000000000
 76       0.000000000000
 77       0.000000000000
 78       0.000000000000
 79       0.000000000000
 80       0.000000000000
 81       0.000000000000
 82       0.000000000000
 83       0.000000000000
 84       0.000000000000
 85       0.000000000000
 86       0.000000000000
 87       0.000000000000
 88       0.000000000000
 89       0.000000000000
 90       0.000000000000
 91       0.000000000000
 92       0.000000000000
 93       0.000000000000
 94       0.000000000000
 95       0.000000000000
 96       0.000000000000
 97       0.000000000000
 98       0.000000000000
 99       0.000000000000
100       0.000000000000
101       0.000000000000
102       0.000000000000
103       0.000000000000
104       0.000000000000
105       0.000000000000
106       0.000000000000
107       0.000000000000
108       0.000000000000
109       0.000000000000
110       0.000000000000
111       0.000000000000
112       0.000000000000
113       0.000000000000
114       0.000000000000
115       0.000000000000
116       0.000000000000
117       0.000000000000
118       0.000000000000
119       0.000000000000
120       0.000000000000
121       0.000000000000
122       0.000000000000
123       0.000000000000
124       0.000000000000
125       0.000000000000
126       0.000000000000
127       0.000000000000
128       0.000000000000
129       0.000000000000
130       0.000000000000
131       0.159153344974
132      -1.489047605672
133       1.693863152449
134       0.000000000000
135       0.000000000000
136       0.000000000000
137       0.000000000000
138       0.000000000000
139       0.000000000000
140       0.000000000000
141       0.000000000000
142       0.000000000000
143       0.000000000000
144       0.000000000000
145       0.000000000000
146       0.000000000000
147       0.000000000000
148       0.000000000000
149       0.000000000000
150       0.000000000000
151       0.000000000000
152       0.000000000000
153       0.000000000000
154       0.000000000000
155       0.000000000000
156       0.000000000000
157       0.000000000000
158       0.000000000000
159       0.000000000000
160       0.000000000000
161       0.000000000000
162       0.000000000000
163       0.000000000000
164       0.000000000000
165       0.000000000000
166       0.000000000000
167       0.000000000000
168       0.000000000000
169       0.000000000000
170       0.000000000000
171       0.000000000000
172       0.000000000000
173       0.000000000000
174       0.000000000000
175       0.000000000000
176       0.000000000000
177       0.000000000000
178       0.000000000000
 Sym=     1a
 Ene= -6.99365776705767E-01
Spin= Alpha
 Occup= 1.615504
  1       0.000000000000
  2       0.000000000000
  3       0.000000000000
  4       0.000000000000
  5       0.000000000000
  6       0.000000000000
  7       0.000000000000
  8       0.000000000000
  9       0.000000000000
 10       0.000000000000
 11       0.000000000000
 12       0.000000000000
 13       0.000000000000
 14       0.000000000000
 15       0.000000000000
 16       0.000000000000
 17       0.000000000000
 18       0.000000000000
 19       0.000000000000
 20       0.000000000000
 21       0.000000000000
 22       0.000000000000
 23       0.000000000000
 24       0.000000000000
 25       0.000000000000
 26       0.000000000000
 27       0.000000000000
 28       0.000000000000
 29       0.000000000000
 30       0.000000000000
 31       0.000000000000
 32       0.000000000000
 33       0.000000000000
 34       0.000000000000
 35       0.000000000000
 36       0.000000000000
 37       0.000000000000
 38       0.000000000000
 39       0.000000000000
 40       0.000000000000
 41       0.000000000000
 42       0.000000000000
 43       0.000000000000
 44       0.000000000000
 45       0.000000000000
 46       0.000000000000
 47       0.000000000000
 48       0.000000000000
 49       0.000000000000
 50       0.000000000000
 51       0.000000000000
 52       0.000000000000
 53       0.000000000000
 54       0.000000000000
 55       0.000000000000
 56       0.000000000000
 57       0.000000000000
 58       0.000000000000
 59       0.000000000000
 60       0.000000000000
 61       0.000000000000
 62       0.000000000000
 63       0.000000000000
 64       0.000000000000
 65       0.000000000000
 66       0.000000000000
 67       0.000000000000
 68       0.000000000000
 69       0.000000000000
 70       0.000000000000
 71       0.000000000000
 72       0.000000000000
 73       0.000000000000
 74       0.000000000000
 75       0.000000000000
 76       0.000000000000
 77       0.000000000000
 78       0.000000000000
 79       0.000000000000
 80       0.000000000000
 81       0.000000000000
 82       0.000000000000
 83       0.000000000000
 84       0.000000000000
 85       0.000000000000
 86       0.000000000000
 87       0.000000000000
 88       0.000000000000
 89       0.000000000000
 90       0.000000000000
 91       0.000000000000
 92       0.000000000000
 93       0.000000000000
 94       0.000000000000
 95       0.000000000000
 96       0.000000000000
 97       0.000000000000
 98       0.000000000000
 99       0.000000000000
100       0.000000000000
101       0.000000000000
102       0.000000000000
103       0.000000000000
104       0.000000000000
105       0.000000000000
106       0.000000000000
107       0.000000000000
108       0.000000000000
109       0.000000000000
110       0.000000000000
111       0.000000000000
112       0.000000000000
113       0.000000000000
114       0.000000000000
115       0.000000000000
116       0.000000000000
117       0.000000000000
118       0.000000000000
119       0.000000000000
120       0.000000000000
121       0.000000000000
122       0.000000000000
123       0.000000000000
124       0.000000000000
125       0.000000000000
126       0.000000000000
127       0.000000000000
128       0.000000000000
129       0.000000000000
130       0.000000000000
131       0.103505240555
132       0.840710552243
133       0.105751232460
134       0.000000000000
135       0.000000000000
136       0.000000000000
137       0.000000000000
138       0.000000000000
139       0.000000000000
140       0.000000000000
141       0.000000000000
142       0.000000000000
143       0.000000000000
144       0.000000000000
145       0.000000000000
146       0.000000000000
147       0.000000000000
148       0.000000000000
149       0.000000000000
150       0.000000000000
151       0.000000000000
152       0.000000000000
153       0.000000000000
154       0.000000000000
155       0.000000000000
156       0.000000000000
157       0.000000000000
158       0.000000000000
159       0.000000000000
160       0.000000000000
161       0.000000000000
162       0.000000000000
163       0.000000000000
164       0.000000000000
165       0.000000000000
166       0.000000000000
167       0.000000000000
168       0.000000000000
169       0.000000000000
170       0.000000000000
171       0.000000000000
172       0.000000000000
173       0.000000000000
174       0.000000000000
175       0.000000000000
176       0.000000000000
177       0.000000000000
178       0.000000000000
 Sym=     1a
 Ene=  1.20951350782904E+00
Spin= Alpha
 Occup= 0.115045
  1       0.000000000000
  2       0.000000000000
  3       0.000000000000
  4       0.000000000000
  5       0.000000000000
  6       0.000000000000
  7       0.000000000000
  8       0.000000000000
  9       0.000000000000
 10       0.000000000000
 11       0.000000000000
 12       0.000000000000
 13       0.000000000000
 14       0.000000000000
 15       0.000000000000
 16       0.000000000000
 17       0.000000000000
 18       0.000000000000
 19       0.000000000000
 20       0.000000000000
 21       0.000000000000
 22       0.000000000000
 23       0.000000000000
 24       0.000000000000
 25       0.000000000000
 26       0.000000000000
 27       0.000000000000
 28       0.000000000000
 29       0.000000000000
 30       0.000000000000
 31       0.000000000000
 32       0.000000000000
 33       0.000000000000
 34       0.000000000000
 35       0.000000000000
 36       0.000000000000
 37       0.000000000000
 38       0.000000000000
 39       0.000000000000
 40       0.000000000000
 41       0.000000000000
 42       0.000000000000
 43       0.000000000000
 44       0.000000000000
 45       0.000000000000
 46       0.000000000000
 47       0.000000000000
 48       0.000000000000
 49       0.000000000000
 50       0.000000000000
 51       0.000000000000
 52       0.000000000000
 53       0.000000000000
 54       0.000000000000
 55       0.000000000000
 56       0.000000000000
 57       0.000000000000
 58       0.000000000000
 59       0.000000000000
 60       0.000000000000
 61       0.000000000000
 62       0.000000000000
 63       0.000000000000
 64       0.000000000000
 65       0.000000000000
 66       0.000000000000
 67       0.000000000000
 68       0.000000000000
 69       0.000000000000
 70       0.000000000000
 71       0.000000000000
 72       0.000000000000
 73       0.000000000000
 74       0.000000000000
 75       0.000000000000
 76       0.000000000000
 77       0.000000000000
 78       0.000000000000
 79       0.000000000000
 80       0.000000000000
 81       0.000000000000
 82       0.000000000000
 83       0.000000000000
 84       0.000000000000
 85       0.000000000000
 86       0.000000000000
 87       0.000000000000
 88       0.000000000000
 89       0.000000000000
 90       0.000000000000
 91       0.000000000000
 92       0.000000000000
 93       0.000000000000
 94       0.000000000000
 95       0.000000000000
 96       0.000000000000
 97       0.000000000000
 98       0.000000000000
 99       0.000000000000
100       0.000000000000
101       0.000000000000
102       0.000000000000
103       0.000000000000
104       0.000000000000
105       0.000000000000
106       0.000000000000
107       0.000000000000
108       0.000000000000
109       0.000000000000
110       0.000000000000
111       0.000000000000
112       0.000000000000
113       0.000000000000
114       0.000000000000
115       0.000000000000
116       0.000000000000
117       0.000000000000
118       0.000000000000
119       0.000000000000
120       0.000000000000
121       0.000000000000
122       0.000000000000
123       0.000000000000
124       0.000000000000
125       0.000000000000
126       0.000000000000
127       0.000000000000
128       0.000000000000
129       0.000000000000
130       0.000000000000
131       0.000000000000
132       0.000000000000
133       0.000000000000
134       1.000000000000
135       0.000000000000
136       0.000000000000
137       0.000000000000
138       0.000000000000
139       0.000000000000
140       0.000000000000
141       0.000000000000
142       0.000000000000
143       0.000000000000
144       0.000000000000
145       0.000000000000
146       0.000000000000
147       0.000000000000
148       0.000000000000
149       0.000000000000
150       0.000000000000
151       0.000000000000
152       0.000000000000
153       0.000000000000
154       0.000000000000
155       0.000000000000
156       0.000000000000
157       0.000000000000
158       0.000000000000
159       0.000000000000
160       0.000000000000
161       0.000000000000
162       0.000000000000
163       0.000000000000
164       0.000000000000
165       0.000000000000
166       0.000000000000
167       0.000000000000
168       0.000000000000
169       0.000000000000
170       0.000000000000
171       0.000000000000
172       0.000000000000
173       0.000000000000
174       0.000000000000
175       0.000000000000
176       0.000000000000
177       0.000000000000
178       0.000000000000
 Sym=     1a
 Ene=  1.05071170521589E+00
Spin= Alpha
 Occup= 0.115045
  1       0.000000000000
  2       0.000000000000
  3       0.000000000000
  4       0.000000000000
  5       0.000000000000
  6       0.000000000000
  7       0.000000000000
  8       0.000000000000
  9       0.000000000000
 10       0.000000000000
 11       0.000000000000
 12       0.000000000000
 13       0.000000000000
 14       0.000000000000
 15       0.000000000000
 16       0.000000000000
 17       0.000000000000
 18       0.000000000000
 19       0.000000000000
 20       0.000000000000
 21       0.000000000000
 22       0.000000000000
 23       0.000000000000
 24       0.000000000000
 25       0.000000000000
 26       0.000000000000
 27       0.000000000000
 28       0.000000000000
 29       0.000000000000
 30       0.000000000000
 31       0.000000000000
 32       0.000000000000
 33       0.000000000000
 34       0.000000000000
 35       0.000000000000
 36       0.000000000000
 37       0.000000000000
 38       0.000000000000
 39       0.000000000000
 40       0.000000000000
 41       0.000000000000
 42       0.000000000000
 43       0.000000000000
 44       0.000000000000
 45       0.000000000000
 46       0.000000000000
 47       0.000000000000
 48       0.000000000000
 49       0.000000000000
 50       0.000000000000
 51       0.000000000000
 52       0.000000000000
 53       0.000000000000
 54       0.000000000000
 55       0.000000000000
 56       0.000000000000
 57       0.000000000000
 58       0.000000000000
 59       0.000000000000
 60       0.000000000000
 61       0.000000000000
 62       0.000000000000
 63       0.000000000000
 64       0.000000000000
 65       0.000000000000
 66       0.000000000000
 67       0.000000000000
 68       0.000000000000
 69       0.000000000000
 70       0.000000000000
 71       0.000000000000
 72       0.000000000000
 73       0.000000000000
 74       0.000000000000
 75       0.000000000000
 76       0.000000000000
 77       0.000000000000
 78       0.000000000000
 79       0.000000000000
 80       0.000000000000
 81       0.000000000000
 82       0.000000000000
 83       0.000000000000
 84       0.000000000000
 85       0.000000000000
 86       0.000000000000
 87       0.000000000000
 88       0.000000000000
 89       0.000000000000
 90       0.000000000000
 91       0.000000000000
 92       0.000000000000
 93       0.000000000000
 94       0.000000000000
 95       0.000000000000
 96       0.000000000000
 97       0.000000000000
 98       0.000000000000
 99       0.000000000000
100       0.000000000000
101       0.000000000000
102       0.000000000000
103       0.000000000000
104       0.000000000000
105       0.000000000000
106       0.000000000000
107       0.000000000000
108       0.000000000000
109       0.000000000000
110       0.000000000000
111       0.000000000000
112       0.000000000000
113       0.000000000000
114       0.000000000000
115       0.000000000000
116       0.000000000000
117       0.000000000000
118       0.000000000000
119       0.000000000000
120       0.000000000000
121       0.000000000000
122       0.000000000000
123       0.000000000000
124       0.000000000000
125       0.000000000000
126       0.000000000000
127       0.000000000000
128       0.000000000000
129       0.000000000000
130       0.000000000000
131       0.000000000000
132       0.000000000000
133       0.000000000000
134       0.000000000000
135       1.000000000000
136       0.000000000000
137       0.000000000000
138       0.000000000000
139       0.000000000000
140       0.000000000000
141       0.000000000000
142       0.000000000000
143       0.000000000000
144       0.000000000000
145       0.000000000000
146       0.000000000000
147       0.000000000000
148       0.000000000000
149       0.000000000000
150       0.000000000000
151       0.000000000000
152       0.000000000000
153       0.000000000000
154       0.000000000000
155       0.000000000000
156       0.000000000000
157       0.000000000000
158       0.000000000000
159       0.000000000000
160       0.000000000000
161       0.000000000000
162       0.000000000000
163       0.000000000000
164       0.000000000000
165       0.000000000000
166       0.000000000000
167       0.000000000000
168       0.000000000000
169       0.000000000000
170       0.000000000000
171       0.000000000000
172       0.000000000000
173       0.000000000000
174       0.000000000000
175       0.000000000000
176       0.000000000000
177       0.000000000000
178       0.000000000000
 Sym=     1a
 Ene=  1.04146524161498E+00
Spin= Alpha
 Occup= 0.115045
  1       0.000000000000
  2       0.000000000000
  3       0.000000000000
  4       0.000000000000
  5       0.000000000000
  6       0.000000000000
  7       0.000000000000
  8       0.000000000000
  9       0.000000000000
 10       0.000000000000
 11       0.000000000000
 12       0.000000000000
 13       0.000000000000
 14       0.000000000000
 15       0.000000000000
 16       0.000000000000
 17       0.000000000000
 18       0.000000000000
 19       0.000000000000
 20       0.000000000000
 21       0.000000000000
 22       0.000000000000
 23       0.000000000000
 24       0.000000000000
 25       0.000000000000
 26       0.000000000000
 27       0.000000000000
 28       0.000000000000
 29       0.000000000000
 30       0.000000000000
 31       0.000000000000
 32       0.000000000000
 33       0.000000000000
 34       0.000000000000
 35       0.000000000000
 36       0.000000000000
 37       0.000000000000
 38       0.000000000000
 39       0.000000000000
 40       0.000000000000
 41       0.000000000000
 42       0.000000000000
 43       0.000000000000
 44       0.000000000000
 45       0.000000000000
 46       0.000000000000
 47       0.000000000000
 48       0.000000000000
 49       0.000000000000
 50       0.000000000000
 51       0.000000000000
 52       0.000000000000
 53       0.000000000000
 54       0.000000000000
 55       0.000000000000
 56       0.000000000000
 57       0.000000000000
 58       0.000000000000
 59       0.000000000000
 60       0.000000000000
 61       0.000000000000
 62       0.000000000000
 63       0.000000000000
 64       0.000000000000
 65       0.000000000000
 66       0.000000000000
 67       0.000000000000
 68       0.000000000000
 69       0.000000000000
 70       0.000000000000
 71       0.000000000000
 72       0.000000000000
 73       0.000000000000
 74       0.000000000000
 75       0.000000000000
 76       0.000000000000
 77       0.000000000000
 78       0.000000000000
 79       0.000000000000
 80       0.000000000000
 81       0.000000000000
 82       0.000000000000
 83       0.000000000000
 84       0.000000000000
 85       0.000000000000
 86       0.000000000000
 87       0.000000000000
 88       0.000000000000
 89       0.000000000000
 90       0.000000000000
 91       0.000000000000
 92       0.000000000000
 93       0.000000000000
 94       0.000000000000
 95       0.000000000000
 96       0.000000000000
 97       0.000000000000
 98       0.000000000000
 99       0.000000000000
100       0.000000000000
101       0.000000000000
102       0.000000000000
103       0.000000000000
104       0.000000000000
105       0.000000000000
106       0.000000000000
107       0.000000000000
108       0.000000000000
109       0.000000000000
110       0.000000000000
111       0.000000000000
112       0.000000000000
113       0.000000000000
114       0.000000000000
115       0.000000000000
116       0.000000000000
117       0.000000000000
118       0.000000000000
119       0.000000000000
120       0.000000000000
121       0.000000000000
122       0.000000000000
123       0.000000000000
124       0.000000000000
125       0.000000000000
126       0.000000000000
127       0.000000000000
128       0.000000000000
129       0.000000000000
130       0.000000000000
131       0.000000000000
132       0.000000000000
133       0.000000000000
134       0.000000000000
135       0.000000000000
136       1.000000000000
137       0.000000000000
138       0.000000000000
139       0.000000000000
140       0.000000000000
141       0.000000000000
142       0.000000000000
143       0.000000000000
144       0.000000000000
145       0.000000000000
146       0.000000000000
147       0.000000000000
148       0.000000000000
149       0.000000000000
150       0.000000000000
151       0.000000000000
152       0.000000000000
153       0.000000000000
154       0.000000000000
155       0.000000000000
156       0.000000000000
157       0.000000000000
158       0.000000000000
159       0.000000000000
160       0.000000000000
161       0.000000000000
162       0.000000000000
163       0.000000000000
164       0.000000000000
165       0.000000000000
166       0.000000000000
167       0.000000000000
168       0.000000000000
169       0.000000000000
170       0.000000000000
171       0.000000000000
172       0.000000000000
173       0.000000000000
174       0.000000000000
175       0.000000000000
176       0.000000000000
177       0.000000000000
178       0.000000000000
 Sym=     1a
 Ene=  1.92463237397183E+00
Spin= Alpha
 Occup= 0.018355
  1       0.000000000000
  2       0.000000000000
  3       0.000000000000
  4       0.000000000000
  5       0.000000000000
  6       0.000000000000
  7       0.000000000000
  8       0.000000000000
  9       0.000000000000
 10       0.000000000000
 11       0.000000000000
 12       0.000000000000
 13       0.000000000000
 14       0.000000000000
 15       0.000000000000
 16       0.000000000000
 17       0.000000000000
 18       0.000000000000
 19       0.000000000000
 20       0.000000000000
 21       0.000000000000
 22       0.000000000000
 23       0.000000000000
 24       0.000000000000
 25       0.000000000000
 26       0.000000000000
 27       0.000000000000
 28       0.000000000000
 29       0.000000000000
 30       0.000000000000
 31       0.000000000000
 32       0.000000000000
 33       0.000000000000
 34       0.000000000000
 35       0.000000000000
 36       0.000000000000
 37       0.000000000000
 38       0.000000000000
 39       0.000000000000
 40       0.000000000000
 41       0.000000000000
 42       0.000000000000
 43       0.000000000000
 44       0.000000000000
 45       0.000000000000
 46       0.000000000000
 47       0.000000000000
 48       0.000000000000
 49       0.000000000000
 50       0.000000000000
 51       0.000000000000
 52       0.000000000000
 53       0.000000000000
 54       0.000000000000
 55       0.000000000000
 56       0.000000000000
 57       0.000000000000
 58       0.000000000000
 59       0.000000000000
 60       0.000000000000
 61       0.000000000000
 62       0.000000000000
 63       0.000000000000
 64       0.000000000000
 65       0.000000000000
 66       0.000000000000
 67       0.000000000000
 68       0.000000000000
 69       0.000000000000
 70       0.000000000000
 71       0.000000000000
 72       0.000000000000
 73       0.000000000000
 74       0.000000000000
 75       0.000000000000
 76       0.000000000000
 77       0.000000000000
 78       0.000000000000
 79       0.000000000000
 80       0.000000000000
 81       0.000000000000
 82       0.000000000000
 83       0.000000000000
 84       0.000000000000
 85       0.000000000000
 86       0.000000000000
 87       0.000000000000
 88       0.000000000000
 89       0.000000000000
 90       0.000000000000
 91       0.000000000000
 92       0.000000000000
 93       0.000000000000
 94       0.000000000000
 95       0.000000000000
 96       0.000000000000
 97       0.000000000000
 98       0.000000000000
 99       0.000000000000
100       0.000000000000
101       0.000000000000
102       0.000000000000
103       0.000000000000
104       0.000000000000
105       0.000000000000
106       0.000000000000
107       0.000000000000
108       0.000000000000
109       0.000000000000
110       0.000000000000
111       0.000000000000
112       0.000000000000
113       0.000000000000
114       0.000000000000
115       0.000000000000
116       0.000000000000
117       0.000000000000
118       0.000000000000
119       0.000000000000
120       0.000000000000
121       0.000000000000
122       0.000000000000
123       0.000000000000
124       0.000000000000
125       0.000000000000
126       0.000000000000
127       0.000000000000
128       0.000000000000
129       0.000000000000
130       0.000000000000
131       0.000000000000
132       0.000000000000
133       0.000000000000
134       0.000000000000
135       0.000000000000
136       0.000000000000
137      -1.546489591202
138       1.597876640659
139      -0.574570322043
140       0.000000000000
141       0.000000000000
142       0.000000000000
143       0.000000000000
144       0.000000000000
145       0.000000000000
146       0.000000000000
147       0.000000000000
148       0.000000000000
149       0.000000000000
150       0.000000000000
151       0.000000000000
152       0.000000000000
153       0.000000000000
154       0.000000000000
155       0.000000000000
156       0.000000000000
157       0.000000000000
158       0.000000000000
159       0.000000000000
160       0.000000000000
161       0.000000000000
162       0.000000000000
163       0.000000000000
164       0.000000000000
165       0.000000000000
166       0.000000000000
167       0.000000000000
168       0.000000000000
169       0.000000000000
170       0.000000000000
171       0.000000000000
172       0.000000000000
173       0.000000000000
174       0.000000000000
175       0.000000000000
176       0.000000000000
177       0.000000000000
178       0.000000000000
 Sym=     1a
 Ene= -9.49641191442912E-02
Spin= Alpha
 Occup= 0.473680
  1       0.000000000000
  2       0.000000000000
  3       0.000000000000
  4       0.000000000000
  5       0.000000000000
  6       0.000000000000
  7       0.000000000000
  8       0.000000000000
  9       0.000000000000
 10       0.000000000000
 11       0.000000000000
 12       0.000000000000
 13       0.000000000000
 14       0.000000000000
 15       0.000000000000
 16       0.000000000000
 17       0.000000000000
 18       0.000000000000
 19       0.000000000000
 20       0.000000000000
 21       0.000000000000
 22       0.000000000000
 23       0.000000000000
 24       0.000000000000
 25       0.000000000000
 26       0.000000000000
 27       0.000000000000
 28       0.000000000000
 29       0.000000000000
 30       0.000000000000
 31       0.000000000000
 32       0.000000000000
 33       0.000000000000
 34       0.000000000000
 35       0.000000000000
 36       0.000000000000
 37       0.000000000000
 38       0.000000000000
 39       0.000000000000
 40       0.000000000000
 41       0.000000000000
 42       0.000000000000
 43       0.000000000000
 44       0.000000000000
 45       0.000000000000
 46       0.000000000000
 47       0.000000000000
 48       0.000000000000
 49       0.000000000000
 50       0.000000000000
 51       0.000000000000
 52       0.000000000000
 53       0.000000000000
 54       0.000000000000
 55       0.000000000000
 56       0.000000000000
 57       0.000000000000
 58       0.000000000000
 59       0.000000000000
 60       0.000000000000
 61       0.000000000000
 62       0.000000000000
 63       0.000000000000
 64       0.000000000000
 65       0.000000000000
 66       0.000000000000
 67       0.000000000000
 68       0.000000000000
 69       0.000000000000
 70       0.000000000000
 71       0.000000000000
 72       0.000000000000
 73       0.000000000000
 74       0.000000000000
 75       0.000000000000
 76       0.000000000000
 77       0.000000000000
 78       0.000000000000
 79       0.000000000000
 80       0.000000000000
 81       0.000000000000
 82       0.000000000000
 83       0.000000000000
 84       0.000000000000
 85       0.000000000000
 86       0.000000000000
 87       0.000000000000
 88       0.000000000000
 89       0.000000000000
 90       0.000000000000
 91       0.000000000000
 92       0.000000000000
 93       0.000000000000
 94       0.000000000000
 95       0.000000000000
 96       0.000000000000
 97       0.000000000000
 98       0.000000000000
 99       0.000000000000
100       0.000000000000
101       0.000000000000
102       0.000000000000
103       0.000000000000
104       0.000000000000
105       0.000000000000
106       0.000000000000
107       0.000000000000
108       0.000000000000
109       0.000000000000
110       0.000000000000
111       0.000000000000
112       0.000000000000
113       0.000000000000
114       0.000000000000
115       0.000000000000
116       0.000000000000
117       0.000000000000
118       0.000000000000
119       0.000000000000
120       0.000000000000
121       0.000000000000
122       0.000000000000
123       0.000000000000
124       0.000000000000
125       0.000000000000
126       0.000000000000
127       0.000000000000
128       0.000000000000
129       0.000000000000
130       0.000000000000
131       0.000000000000
132       0.000000000000
133       0.000000000000
134       0.000000000000
135       0.000000000000
136       0.000000000000
137       0.164374360656
138      -1.512068336843
139       1.694263359585
140       0.000000000000
141       0.000000000000
142       0.000000000000
143       0.000000000000
144       0.000000000000
145       0.000000000000
146       0.000000000000
147       0.000000000000
148       0.000000000000
149       0.000000000000
150       0.000000000000
151       0.000000000000
152       0.000000000000
153       0.000000000000
154       0.000000000000
155       0.000000000000
156       0.000000000000
157       0.000000000000
158       0.000000000000
159       0.000000000000
160       0.000000000000
161       0.000000000000
162       0.000000000000
163       0.000000000000
164       0.000000000000
165       0.000000000000
166       0.000000000000
167       0.000000000000
168       0.000000000000
169       0.000000000000
170       0.000000000000
171       0.000000000000
172       0.000000000000
173       0.000000000000
174       0.000000000000
175       0.000000000000
176       0.000000000000
177       0.000000000000
178       0.000000000000
 Sym=     1a
 Ene= -7.05955547178162E-01
Spin= Alpha
 Occup= 1.572580
  1       0.000000000000
  2       0.000000000000
  3       0.000000000000
  4       0.000000000000
  5       0.000000000000
  6       0.000000000000
  7       0.000000000000
  8       0.000000000000
  9       0.000000000000
 10       0.000000000000
 11       0.000000000000
 12       0.000000000000
 13       0.000000000000
 14       0.000000000000
 15       0.000000000000
 16       0.000000000000
 17       0.000000000000
 18       0.000000000000
 19       0.000000000000
 20       0.000000000000
 21       0.000000000000
 22       0.000000000000
 23       0.000000000000
 24       0.000000000000
 25       0.000000000000
 26       0.000000000000
 27       0.000000000000
 28       0.000000000000
 29       0.000000000000
 30       0.000000000000
 31       0.000000000000
 32       0.000000000000
 33       0.000000000000
 34       0.000000000000
 35       0.000000000000
 36       0.000000000000
 37       0.000000000000
 38       0.000000000000
 39       0.000000000000
 40       0.000000000000
 41       0.000000000000
 42       0.000000000000
 43       0.000000000000
 44       0.000000000000
 45       0.000000000000
 46       0.000000000000
 47       0.000000000000
 48       0.000000000000
 49       0.000000000000
 50       0.000000000000
 51       0.000000000000
 52       0.000000000000
 53       0.000000000000
 54       0.000000000000
 55       0.000000000000
 56       0.000000000000
 57       0.000000000000
 58       0.000000000000
 59       0.000000000000
 60       0.000000000000
 61       0.000000000000
 62       0.000000000000
 63       0.000000000000
 64       0.000000000000
 65       0.000000000000
 66       0.000000000000
 67       0.000000000000
 68       0.000000000000
 69       0.000000000000
 70       0.000000000000
 71       0.000000000000
 72       0.000000000000
 73       0.000000000000
 74       0.000000000000
 75       0.000000000000
 76       0.000000000000
 77       0.000000000000
 78       0.000000000000
 79       0.000000000000
 80       0.000000000000
 81       0.000000000000
 82       0.000000000000
 83       0.000000000000
 84       0.000000000000
 85       0.000000000000
 86       0.000000000000
 87       0.000000000000
 88       0.000000000000
 89       0.000000000000
 90       0.000000000000
 91       0.000000000000
 92       0.000000000000
 93       0.000000000000
 94       0.000000000000
 95       0.000000000000
 96       0.000000000000
 97       0.000000000000
 98       0.000000000000
 99       0.000000000000
100       0.000000000000
101       0.000000000000
102       0.000000000000
103       0.000000000000
104       0.000000000000
105       0.000000000000
106       0.000000000000
107       0.000000000000
108       0.000000000000
109       0.000000000000
110       0.000000000000
111       0.000000000000
112       0.000000000000
113       0.000000000000
114       0.000000000000
115       0.000000000000
116       0.000000000000
117       0.000000000000
118       0.000000000000
119       0.000000000000
120       0.000000000000
121       0.000000000000
122       0.000000000000
123       0.000000000000
124       0.000000000000
125       0.000000000000
126       0.000000000000
127       0.000000000000
128       0.000000000000
129       0.000000000000
130       0.000000000000
131       0.000000000000
132       0.000000000000
133       0.000000000000
134       0.000000000000
135       0.000000000000
136       0.000000000000
137       0.091455096782
138       0.828151786728
139       0.131978985457
140       0.000000000000
141       0.000000000000
142       0.000000000000
143       0.000000000000
144       0.000000000000
145       0.000000000000
146       0.000000000000
147       0.000000000000
148       0.000000000000
149       0.000000000000
150       0.000000000000
151       0.000000000000
152       0.000000000000
153       0.000000000000
154       0.000000000000
155       0.000000000000
156       0.000000000000
157       0.000000000000
158       0.000000000000
159       0.000000000000
160       0.000000000000
161       0.000000000000
162       0.000000000000
163       0.000000000000
164       0.000000000000
165       0.000000000000
166       0.000000000000
167       0.000000000000
168       0.000000000000
169       0.000000000000
170       0.000000000000
171       0.000000000000
172       0.000000000000
173       0.000000000000
174       0.000000000000
175       0.000000000000
176       0.000000000000
177       0.000000000000
178       0.000000000000
 Sym=     1a
 Ene=  1.16055911700507E+00
Spin= Alpha
 Occup= 0.117302
  1       0.000000000000
  2       0.000000000000
  3       0.000000000000
  4       0.000000000000
  5       0.000000000000
  6       0.000000000000
  7       0.000000000000
  8       0.000000000000
  9       0.000000000000
 10       0.000000000000
 11       0.000000000000
 12       0.000000000000
 13       0.000000000000
 14       0.000000000000
 15       0.000000000000
 16       0.000000000000
 17       0.000000000000
 18       0.000000000000
 19       0.000000000000
 20       0.000000000000
 21       0.000000000000
 22       0.000000000000
 23       0.000000000000
 24       0.000000000000
 25       0.000000000000
 26       0.000000000000
 27       0.000000000000
 28       0.000000000000
 29       0.000000000000
 30       0.000000000000
 31       0.000000000000
 32       0.000000000000
 33       0.000000000000
 34       0.000000000000
 35       0.000000000000
 36       0.000000000000
 37       0.000000000000
 38       0.000000000000
 39       0.000000000000
 40       0.000000000000
 41       0.000000000000
 42       0.000000000000
 43       0.000000000000
 44       0.000000000000
 45       0.000000000000
 46       0.000000000000
 47       0.000000000000
 48       0.000000000000
 49       0.000000000000
 50       0.000000000000
 51       0.000000000000
 52       0.000000000000
 53       0.000000000000
 54       0.000000000000
 55       0.000000000000
 56       0.000000000000
 57       0.000000000000
 58       0.000000000000
 59       0.000000000000
 60       0.000000000000
 61       0.000000000000
 62       0.000000000000
 63       0.000000000000
 64       0.000000000000
 65       0.000000000000
 66       0.000000000000
 67       0.000000000000
 68       0.000000000000
 69       0.000000000000
 70       0.000000000000
 71       0.000000000000
 72       0.000000000000
 73       0.000000000000
 74       0.000000000000
 75       0.000000000000
 76       0.000000000000
 77       0.000000000000
 78       0.000000000000
 79       0.000000000000
 80       0.000000000000
 81       0.000000000000
 82       0.000000000000
 83       0.000000000000
 84       0.000000000000
 85       0.000000000000
 86       0.000000000000
 87       0.000000000000
 88       0.000000000000
 89       0.000000000000
 90       0.000000000000
 91       0.000000000000
 92       0.000000000000
 93       0.000000000000
 94       0.000000000000
 95       0.000000000000
 96       0.000000000000
 97       0.000000000000
 98       0.000000000000
 99       0.000000000000
100       0.000000000000
101       0.000000000000
102       0.000000000000
103       0.000000000000
104       0.000000000000
105       0.000000000000
106       0.000000000000
107       0.000000000000
108       0.000000000000
109       0.000000000000
110       0.000000000000
111       0.000000000000
112       0.000000000000
113       0.000000000000
114       0.000000000000
115       0.000000000000
116       0.000000000000
117       0.000000000000
118       0.000000000000
119       0.000000000000
120       0.000000000000
121       0.000000000000
122       0.000000000000
123       0.000000000000
124       0.000000000000
125       0.000000000000
126       0.000000000000
127       0.000000000000
128       0.000000000000
129       0.000000000000
130       0.000000000000
131       0.000000000000
132       0.000000000000
133       0.000000000000
134       0.000000000000
135       0.000000000000
136       0.000000000000
137       0.000000000000
138       0.000000000000
139       0.000000000000
140       1.000000000000
141       0.000000000000
142       0.000000000000
143       0.000000000000
144       0.000000000000
145       0.000000000000
146       0.000000000000
147       0.000000000000
148       0.000000000000
149       0.000000000000
150       0.000000000000
151       0.000000000000
152       0.000000000000
153       0.000000000000
154       0.000000000000
155       0.000000000000
156       0.000000000000
157       0.000000000000
158       0.000000000000
159       0.000000000000
160       0.000000000000
161       0.000000000000
162       0.000000000000
163       0.000000000000
164       0.000000000000
165       0.000000000000
166       0.000000000000
167       0.000000000000
168       0.000000000000
169       0.000000000000
170       0.000000000000
171       0.000000000000
172       0.000000000000
173       0.000000000000
174       0.000000000000
175       0.000000000000
176       0.000000000000
177       0.000000000000
178       0.000000000000
 Sym=     1a
 Ene=  9.84702405625792E-01
Spin= Alpha
 Occup= 0.117302
  1       0.000000000000
  2       0.000000000000
  3       0.000000000000
  4       0.000000000000
  5       0.000000000000
  6       0.000000000000
  7       0.000000000000
  8       0.000000000000
  9       0.000000000000
 10       0.000000000000
 11       0.000000000000
 12       0.000000000000
 13       0.000000000000
 14       0.000000000000
 15       0.000000000000
 16       0.000000000000
 17       0.000000000000
 18       0.000000000000
 19       0.000000000000
 20       0.000000000000
 21       0.000000000000
 22       0.000000000000
 23       0.000000000000
 24       0.000000000000
 25       0.000000000000
 26       0.000000000000
 27       0.000000000000
 28       0.000000000000
 29       0.000000000000
 30       0.000000000000
 31       0.000000000000
 32       0.000000000000
 33       0.000000000000
 34       0.000000000000
 35       0.000000000000
 36       0.000000000000
 37       0.000000000000
 38       0.000000000000
 39       0.000000000000
 40       0.000000000000
 41       0.000000000000
 42       0.000000000000
 43       0.000000000000
 44       0.000000000000
 45       0.000000000000
 46       0.000000000000
 47       0.000000000000
 48       0.000000000000
 49       0.000000000000
 50       0.000000000000
 51       0.000000000000
 52       0.000000000000
 53       0.000000000000
 54       0.000000000000
 55       0.000000000000
 56       0.000000000000
 57       0.000000000000
 58       0.000000000000
 59       0.000000000000
 60       0.000000000000
 61       0.000000000000
 62       0.000000000000
 63       0.000000000000
 64       0.000000000000
 65       0.000000000000
 66       0.000000000000
 67       0.000000000000
 68       0.000000000000
 69       0.000000000000
 70       0.000000000000
 71       0.000000000000
 72       0.000000000000
 73       0.000000000000
 74       0.000000000000
 75       0.000000000000
 76       0.000000000000
 77       0.000000000000
 78       0.000000000000
 79       0.000000000000
 80       0.000000000000
 81       0.000000000000
 82       0.000000000000
 83       0.000000000000
 84       0.000000000000
 85       0.000000000000
 86       0.000000000000
 87       0.000000000000
 88       0.000000000000
 89       0.000000000000
 90       0.000000000000
 91       0.000000000000
 92       0.000000000000
 93       0.000000000000
 94       0.000000000000
 95       0.000000000000
 96       0.000000000000
 97       0.000000000000
 98       0.000000000000
 99       0.000000000000
100       0.000000000000
101       0.000000000000
102       0.000000000000
103       0.000000000000
104       0.000000000000
105       0.000000000000
106       0.000000000000
107       0.000000000000
108       0.000000000000
109       0.000000000000
110       0.000000000000
111       0.000000000000
112       0.000000000000
113       0.000000000000
114       0.000000000000
115       0.000000000000
116       0.000000000000
117       0.000000000000
118       0.000000000000
119       0.000000000000
120       0.000000000000
121       0.000000000000
122       0.000000000000
123       0.000000000000
124       0.000000000000
125       0.000000000000
126       0.000000000000
127       0.000000000000
128       0.000000000000
129       0.000000000000
130       0.000000000000
131       0.000000000000
132       0.000000000000
133       0.000000000000
134       0.000000000000
135       0.000000000000
136       0.000000000000
137       0.000000000000
138       0.000000000000
139       0.000000000000
140       0.000000000000
141       1.000000000000
142       0.000000000000
143       0.000000000000
144       0.000000000000
145       0.000000000000
146       0.000000000000
147       0.000000000000
148       0.000000000000
149       0.000000000000
150       0.000000000000
151       0.000000000000
152       0.000000000000
153       0.000000000000
154       0.000000000000
155       0.000000000000
156       0.000000000000
157       0.000000000000
158       0.000000000000
159       0.000000000000
160       0.000000000000
161       0.000000000000
162       0.000000000000
163       0.000000000000
164       0.000000000000
165       0.000000000000
166       0.000000000000
167       0.000000000000
168       0.000000000000
169       0.000000000000
170       0.000000000000
171       0.000000000000
172       0.000000000000
173       0.000000000000
174       0.000000000000
175       0.000000000000
176       0.000000000000
177       0.000000000000
178       0.000000000000
 Sym=     1a
 Ene=  1.13293910058795E+00
Spin= Alpha
 Occup= 0.117302
  1       0.000000000000
  2       0.000000000000
  3       0.000000000000
  4       0.000000000000
  5       0.000000000000
  6       0.000000000000
  7       0.000000000000
  8       0.000000000000
  9       0.000000000000
 10       0.000000000000
 11       0.000000000000
 12       0.000000000000
 13       0.000000000000
 14       0.000000000000
 15       0.000000000000
 16       0.000000000000
 17       0.000000000000
 18       0.000000000000
 19       0.000000000000
 20       0.000000000000
 21       0.000000000000
 22       0.000000000000
 23       0.000000000000
 24       0.000000000000
 25       0.000000000000
 26       0.000000000000
 27       0.000000000000
 28       0.000000000000
 29       0.000000000000
 30       0.000000000000
 31       0.000000000000
 32       0.000000000000
 33       0.000000000000
 34       0.000000000000
 35       0.000000000000
 36       0.000000000000
 37       0.000000000000
 38       0.000000000000
 39       0.000000000000
 40       0.000000000000
 41       0.000000000000
 42       0.000000000000
 43       0.000000000000
 44       0.000000000000
 45       0.000000000000
 46       0.000000000000
 47       0.000000000000
 48       0.000000000000
 49       0.000000000000
 50       0.000000000000
 51       0.000000000000
 52       0.000000000000
 53       0.000000000000
 54       0.000000000000
 55       0.000000000000
 56       0.000000000000
 57       0.000000000000
 58       0.000000000000
 59       0.000000000000
 60       0.000000000000
 61       0.000000000000
 62       0.000000000000
 63       0.000000000000
 64       0.000000000000
 65       0.000000000000
 66       0.000000000000
 67       0.000000000000
 68       0.000000000000
 69       0.000000000000
 70       0.000000000000
 71       0.000000000000
 72       0.000000000000
 73       0.000000000000
 74       0.000000000000
 75       0.000000000000
 76       0.000000000000
 77       0.000000000000
 78       0.000000000000
 79       0.000000000000
 80       0.000000000000
 81       0.000000000000
 82       0.000000000000
 83       0.000000000000
 84       0.000000000000
 85       0.000000000000
 86       0.000000000000
 87       0.000000000000
 88       0.000000000000
 89       0.000000000000
 90       0.000000000000
 91       0.000000000000
 92       0.000000000000
 93       0.000000000000
 94       0.000000000000
 95       0.000000000000
 96       0.000000000000
 97       0.000000000000
 98       0.000000000000
 99       0.000000000000
100       0.000000000000
101       0.000000000000
102       0.000000000000
103       0.000000000000
104       0.000000000000
105       0.000000000000
106       0.000000000000
107       0.000000000000
108       0.000000000000
109       0.000000000000
110       0.000000000000
111       0.000000000000
112       0.000000000000
113       0.000000000000
114       0.000000000000
115       0.000000000000
116       0.000000000000
117       0.000000000000
118       0.000000000000
119       0.000000000000
120       0.000000000000
121       0.000000000000
122       0.000000000000
123       0.000000000000
124       0.000000000000
125       0.000000000000
126       0.000000000000
127       0.000000000000
128       0.000000000000
129       0.000000000000
130       0.000000000000
131       0.000000000000
132       0.000000000000
133       0.000000000000
134       0.000000000000
135       0.000000000000
136       0.000000000000
137       0.000000000000
138       0.000000000000
139       0.000000000000
140       0.000000000000
141       0.000000000000
142       1.000000000000
143       0.000000000000
144       0.000000000000
145       0.000000000000
146       0.000000000000
147       0.000000000000
148       0.000000000000
149       0.000000000000
150       0.000000000000
151       0.000000000000
152       0.000000000000
153       0.000000000000
154       0.000000000000
155       0.000000000000
156       0.000000000000
157       0.000000000000
158       0.000000000000
159       0.000000000000
160       0.000000000000
161       0.000000000000
162       0.000000000000
163       0.000000000000
164       0.000000000000
165       0.000000000000
166       0.000000000000
167       0.000000000000
168       0.000000000000
169       0.000000000000
170       0.000000000000
171       0.000000000000
172       0.000000000000
173       0.000000000000
174       0.000000000000
175       0.000000000000
176       0.000000000000
177       0.000000000000
178       0.000000000000
 Sym=     1a
 Ene=  1.94519205068953E+00
Spin= Alpha
 Occup= 0.018647
  1       0.000000000000
  2       0.000000000000
  3       0.000000000000
  4       0.000000000000
  5       0.000000000000
  6       0.000000000000
  7       0.000000000000
  8       0.000000000000
  9       0.000000000000
 10       0.000000000000
 11       0.000000000000
 12       0.000000000000
 13       0.000000000000
 14       0.000000000000
 15       0.000000000000
 16       0.000000000000
 17       0.000000000000
 18       0.000000000000
 19       0.000000000000
 20       0.000000000000
 21       0.000000000000
 22       0.000000000000
 23       0.000000000000
 24       0.000000000000
 25       0.000000000000
 26       0.000000000000
 27       0.000000000000
 28       0.000000000000
 29       0.000000000000
 30       0.000000000000
 31       0.000000000000
 32       0.000000000000
 33       0.000000000000
 34       0.000000000000
 35       0.000000000000
 36       0.000000000000
 37       0.000000000000
 38       0.000000000000
 39       0.000000000000
 40       0.000000000000
 41       0.000000000000
 42       0.000000000000
 43       0.000000000000
 44       0.000000000000
 45       0.000000000000
 46       0.000000000000
 47       0.000000000000
 48       0.000000000000
 49       0.000000000000
 50       0.000000000000
 51       0.000000000000
 52       0.000000000000
 53       0.000000000000
 54       0.000000000000
 55       0.000000000000
 56       0.000000000000
 57       0.000000000000
 58       0.000000000000
 59       0.000000000000
 60       0.000000000000
 61       0.000000000000
 62       0.000000000000
 63       0.000000000000
 64       0.000000000000
 65       0.000000000000
 66       0.000000000000
 67       0.000000000000
 68       0.000000000000
 69       0.000000000000
 70       0.000000000000
 71       0.000000000000
 72       0.000000000000
 73       0.000000000000
 74       0.000000000000
 75       0.000000000000
 76       0.000000000000
 77       0.000000000000
 78       0.000000000000
 79       0.000000000000
 80       0.000000000000
 81       0.000000000000
 82       0.000000000000
 83       0.000000000000
 84       0.000000000000
 85       0.000000000000
 86       0.000000000000
 87       0.000000000000
 88       0.000000000000
 89       0.000000000000
 90       0.000000000000
 91       0.000000000000
 92       0.000000000000
 93       0.000000000000
 94       0.000000000000
 95       0.000000000000
 96       0.000000000000
 97       0.000000000000
 98       0.000000000000
 99       0.000000000000
100       0.000000000000
101       0.000000000000
102       0.000000000000
103       0.000000000000
104       0.000000000000
105       0.000000000000
106       0.000000000000
107       0.000000000000
108       0.000000000000
109       0.000000000000
110       0.000000000000
111       0.000000000000
112       0.000000000000
113       0.000000000000
114       0.000000000000
115       0.000000000000
116       0.000000000000
117       0.000000000000
118       0.000000000000
119       0.000000000000
120       0.000000000000
121       0.000000000000
122       0.000000000000
123       0.000000000000
124       0.000000000000
125       0.000000000000
126       0.000000000000
127       0.000000000000
128       0.000000000000
129       0.000000000000
130       0.000000000000
131       0.000000000000
132       0.000000000000
133       0.000000000000
134       0.000000000000
135       0.000000000000
136       0.000000000000
137       0.000000000000
138       0.000000000000
139       0.000000000000
140       0.000000000000
141       0.000000000000
142       0.000000000000
143      -1.546301381328
144       1.613061814275
145      -0.581384835878
146       0.000000000000
147       0.000000000000
148       0.000000000000
149       0.000000000000
150       0.000000000000
151       0.000000000000
152       0.000000000000
153       0.000000000000
154       0.000000000000
155       0.000000000000
156       0.000000000000
157       0.000000000000
158       0.000000000000
159       0.000000000000
160       0.000000000000
161       0.000000000000
162       0.000000000000
163       0.000000000000
164       0.000000000000
165       0.000000000000
166       0.000000000000
167       0.000000000000
168       0.000000000000
169       0.000000000000
170       0.000000000000
171       0.000000000000
172       0.000000000000
173       0.000000000000
174       0.000000000000
175       0.000000000000
176       0.000000000000
177       0.000000000000
178       0.000000000000
 Sym=     1a
 Ene= -9.44834699974331E-02
Spin= Alpha
 Occup= 0.495466
  1       0.000000000000
  2       0.000000000000
  3       0.000000000000
  4       0.000000000000
  5       0.000000000000
  6       0.000000000000
  7       0.000000000000
  8       0.000000000000
  9       0.000000000000
 10       0.000000000000
 11       0.000000000000
 12       0.000000000000
 13       0.000000000000
 14       0.000000000000
 15       0.000000000000
 16       0.000000000000
 17       0.000000000000
 18       0.000000000000
 19       0.000000000000
 20       0.000000000000
 21       0.000000000000
 22       0.000000000000
 23       0.000000000000
 24       0.000000000000
 25       0.000000000000
 26       0.000000000000
 27       0.000000000000
 28       0.000000000000
 29       0.000000000000
 30       0.000000000000
 31       0.000000000000
 32       0.000000000000
 33       0.000000000000
 34       0.000000000000
 35       0.000000000000
 36       0.000000000000
 37       0.000000000000
 38       0.000000000000
 39       0.000000000000
 40       0.000000000000
 41       0.000000000000
 42       0.000000000000
 43       0.000000000000
 44       0.000000000000
 45       0.000000000000
 46       0.000000000000
 47       0.000000000000
 48       0.000000000000
 49       0.000000000000
 50       0.000000000000
 51       0.000000000000
 52       0.000000000000
 53       0.000000000000
 54       0.000000000000
 55       0.000000000000
 56       0.000000000000
 57       0.000000000000
 58       0.000000000000
 59       0.000000000000
 60       0.000000000000
 61       0.000000000000
 62       0.000000000000
 63       0.000000000000
 64       0.000000000000
 65       0.000000000000
 66       0.000000000000
 67       0.000000000000
 68       0.000000000000
 69       0.000000000000
 70       0.000000000000
 71       0.000000000000
 72       0.000000000000
 73       0.000000000000
 74       0.000000000000
 75       0.000000000000
 76       0.000000000000
 77       0.000000000000
 78       0.000000000000
 79       0.000000000000
 80       0.000000000000
 81       0.000000000000
 82       0.000000000000
 83       0.000000000000
 84       0.000000000000
 85       0.000000000000
 86       0.000000000000
 87       0.000000000000
 88       0.000000000000
 89       0.000000000000
 90       0.000000000000
 91       0.000000000000
 92       0.000000000000
 93       0.000000000000
 94       0.000000000000
 95       0.000000000000
 96       0.000000000000
 97       0.000000000000
 98       0.000000000000
 99       0.000000000000
100       0.000000000000
101       0.000000000000
102       0.000000000000
103       0.000000000000
104       0.000000000000
105       0.000000000000
106       0.000000000000
107       0.000000000000
108       0.000000000000
109       0.000000000000
110       0.000000000000
111       0.000000000000
112       0.000000000000
113       0.000000000000
114       0.000000000000
115       0.000000000000
116       0.000000000000
117       0.000000000000
118       0.000000000000
119       0.000000000000
120       0.000000000000
121       0.000000000000
122       0.000000000000
123       0.000000000000
124       0.000000000000
125       0.000000000000
126       0.000000000000
127       0.000000000000
128       0.000000000000
129       0.000000000000
130       0.000000000000
131       0.000000000000
132       0.000000000000
133       0.000000000000
134       0.000000000000
135       0.000000000000
136       0.000000000000
137       0.000000000000
138       0.000000000000
139       0.000000000000
140       0.000000000000
141       0.000000000000
142       0.000000000000
143       0.158914919469
144      -1.488944482388
145       1.693763248526
146       0.000000000000
147       0.000000000000
148       0.000000000000
149       0.000000000000
150       0.000000000000
151       0.000000000000
152       0.000000000000
153       0.000000000000
154       0.000000000000
155       0.000000000000
156       0.000000000000
157       0.000000000000
158       0.000000000000
159       0.000000000000
160       0.000000000000
161       0.000000000000
162       0.000000000000
163       0.000000000000
164       0.000000000000
165       0.000000000000
166       0.000000000000
167       0.000000000000
168       0.000000000000
169       0.000000000000
170       0.000000000000
171       0.000000000000
172       0.000000000000
173       0.000000000000
174       0.000000000000
175       0.000000000000
176       0.000000000000
177       0.000000000000
178       0.000000000000
 Sym=     1a
 Ene= -6.99424175676928E-01
Spin= Alpha
 Occup= 1.615103
  1       0.000000000000
  2       0.000000000000
  3       0.000000000000
  4       0.000000000000
  5       0.000000000000
  6       0.000000000000
  7       0.000000000000
  8       0.000000000000
  9       0.000000000000
 10       0.000000000000
 11       0.000000000000
 12       0.000000000000
 13       0.000000000000
 14       0.000000000000
 15       0.000000000000
 16       0.000000000000
 17       0.000000000000
 18       0.000000000000
 19       0.000000000000
 20       0.000000000000
 21       0.000000000000
 22       0.000000000000
 23       0.000000000000
 24       0.000000000000
 25       0.000000000000
 26       0.000000000000
 27       0.000000000000
 28       0.000000000000
 29       0.000000000000
 30       0.000000000000
 31       0.000000000000
 32       0.000000000000
 33       0.000000000000
 34       0.000000000000
 35       0.000000000000
 36       0.000000000000
 37       0.000000000000
 38       0.000000000000
 39       0.000000000000
 40       0.000000000000
 41       0.000000000000
 42       0.000000000000
 43       0.000000000000
 44       0.000000000000
 45       0.000000000000
 46       0.000000000000
 47       0.000000000000
 48       0.000000000000
 49       0.000000000000
 50       0.000000000000
 51       0.000000000000
 52       0.000000000000
 53       0.000000000000
 54       0.000000000000
 55       0.000000000000
 56       0.000000000000
 57       0.000000000000
 58       0.000000000000
 59       0.000000000000
 60       0.000000000000
 61       0.000000000000
 62       0.000000000000
 63       0.000000000000
 64       0.000000000000
 65       0.000000000000
 66       0.000000000000
 67       0.000000000000
 68       0.000000000000
 69       0.000000000000
 70       0.000000000000
 71       0.000000000000
 72       0.000000000000
 73       0.000000000000
 74       0.000000000000
 75       0.000000000000
 76       0.000000000000
 77       0.000000000000
 78       0.000000000000
 79       0.000000000000
 80       0.000000000000
 81       0.000000000000
 82       0.000000000000
 83       0.000000000000
 84       0.000000000000
 85       0.000000000000
 86       0.000000000000
 87       0.000000000000
 88       0.000000000000
 89       0.000000000000
 90       0.000000000000
 91       0.000000000000
 92       0.000000000000
 93       0.000000000000
 94       0.000000000000
 95       0.000000000000
 96       0.000000000000
 97       0.000000000000
 98       0.000000000000
 99       0.000000000000
100       0.000000000000
101       0.000000000000
102       0.000000000000
103       0.000000000000
104       0.000000000000
105       0.000000000000
106       0.000000000000
107       0.000000000000
108       0.000000000000
109       0.000000000000
110       0.000000000000
111       0.000000000000
112       0.000000000000
113       0.000000000000
114       0.000000000000
115       0.000000000000
116       0.000000000000
117       0.000000000000
118       0.000000000000
119       0.000000000000
120       0.000000000000
121       0.000000000000
122       0.000000000000
123       0.000000000000
124       0.000000000000
125       0.000000000000
126       0.000000000000
127       0.000000000000
128       0.000000000000
129       0.000000000000
130       0.000000000000
131       0.000000000000
132       0.000000000000
133       0.000000000000
134       0.000000000000
135       0.000000000000
136       0.000000000000
137       0.000000000000
138       0.000000000000
139       0.000000000000
140       0.000000000000
141       0.000000000000
142       0.000000000000
143       0.103494479742
144       0.840518713415
145       0.105997970543
146       0.000000000000
147       0.000000000000
148       0.000000000000
149       0.000000000000
150       0.000000000000
151       0.000000000000
152       0.000000000000
153       0.000000000000
154       0.000000000000
155       0.000000000000
156       0.000000000000
157       0.000000000000
158       0.000000000000
159       0.000000000000
160       0.000000000000
161       0.000000000000
162       0.000000000000
163       0.000000000000
164       0.000000000000
165       0.000000000000
166       0.000000000000
167       0.000000000000
168       0.000000000000
169       0.000000000000
170       0.000000000000
171       0.000000000000
172       0.000000000000
173       0.000000000000
174       0.000000000000
175       0.000000000000
176       0.000000000000
177       0.000000000000
178       0.000000000000
 Sym=     1a
 Ene=  1.04784145822490E+00
Spin= Alpha
 Occup= 0.115094
  1       0.000000000000
  2       0.000000000000
  3       0.000000000000
  4       0.000000000000
  5       0.000000000000
  6       0.000000000000
  7       0.000000000000
  8       0.000000000000
  9       0.000000000000
 10       0.000000000000
 11       0.000000000000
 12       0.000000000000
 13       0.000000000000
 14       0.000000000000
 15       0.000000000000
 16       0.000000000000
 17       0.000000000000
 18       0.000000000000
 19       0.000000000000
 20       0.000000000000
 21       0.000000000000
 22       0.000000000000
 23       0.000000000000
 24       0.000000000000
 25       0.000000000000
 26       0.000000000000
 27       0.000000000000
 28       0.000000000000
 29       0.000000000000
 30       0.000000000000
 31       0.000000000000
 32       0.000000000000
 33       0.000000000000
 34       0.000000000000
 35       0.000000000000
 36       0.000000000000
 37       0.000000000000
 38       0.000000000000
 39       0.000000000000
 40       0.000000000000
 41       0.000000000000
 42       0.000000000000
 43       0.000000000000
 44       0.000000000000
 45       0.000000000000
 46       0.000000000000
 47       0.000000000000
 48       0.000000000000
 49       0.000000000000
 50       0.000000000000
 51       0.000000000000
 52       0.000000000000
 53       0.000000000000
 54       0.000000000000
 55       0.000000000000
 56       0.000000000000
 57       0.000000000000
 58       0.000000000000
 59       0.000000000000
 60       0.000000000000
 61       0.000000000000
 62       0.000000000000
 63       0.000000000000
 64       0.000000000000
 65       0.000000000000
 66       0.000000000000
 67       0.000000000000
 68       0.000000000000
 69       0.000000000000
 70       0.000000000000
 71       0.000000000000
 72       0.000000000000
 73       0.000000000000
 74       0.000000000000
 75       0.000000000000
 76       0.000000000000
 77       0.000000000000
 78       0.000000000000
 79       0.000000000000
 80       0.000000000000
 81       0.000000000000
 82       0.000000000000
 83       0.000000000000
 84       0.000000000000
 85       0.000000000000
 86       0.000000000000
 87       0.000000000000
 88       0.000000000000
 89       0.000000000000
 90       0.000000000000
 91       0.000000000000
 92       0.000000000000
 93       0.000000000000
 94       0.000000000000
 95       0.000000000000
 96       0.000000000000
 97       0.000000000000
 98       0.000000000000
 99       0.000000000000
100       0.000000000000
101       0.000000000000
102       0.000000000000
103       0.000000000000
104       0.000000000000
105       0.000000000000
106       0.000000000000
107       0.000000000000
108       0.000000000000
109       0.000000000000
110       0.000000000000
111       0.000000000000
112       0.000000000000
113       0.000000000000
114       0.000000000000
115       0.000000000000
116       0.000000000000
117       0.000000000000
118       0.000000000000
119       0.000000000000
120       0.000000000000
121       0.000000000000
122       0.000000000000
123       0.000000000000
124       0.000000000000
125       0.000000000000
126       0.000000000000
127       0.000000000000
128       0.000000000000
129       0.000000000000
130       0.000000000000
131       0.000000000000
132       0.000000000000
133       0.000000000000
134       0.000000000000
135       0.000000000000
136       0.000000000000
137       0.000000000000
138       0.000000000000
139       0.000000000000
140       0.000000000000
141       0.000000000000
142       0.000000000000
143       0.000000000000
144       0.000000000000
145       0.000000000000
146       1.000000000000
147       0.000000000000
148       0.000000000000
149       0.000000000000
150       0.000000000000
151       0.000000000000
152       0.000000000000
153       0.000000000000
154       0.000000000000
155       0.000000000000
156       0.000000000000
157       0.000000000000
158       0.000000000000
159       0.000000000000
160       0.000000000000
161       0.000000000000
162       0.000000000000
163       0.000000000000
164       0.000000000000
165       0.000000000000
166       0.000000000000
167       0.000000000000
168       0.000000000000
169       0.000000000000
170       0.000000000000
171       0.000000000000
172       0.000000000000
173       0.000000000000
174       0.000000000000
175       0.000000000000
176       0.000000000000
177       0.000000000000
178       0.000000000000
 Sym=     1a
 Ene=  1.19330692188268E+00
Spin= Alpha
 Occup= 0.115094
  1       0.000000000000
  2       0.000000000000
  3       0.000000000000
  4       0.000000000000
  5       0.000000000000
  6       0.000000000000
  7       0.000000000000
  8       0.000000000000
  9       0.000000000000
 10       0.000000000000
 11       0.000000000000
 12       0.000000000000
 13       0.000000000000
 14       0.000000000000
 15       0.000000000000
 16       0.000000000000
 17       0.000000000000
 18       0.000000000000
 19       0.000000000000
 20       0.000000000000
 21       0.000000000000
 22       0.000000000000
 23       0.000000000000
 24       0.000000000000
 25       0.000000000000
 26       0.000000000000
 27       0.000000000000
 28       0.000000000000
 29       0.000000000000
 30       0.000000000000
 31       0.000000000000
 32       0.000000000000
 33       0.000000000000
 34       0.000000000000
 35       0.000000000000
 36       0.000000000000
 37       0.000000000000
 38       0.000000000000
 39       0.000000000000
 40       0.000000000000
 41       0.000000000000
 42       0.000000000000
 43       0.000000000000
 44       0.000000000000
 45       0.000000000000
 46       0.000000000000
 47       0.000000000000
 48       0.000000000000
 49       0.000000000000
 50       0.000000000000
 51       0.000000000000
 52       0.000000000000
 53       0.000000000000
 54       0.000000000000
 55       0.000000000000
 56       0.000000000000
 57       0.000000000000
 58       0.000000000000
 59       0.000000000000
 60       0.000000000000
 61       0.000000000000
 62       0.000000000000
 63       0.000000000000
 64       0.000000000000
 65       0.000000000000
 66       0.000000000000
 67       0.000000000000
 68       0.000000000000
 69       0.000000000000
 70       0.000000000000
 71       0.000000000000
 72       0.000000000000
 73       0.000000000000
 74       0.000000000000
 75       0.000000000000
 76       0.000000000000
 77       0.000000000000
 78       0.000000000000
 79       0.000000000000
 80       0.000000000000
 81       0.000000000000
 82       0.000000000000
 83       0.000000000000
 84       0.000000000000
 85       0.000000000000
 86       0.000000000000
 87       0.000000000000
 88       0.000000000000
 89       0.000000000000
 90       0.000000000000
 91       0.000000000000
 92       0.000000000000
 93       0.000000000000
 94       0.000000000000
 95       0.000000000000
 96       0.000000000000
 97       0.000000000000
 98       0.000000000000
 99       0.000000000000
100       0.000000000000
101       0.000000000000
102       0.000000000000
103       0.000000000000
104       0.000000000000
105       0.000000000000
106       0.000000000000
107       0.000000000000
108       0.000000000000
109       0.000000000000
110       0.000000000000
111       0.000000000000
112       0.000000000000
113       0.000000000000
114       0.000000000000
115       0.000000000000
116       0.000000000000
117       0.000000000000
118       0.000000000000
119       0.000000000000
120       0.000000000000
121       0.000000000000
122       0.000000000000
123       0.000000000000
124       0.000000000000
125       0.000000000000
126       0.000000000000
127       0.000000000000
128       0.000000000000
129       0.000000000000
130       0.000000000000
131       0.000000000000
132       0.000000000000
133       0.000000000000
134       0.000000000000
135       0.000000000000
136       0.000000000000
137       0.000000000000
138       0.000000000000
139       0.000000000000
140       0.000000000000
141       0.000000000000
142       0.000000000000
143       0.000000000000
144       0.000000000000
145       0.000000000000
146       0.000000000000
147       1.000000000000
148       0.000000000000
149       0.000000000000
150       0.000000000000
151       0.000000000000
152       0.000000000000
153       0.000000000000
154       0.000000000000
155       0.000000000000
156       0.000000000000
157       0.000000000000
158       0.000000000000
159       0.000000000000
160       0.000000000000
161       0.000000000000
162       0.000000000000
163       0.000000000000
164       0.000000000000
165       0.000000000000
166       0.000000000000
167       0.000000000000
168       0.000000000000
169       0.000000000000
170       0.000000000000
171       0.000000000000
172       0.000000000000
173       0.000000000000
174       0.000000000000
175       0.000000000000
176       0.000000000000
177       0.000000000000
178       0.000000000000
 Sym=     1a
 Ene=  1.06036634997010E+00
Spin= Alpha
 Occup= 0.115094
  1       0.000000000000
  2       0.000000000000
  3       0.000000000000
  4       0.000000000000
  5       0.000000000000
  6       0.000000000000
  7       0.000000000000
  8       0.000000000000
  9       0.000000000000
 10       0.000000000000
 11       0.000000000000
 12       0.000000000000
 13       0.000000000000
 14       0.000000000000
 15       0.000000000000
 16       0.000000000000
 17       0.000000000000
 18       0.000000000000
 19       0.000000000000
 20       0.000000000000
 21       0.000000000000
 22       0.000000000000
 23       0.000000000000
 24       0.000000000000
 25       0.000000000000
 26       0.000000000000
 27       0.000000000000
 28       0.000000000000
 29       0.000000000000
 30       0.000000000000
 31       0.000000000000
 32       0.000000000000
 33       0.000000000000
 34       0.000000000000
 35       0.000000000000
 36       0.000000000000
 37       0.000000000000
 38       0.000000000000
 39       0.000000000000
 40       0.000000000000
 41       0.000000000000
 42       0.000000000000
 43       0.000000000000
 44       0.000000000000
 45       0.000000000000
 46       0.000000000000
 47       0.000000000000
 48       0.000000000000
 49       0.000000000000
 50       0.000000000000
 51       0.000000000000
 52       0.000000000000
 53       0.000000000000
 54       0.000000000000
 55       0.000000000000
 56       0.000000000000
 57       0.000000000000
 58       0.000000000000
 59       0.000000000000
 60       0.000000000000
 61       0.000000000000
 62       0.000000000000
 63       0.000000000000
 64       0.000000000000
 65       0.000000000000
 66       0.000000000000
 67       0.000000000000
 68       0.000000000000
 69       0.000000000000
 70       0.000000000000
 71       0.000000000000
 72       0.000000000000
 73       0.000000000000
 74       0.000000000000
 75       0.000000000000
 76       0.000000000000
 77       0.000000000000
 78       0.000000000000
 79       0.000000000000
 80       0.000000000000
 81       0.000000000000
 82       0.000000000000
 83       0.000000000000
 84       0.000000000000
 85       0.000000000000
 86       0.000000000000
 87       0.000000000000
 88       0.000000000000
 89       0.000000000000
 90       0.000000000000
 91       0.000000000000
 92       0.000000000000
 93       0.000000000000
 94       0.000000000000
 95       0.000000000000
 96       0.000000000000
 97       0.000000000000
 98       0.000000000000
 99       0.000000000000
100       0.000000000000
101       0.000000000000
102       0.000000000000
103       0.000000000000
104       0.000000000000
105       0.000000000000
106       0.000000000000
107       0.000000000000
108       0.000000000000
109       0.000000000000
110       0.000000000000
111       0.000000000000
112       0.000000000000
113       0.000000000000
114       0.000000000000
115       0.000000000000
116       0.000000000000
117       0.000000000000
118       0.000000000000
119       0.000000000000
120       0.000000000000
121       0.000000000000
122       0.000000000000
123       0.000000000000
124       0.000000000000
125       0.000000000000
126       0.000000000000
127       0.000000000000
128       0.000000000000
129       0.000000000000
130       0.000000000000
131       0.000000000000
132       0.000000000000
133       0.000000000000
134       0.000000000000
135       0.000000000000
136       0.000000000000
137       0.000000000000
138       0.000000000000
139       0.000000000000
140       0.000000000000
141       0.000000000000
142       0.000000000000
143       0.000000000000
144       0.000000000000
145       0.000000000000
146       0.000000000000
147       0.000000000000
148       1.000000000000
149       0.000000000000
150       0.000000000000
151       0.000000000000
152       0.000000000000
153       0.000000000000
154       0.000000000000
155       0.000000000000
156       0.000000000000
157       0.000000000000
158       0.000000000000
159       0.000000000000
160       0.000000000000
161       0.000000000000
162       0.000000000000
163       0.000000000000
164       0.000000000000
165       0.000000000000
166       0.000000000000
167       0.000000000000
168       0.000000000000
169       0.000000000000
170       0.000000000000
171       0.000000000000
172       0.000000000000
173       0.000000000000
174       0.000000000000
175       0.000000000000
176       0.000000000000
177       0.000000000000
178       0.000000000000
 Sym=     1a
 Ene=  1.94525319734984E+00
Spin= Alpha
 Occup= 0.018651
  1       0.000000000000
  2       0.000000000000
  3       0.000000000000
  4       0.000000000000
  5       0.000000000000
  6       0.000000000000
  7       0.000000000000
  8       0.000000000000
  9       0.000000000000
 10       0.000000000000
 11       0.000000000000
 12       0.000000000000
 13       0.000000000000
 14       0.000000000000
 15       0.000000000000
 16       0.000000000000
 17       0.000000000000
 18       0.000000000000
 19       0.000000000000
 20       0.000000000000
 21       0.000000000000
 22       0.000000000000
 23       0.000000000000
 24       0.000000000000
 25       0.000000000000
 26       0.000000000000
 27       0.000000000000
 28       0.000000000000
 29       0.000000000000
 30       0.000000000000
 31       0.000000000000
 32       0.000000000000
 33       0.000000000000
 34       0.000000000000
 35       0.000000000000
 36       0.000000000000
 37       0.000000000000
 38       0.000000000000
 39       0.000000000000
 40       0.000000000000
 41       0.000000000000
 42       0.000000000000
 43       0.000000000000
 44       0.000000000000
 45       0.000000000000
 46       0.000000000000
 47       0.000000000000
 48       0.000000000000
 49       0.000000000000
 50       0.000000000000
 51       0.000000000000
 52       0.000000000000
 53       0.000000000000
 54       0.000000000000
 55       0.000000000000
 56       0.000000000000
 57       0.000000000000
 58       0.000000000000
 59       0.000000000000
 60       0.000000000000
 61       0.000000000000
 62       0.000000000000
 63       0.000000000000
 64       0.000000000000
 65       0.000000000000
 66       0.000000000000
 67       0.000000000000
 68       0.000000000000
 69       0.000000000000
 70       0.000000000000
 71       0.000000000000
 72       0.000000000000
 73       0.000000000000
 74       0.000000000000
 75       0.000000000000
 76       0.000000000000
 77       0.000000000000
 78       0.000000000000
 79       0.000000000000
 80       0.000000000000
 81       0.000000000000
 82       0.000000000000
 83       0.000000000000
 84       0.000000000000
 85       0.000000000000
 86       0.000000000000
 87       0.000000000000
 88       0.000000000000
 89       0.000000000000
 90       0.000000000000
 91       0.000000000000
 92       0.000000000000
 93       0.000000000000
 94       0.000000000000
 95       0.000000000000
 96       0.000000000000
 97       0.000000000000
 98       0.000000000000
 99       0.000000000000
100       0.000000000000
101       0.000000000000
102       0.000000000000
103       0.000000000000
104       0.000000000000
105       0.000000000000
106       0.000000000000
107       0.000000000000
108       0.000000000000
109       0.000000000000
110       0.000000000000
111       0.000000000000
112       0.000000000000
113       0.000000000000
114       0.000000000000
115       0.000000000000
116       0.000000000000
117       0.000000000000
118       0.000000000000
119       0.000000000000
120       0.000000000000
121       0.000000000000
122       0.000000000000
123       0.000000000000
124       0.000000000000
125       0.000000000000
126       0.000000000000
127       0.000000000000
128       0.000000000000
129       0.000000000000
130       0.000000000000
131       0.000000000000
132       0.000000000000
133       0.000000000000
134       0.000000000000
135       0.000000000000
136       0.000000000000
137       0.000000000000
138       0.000000000000
139       0.000000000000
140       0.000000000000
141       0.000000000000
142       0.000000000000
143       0.000000000000
144       0.000000000000
145       0.000000000000
146       0.000000000000
147       0.000000000000
148       0.000000000000
149      -1.546287880458
150       1.612954309211
151      -0.581251427065
152       0.000000000000
153       0.000000000000
154       0.000000000000
155       0.000000000000
156       0.000000000000
157       0.000000000000
158       0.000000000000
159       0.000000000000
160       0.000000000000
161       0.000000000000
162       0.000000000000
163       0.000000000000
164       0.000000000000
165       0.000000000000
166       0.000000000000
167       0.000000000000
168       0.000000000000
169       0.000000000000
170       0.000000000000
171       0.000000000000
172       0.000000000000
173       0.000000000000
174       0.000000000000
175       0.000000000000
176       0.000000000000
177       0.000000000000
178       0.000000000000
 Sym=     1a
 Ene= -9.45864260448277E-02
Spin= Alpha
 Occup= 0.495768
  1       0.000000000000
  2       0.000000000000
  3       0.000000000000
  4       0.000000000000
  5       0.000000000000
  6       0.000000000000
  7       0.000000000000
  8       0.000000000000
  9       0.000000000000
 10       0.000000000000
 11       0.000000000000
 12       0.000000000000
 13       0.000000000000
 14       0.000000000000
 15       0.000000000000
 16       0.000000000000
 17       0.000000000000
 18       0.000000000000
 19       0.000000000000
 20       0.000000000000
 21       0.000000000000
 22       0.000000000000
 23       0.000000000000
 24       0.000000000000
 25       0.000000000000
 26       0.000000000000
 27       0.000000000000
 28       0.000000000000
 29       0.000000000000
 30       0.000000000000
 31       0.000000000000
 32       0.000000000000
 33       0.000000000000
 34       0.000000000000
 35       0.000000000000
 36       0.000000000000
 37       0.000000000000
 38       0.000000000000
 39       0.000000000000
 40       0.000000000000
 41       0.000000000000
 42       0.000000000000
 43       0.000000000000
 44       0.000000000000
 45       0.000000000000
 46       0.000000000000
 47       0.000000000000
 48       0.000000000000
 49       0.000000000000
 50       0.000000000000
 51       0.000000000000
 52       0.000000000000
 53       0.000000000000
 54       0.000000000000
 55       0.000000000000
 56       0.000000000000
 57       0.000000000000
 58       0.000000000000
 59       0.000000000000
 60       0.000000000000
 61       0.000000000000
 62       0.000000000000
 63       0.000000000000
 64       0.000000000000
 65       0.000000000000
 66       0.000000000000
 67       0.000000000000
 68       0.000000000000
 69       0.000000000000
 70       0.000000000000
 71       0.000000000000
 72       0.000000000000
 73       0.000000000000
 74       0.000000000000
 75       0.000000000000
 76       0.000000000000
 77       0.000000000000
 78       0.000000000000
 79       0.000000000000
 80       0.000000000000
 81       0.000000000000
 82       0.000000000000
 83       0.000000000000
 84       0.000000000000
 85       0.000000000000
 86       0.000000000000
 87       0.000000000000
 88       0.000000000000
 89       0.000000000000
 90       0.000000000000
 91       0.000000000000
 92       0.000000000000
 93       0.000000000000
 94       0.000000000000
 95       0.000000000000
 96       0.000000000000
 97       0.000000000000
 98       0.000000000000
 99       0.000000000000
100       0.000000000000
101       0.000000000000
102       0.000000000000
103       0.000000000000
104       0.000000000000
105       0.000000000000
106       0.000000000000
107       0.000000000000
108       0.000000000000
109       0.000000000000
110       0.000000000000
111       0.000000000000
112       0.000000000000
113       0.000000000000
114       0.000000000000
115       0.000000000000
116       0.000000000000
117       0.000000000000
118       0.000000000000
119       0.000000000000
120       0.000000000000
121       0.000000000000
122       0.000000000000
123       0.000000000000
124       0.000000000000
125       0.000000000000
126       0.000000000000
127       0.000000000000
128       0.000000000000
129       0.000000000000
130       0.000000000000
131       0.000000000000
132       0.000000000000
133       0.000000000000
134       0.000000000000
135       0.000000000000
136       0.000000000000
137       0.000000000000
138       0.000000000000
139       0.000000000000
140       0.000000000000
141       0.000000000000
142       0.000000000000
143       0.000000000000
144       0.000000000000
145       0.000000000000
146       0.000000000000
147       0.000000000000
148       0.000000000000
149       0.159039277981
150      -1.489041403177
151       1.693812319466
152       0.000000000000
153       0.000000000000
154       0.000000000000
155       0.000000000000
156       0.000000000000
157       0.000000000000
158       0.000000000000
159       0.000000000000
160       0.000000000000
161       0.000000000000
162       0.000000000000
163       0.000000000000
164       0.000000000000
165       0.000000000000
166       0.000000000000
167       0.000000000000
168       0.000000000000
169       0.000000000000
170       0.000000000000
171       0.000000000000
172       0.000000000000
173       0.000000000000
174       0.000000000000
175       0.000000000000
176       0.000000000000
177       0.000000000000
178       0.000000000000
 Sym=     1a
 Ene= -6.99462294123386E-01
Spin= Alpha
 Occup= 1.615283
  1       0.000000000000
  2       0.000000000000
  3       0.000000000000
  4       0.000000000000
  5       0.000000000000
  6       0.000000000000
  7       0.000000000000
  8       0.000000000000
  9       0.000000000000
 10       0.000000000000
 11       0.000000000000
 12       0.000000000000
 13       0.000000000000
 14       0.000000000000
 15       0.000000000000
 16       0.000000000000
 17       0.000000000000
 18       0.000000000000
 19       0.000000000000
 20       0.000000000000
 21       0.000000000000
 22       0.000000000000
 23       0.000000000000
 24       0.000000000000
 25       0.000000000000
 26       0.000000000000
 27       0.000000000000
 28       0.000000000000
 29       0.000000000000
 30       0.000000000000
 31       0.000000000000
 32       0.000000000000
 33       0.000000000000
 34       0.000000000000
 35       0.000000000000
 36       0.000000000000
 37       0.000000000000
 38       0.000000000000
 39       0.000000000000
 40       0.000000000000
 41       0.000000000000
 42       0.000000000000
 43       0.000000000000
 44       0.000000000000
 45       0.000000000000
 46       0.000000000000
 47       0.000000000000
 48       0.000000000000
 49       0.000000000000
 50       0.000000000000
 51       0.000000000000
 52       0.000000000000
 53       0.000000000000
 54       0.000000000000
 55       0.000000000000
 56       0.000000000000
 57       0.000000000000
 58       0.000000000000
 59       0.000000000000
 60       0.000000000000
 61       0.000000000000
 62       0.000000000000
 63       0.000000000000
 64       0.000000000000
 65       0.000000000000
 66       0.000000000000
 67       0.000000000000
 68       0.000000000000
 69       0.000000000000
 70       0.000000000000
 71       0.000000000000
 72       0.000000000000
 73       0.000000000000
 74       0.000000000000
 75       0.000000000000
 76       0.000000000000
 77       0.000000000000
 78       0.000000000000
 79       0.000000000000
 80       0.000000000000
 81       0.000000000000
 82       0.000000000000
 83       0.000000000000
 84       0.000000000000
 85       0.000000000000
 86       0.000000000000
 87       0.000000000000
 88       0.000000000000
 89       0.000000000000
 90       0.000000000000
 91       0.000000000000
 92       0.000000000000
 93       0.000000000000
 94       0.000000000000
 95       0.000000000000
 96       0.000000000000
 97       0.000000000000
 98       0.000000000000
 99       0.000000000000
100       0.000000000000
101       0.000000000000
102       0.000000000000
103       0.000000000000
104       0.000000000000
105       0.000000000000
106       0.000000000000
107       0.000000000000
108       0.000000000000
109       0.000000000000
110       0.000000000000
111       0.000000000000
112       0.000000000000
113       0.000000000000
114       0.000000000000
115       0.000000000000
116       0.000000000000
117       0.000000000000
118       0.000000000000
119       0.000000000000
120       0.000000000000
121       0.000000000000
122       0.000000000000
123       0.000000000000
124       0.000000000000
125       0.000000000000
126       0.000000000000
127       0.000000000000
128       0.000000000000
129       0.000000000000
130       0.000000000000
131       0.000000000000
132       0.000000000000
133       0.000000000000
134       0.000000000000
135       0.000000000000
136       0.000000000000
137       0.000000000000
138       0.000000000000
139       0.000000000000
140       0.000000000000
141       0.000000000000
142       0.000000000000
143       0.000000000000
144       0.000000000000
145       0.000000000000
146       0.000000000000
147       0.000000000000
148       0.000000000000
149       0.103505167372
150       0.840553324858
151       0.105945477330
152       0.000000000000
153       0.000000000000
154       0.000000000000
155       0.000000000000
156       0.000000000000
157       0.000000000000
158       0.000000000000
159       0.000000000000
160       0.000000000000
161       0.000000000000
162       0.000000000000
163       0.000000000000
164       0.000000000000
165       0.000000000000
166       0.000000000000
167       0.000000000000
168       0.000000000000
169       0.000000000000
170       0.000000000000
171       0.000000000000
172       0.000000000000
173       0.000000000000
174       0.000000000000
175       0.000000000000
176       0.000000000000
177       0.000000000000
178       0.000000000000
 Sym=     1a
 Ene=  1.21269653730468E+00
Spin= Alpha
 Occup= 0.115088
  1       0.000000000000
  2       0.000000000000
  3       0.000000000000
  4       0.000000000000
  5       0.000000000000
  6       0.000000000000
  7       0.000000000000
  8       0.000000000000
  9       0.000000000000
 10       0.000000000000
 11       0.000000000000
 12       0.000000000000
 13       0.000000000000
 14       0.000000000000
 15       0.000000000000
 16       0.000000000000
 17       0.000000000000
 18       0.000000000000
 19       0.000000000000
 20       0.000000000000
 21       0.000000000000
 22       0.000000000000
 23       0.000000000000
 24       0.000000000000
 25       0.000000000000
 26       0.000000000000
 27       0.000000000000
 28       0.000000000000
 29       0.000000000000
 30       0.000000000000
 31       0.000000000000
 32       0.000000000000
 33       0.000000000000
 34       0.000000000000
 35       0.000000000000
 36       0.000000000000
 37       0.000000000000
 38       0.000000000000
 39       0.000000000000
 40       0.000000000000
 41       0.000000000000
 42       0.000000000000
 43       0.000000000000
 44       0.000000000000
 45       0.000000000000
 46       0.000000000000
 47       0.000000000000
 48       0.000000000000
 49       0.000000000000
 50       0.000000000000
 51       0.000000000000
 52       0.000000000000
 53       0.000000000000
 54       0.000000000000
 55       0.000000000000
 56       0.000000000000
 57       0.000000000000
 58       0.000000000000
 59       0.000000000000
 60       0.000000000000
 61       0.000000000000
 62       0.000000000000
 63       0.000000000000
 64       0.000000000000
 65       0.000000000000
 66       0.000000000000
 67       0.000000000000
 68       0.000000000000
 69       0.000000000000
 70       0.000000000000
 71       0.000000000000
 72       0.000000000000
 73       0.000000000000
 74       0.000000000000
 75       0.000000000000
 76       0.000000000000
 77       0.000000000000
 78       0.000000000000
 79       0.000000000000
 80       0.000000000000
 81       0.000000000000
 82       0.000000000000
 83       0.000000000000
 84       0.000000000000
 85       0.000000000000
 86       0.000000000000
 87       0.000000000000
 88       0.000000000000
 89       0.000000000000
 90       0.000000000000
 91       0.000000000000
 92       0.000000000000
 93       0.000000000000
 94       0.000000000000
 95       0.000000000000
 96       0.000000000000
 97       0.000000000000
 98       0.000000000000
 99       0.000000000000
100       0.000000000000
101       0.000000000000
102       0.000000000000
103       0.000000000000
104       0.000000000000
105       0.000000000000
106       0.000000000000
107       0.000000000000
108       0.000000000000
109       0.000000000000
110       0.000000000000
111       0.000000000000
112       0.000000000000
113       0.000000000000
114       0.000000000000
115       0.000000000000
116       0.000000000000
117       0.000000000000
118       0.000000000000
119       0.000000000000
120       0.000000000000
121       0.000000000000
122       0.000000000000
123       0.000000000000
124       0.000000000000
125       0.000000000000
126       0.000000000000
127       0.000000000000
128       0.000000000000
129       0.000000000000
130       0.000000000000
131       0.000000000000
132       0.000000000000
133       0.000000000000
134       0.000000000000
135       0.000000000000
136       0.000000000000
137       0.000000000000
138       0.000000000000
139       0.000000000000
140       0.000000000000
141       0.000000000000
142       0.000000000000
143       0.000000000000
144       0.000000000000
145       0.000000000000
146       0.000000000000
147       0.000000000000
148       0.000000000000
149       0.000000000000
150       0.000000000000
151       0.000000000000
152       1.000000000000
153       0.000000000000
154       0.000000000000
155       0.000000000000
156       0.000000000000
157       0.000000000000
158       0.000000000000
159       0.000000000000
160       0.000000000000
161       0.000000000000
162       0.000000000000
163       0.000000000000
164       0.000000000000
165       0.000000000000
166       0.000000000000
167       0.000000000000
168       0.000000000000
169       0.000000000000
170       0.000000000000
171       0.000000000000
172       0.000000000000
173       0.000000000000
174       0.000000000000
175       0.000000000000
176       0.000000000000
177       0.000000000000
178       0.000000000000
 Sym=     1a
 Ene=  1.04148541057329E+00
Spin= Alpha
 Occup= 0.115088
  1       0.000000000000
  2       0.000000000000
  3       0.000000000000
  4       0.000000000000
  5       0.000000000000
  6       0.000000000000
  7       0.000000000000
  8       0.000000000000
  9       0.000000000000
 10       0.000000000000
 11       0.000000000000
 12       0.000000000000
 13       0.000000000000
 14       0.000000000000
 15       0.000000000000
 16       0.000000000000
 17       0.000000000000
 18       0.000000000000
 19       0.000000000000
 20       0.000000000000
 21       0.000000000000
 22       0.000000000000
 23       0.000000000000
 24       0.000000000000
 25       0.000000000000
 26       0.000000000000
 27       0.000000000000
 28       0.000000000000
 29       0.000000000000
 30       0.000000000000
 31       0.000000000000
 32       0.000000000000
 33       0.000000000000
 34       0.000000000000
 35       0.000000000000
 36       0.000000000000
 37       0.000000000000
 38       0.000000000000
 39       0.000000000000
 40       0.000000000000
 41       0.000000000000
 42       0.000000000000
 43       0.000000000000
 44       0.000000000000
 45       0.000000000000
 46       0.000000000000
 47       0.000000000000
 48       0.000000000000
 49       0.000000000000
 50       0.000000000000
 51       0.000000000000
 52       0.000000000000
 53       0.000000000000
 54       0.000000000000
 55       0.000000000000
 56       0.000000000000
 57       0.000000000000
 58       0.000000000000
 59       0.000000000000
 60       0.000000000000
 61       0.000000000000
 62       0.000000000000
 63       0.000000000000
 64       0.000000000000
 65       0.000000000000
 66       0.000000000000
 67       0.000000000000
 68       0.000000000000
 69       0.000000000000
 70       0.000000000000
 71       0.000000000000
 72       0.000000000000
 73       0.000000000000
 74       0.000000000000
 75       0.000000000000
 76       0.000000000000
 77       0.000000000000
 78       0.000000000000
 79       0.000000000000
 80       0.000000000000
 81       0.000000000000
 82       0.000000000000
 83       0.000000000000
 84       0.000000000000
 85       0.000000000000
 86       0.000000000000
 87       0.000000000000
 88       0.000000000000
 89       0.000000000000
 90       0.000000000000
 91       0.000000000000
 92       0.000000000000
 93       0.000000000000
 94       0.000000000000
 95       0.000000000000
 96       0.000000000000
 97       0.000000000000
 98       0.000000000000
 99       0.000000000000
100       0.000000000000
101       0.000000000000
102       0.000000000000
103       0.000000000000
104       0.000000000000
105       0.000000000000
106       0.000000000000
107       0.000000000000
108       0.000000000000
109       0.000000000000
110       0.000000000000
111       0.000000000000
112       0.000000000000
113       0.000000000000
114       0.000000000000
115       0.000000000000
116       0.000000000000
117       0.000000000000
118       0.000000000000
119       0.000000000000
120       0.000000000000
121       0.000000000000
122       0.000000000000
123       0.000000000000
124       0.000000000000
125       0.000000000000
126       0.000000000000
127       0.000000000000
128       0.000000000000
129       0.000000000000
130       0.000000000000
131       0.000000000000
132       0.000000000000
133       0.000000000000
134       0.000000000000
135       0.000000000000
136       0.000000000000
137       0.000000000000
138       0.000000000000
139       0.000000000000
140       0.000000000000
141       0.000000000000
142       0.000000000000
143       0.000000000000
144       0.000000000000
145       0.000000000000
146       0.000000000000
147       0.000000000000
148       0.000000000000
149       0.000000000000
150       0.000000000000
151       0.000000000000
152       0.000000000000
153       1.000000000000
154       0.000000000000
155       0.000000000000
156       0.000000000000
157       0.000000000000
158       0.000000000000
159       0.000000000000
160       0.000000000000
161       0.000000000000
162       0.000000000000
163       0.000000000000
164       0.000000000000
165       0.000000000000
166       0.000000000000
167       0.000000000000
168       0.000000000000
169       0.000000000000
170       0.000000000000
171       0.000000000000
172       0.000000000000
173       0.000000000000
174       0.000000000000
175       0.000000000000
176       0.000000000000
177       0.000000000000
178       0.000000000000
 Sym=     1a
 Ene=  1.04713973086062E+00
Spin= Alpha
 Occup= 0.115088
  1       0.000000000000
  2       0.000000000000
  3       0.000000000000
  4       0.000000000000
  5       0.000000000000
  6       0.000000000000
  7       0.000000000000
  8       0.000000000000
  9       0.000000000000
 10       0.000000000000
 11       0.000000000000
 12       0.000000000000
 13       0.000000000000
 14       0.000000000000
 15       0.000000000000
 16       0.000000000000
 17       0.000000000000
 18       0.000000000000
 19       0.000000000000
 20       0.000000000000
 21       0.000000000000
 22       0.000000000000
 23       0.000000000000
 24       0.000000000000
 25       0.000000000000
 26       0.000000000000
 27       0.000000000000
 28       0.000000000000
 29       0.000000000000
 30       0.000000000000
 31       0.000000000000
 32       0.000000000000
 33       0.000000000000
 34       0.000000000000
 35       0.000000000000
 36       0.000000000000
 37       0.000000000000
 38       0.000000000000
 39       0.000000000000
 40       0.000000000000
 41       0.000000000000
 42       0.000000000000
 43       0.000000000000
 44       0.000000000000
 45       0.000000000000
 46       0.000000000000
 47       0.000000000000
 48       0.000000000000
 49       0.000000000000
 50       0.000000000000
 51       0.000000000000
 52       0.000000000000
 53       0.000000000000
 54       0.000000000000
 55       0.000000000000
 56       0.000000000000
 57       0.000000000000
 58       0.000000000000
 59       0.000000000000
 60       0.000000000000
 61       0.000000000000
 62       0.000000000000
 63       0.000000000000
 64       0.000000000000
 65       0.000000000000
 66       0.000000000000
 67       0.000000000000
 68       0.000000000000
 69       0.000000000000
 70       0.000000000000
 71       0.000000000000
 72       0.000000000000
 73       0.000000000000
 74       0.000000000000
 75       0.000000000000
 76       0.000000000000
 77       0.000000000000
 78       0.000000000000
 79       0.000000000000
 80       0.000000000000
 81       0.000000000000
 82       0.000000000000
 83       0.000000000000
 84       0.000000000000
 85       0.000000000000
 86       0.000000000000
 87       0.000000000000
 88       0.000000000000
 89       0.000000000000
 90       0.000000000000
 91       0.000000000000
 92       0.000000000000
 93       0.000000000000
 94       0.000000000000
 95       0.000000000000
 96       0.000000000000
 97       0.000000000000
 98       0.000000000000
 99       0.000000000000
100       0.000000000000
101       0.000000000000
102       0.000000000000
103       0.000000000000
104       0.000000000000
105       0.000000000000
106       0.000000000000
107       0.000000000000
108       0.000000000000
109       0.000000000000
110       0.000000000000
111       0.000000000000
112       0.000000000000
113       0.000000000000
114       0.000000000000
115       0.000000000000
116       0.000000000000
117       0.000000000000
118       0.000000000000
119       0.000000000000
120       0.000000000000
121       0.000000000000
122       0.000000000000
123       0.000000000000
124       0.000000000000
125       0.000000000000
126       0.000000000000
127       0.000000000000
128       0.000000000000
129       0.000000000000
130       0.000000000000
131       0.000000000000
132       0.000000000000
133       0.000000000000
134       0.000000000000
135       0.000000000000
136       0.000000000000
137       0.000000000000
138       0.000000000000
139       0.000000000000
140       0.000000000000
141       0.000000000000
142       0.000000000000
143       0.000000000000
144       0.000000000000
145       0.000000000000
146       0.000000000000
147       0.000000000000
148       0.000000000000
149       0.000000000000
150       0.000000000000
151       0.000000000000
152       0.000000000000
153       0.000000000000
154       1.000000000000
155       0.000000000000
156       0.000000000000
157       0.000000000000
158       0.000000000000
159       0.000000000000
160       0.000000000000
161       0.000000000000
162       0.000000000000
163       0.000000000000
164       0.000000000000
165       0.000000000000
166       0.000000000000
167       0.000000000000
168       0.000000000000
169       0.000000000000
170       0.000000000000
171       0.000000000000
172       0.000000000000
173       0.000000000000
174       0.000000000000
175       0.000000000000
176       0.000000000000
177       0.000000000000
178       0.000000000000
 Sym=     1a
 Ene=  1.94535630816469E+00
Spin= Alpha
 Occup= 0.018646
  1       0.000000000000
  2       0.000000000000
  3       0.000000000000
  4       0.000000000000
  5       0.000000000000
  6       0.000000000000
  7       0.000000000000
  8       0.000000000000
  9       0.000000000000
 10       0.000000000000
 11       0.000000000000
 12       0.000000000000
 13       0.000000000000
 14       0.000000000000
 15       0.000000000000
 16       0.000000000000
 17       0.000000000000
 18       0.000000000000
 19       0.000000000000
 20       0.000000000000
 21       0.000000000000
 22       0.000000000000
 23       0.000000000000
 24       0.000000000000
 25       0.000000000000
 26       0.000000000000
 27       0.000000000000
 28       0.000000000000
 29       0.000000000000
 30       0.000000000000
 31       0.000000000000
 32       0.000000000000
 33       0.000000000000
 34       0.000000000000
 35       0.000000000000
 36       0.000000000000
 37       0.000000000000
 38       0.000000000000
 39       0.000000000000
 40       0.000000000000
 41       0.000000000000
 42       0.000000000000
 43       0.000000000000
 44       0.000000000000
 45       0.000000000000
 46       0.000000000000
 47       0.000000000000
 48       0.000000000000
 49       0.000000000000
 50       0.000000000000
 51       0.000000000000
 52       0.000000000000
 53       0.000000000000
 54       0.000000000000
 55       0.000000000000
 56       0.000000000000
 57       0.000000000000
 58       0.000000000000
 59       0.000000000000
 60       0.000000000000
 61       0.000000000000
 62       0.000000000000
 63       0.000000000000
 64       0.000000000000
 65       0.000000000000
 66       0.000000000000
 67       0.000000000000
 68       0.000000000000
 69       0.000000000000
 70       0.000000000000
 71       0.000000000000
 72       0.000000000000
 73       0.000000000000
 74       0.000000000000
 75       0.000000000000
 76       0.000000000000
 77       0.000000000000
 78       0.000000000000
 79       0.000000000000
 80       0.000000000000
 81       0.000000000000
 82       0.000000000000
 83       0.000000000000
 84       0.000000000000
 85       0.000000000000
 86       0.000000000000
 87       0.000000000000
 88       0.000000000000
 89       0.000000000000
 90       0.000000000000
 91       0.000000000000
 92       0.000000000000
 93       0.000000000000
 94       0.000000000000
 95       0.000000000000
 96       0.000000000000
 97       0.000000000000
 98       0.000000000000
 99       0.000000000000
100       0.000000000000
101       0.000000000000
102       0.000000000000
103       0.000000000000
104       0.000000000000
105       0.000000000000
106       0.000000000000
107       0.000000000000
108       0.000000000000
109       0.000000000000
110       0.000000000000
111       0.000000000000
112       0.000000000000
113       0.000000000000
114       0.000000000000
115       0.000000000000
116       0.000000000000
117       0.000000000000
118       0.000000000000
119       0.000000000000
120       0.000000000000
121       0.000000000000
122       0.000000000000
123       0.000000000000
124       0.000000000000
125       0.000000000000
126       0.000000000000
127       0.000000000000
128       0.000000000000
129       0.000000000000
130       0.000000000000
131       0.000000000000
132       0.000000000000
133       0.000000000000
134       0.000000000000
135       0.000000000000
136       0.000000000000
137       0.000000000000
138       0.000000000000
139       0.000000000000
140       0.000000000000
141       0.000000000000
142       0.000000000000
143       0.000000000000
144       0.000000000000
145       0.000000000000
146       0.000000000000
147       0.000000000000
148       0.000000000000
149       0.000000000000
150       0.000000000000
151       0.000000000000
152       0.000000000000
153       0.000000000000
154       0.000000000000
155      -1.546293286971
156       1.612977911196
157      -0.581294135196
158       0.000000000000
159       0.000000000000
160       0.000000000000
161       0.000000000000
162       0.000000000000
163       0.000000000000
164       0.000000000000
165       0.000000000000
166       0.000000000000
167       0.000000000000
168       0.000000000000
169       0.000000000000
170       0.000000000000
171       0.000000000000
172       0.000000000000
173       0.000000000000
174       0.000000000000
175       0.000000000000
176       0.000000000000
177       0.000000000000
178       0.000000000000
 Sym=     1a
 Ene= -9.44792096861644E-02
Spin= Alpha
 Occup= 0.495579
  1       0.000000000000
  2       0.000000000000
  3       0.000000000000
  4       0.000000000000
  5       0.000000000000
  6       0.000000000000
  7       0.000000000000
  8       0.000000000000
  9       0.000000000000
 10       0.000000000000
 11       0.000000000000
 12       0.000000000000
 13       0.000000000000
 14       0.000000000000
 15       0.000000000000
 16       0.000000000000
 17       0.000000000000
 18       0.000000000000
 19       0.000000000000
 20       0.000000000000
 21       0.000000000000
 22       0.000000000000
 23       0.000000000000
 24       0.000000000000
 25       0.000000000000
 26       0.000000000000
 27       0.000000000000
 28       0.000000000000
 29       0.000000000000
 30       0.000000000000
 31       0.000000000000
 32       0.000000000000
 33       0.000000000000
 34       0.000000000000
 35       0.000000000000
 36       0.000000000000
 37       0.000000000000
 38       0.000000000000
 39       0.000000000000
 40       0.000000000000
 41       0.000000000000
 42       0.000000000000
 43       0.000000000000
 44       0.000000000000
 45       0.000000000000
 46       0.000000000000
 47       0.000000000000
 48       0.000000000000
 49       0.000000000000
 50       0.000000000000
 51       0.000000000000
 52       0.000000000000
 53       0.000000000000
 54       0.000000000000
 55       0.000000000000
 56       0.000000000000
 57       0.000000000000
 58       0.000000000000
 59       0.000000000000
 60       0.000000000000
 61       0.000000000000
 62       0.000000000000
 63       0.000000000000
 64       0.000000000000
 65       0.000000000000
 66       0.000000000000
 67       0.000000000000
 68       0.000000000000
 69       0.000000000000
 70       0.000000000000
 71       0.000000000000
 72       0.000000000000
 73       0.000000000000
 74       0.000000000000
 75       0.000000000000
 76       0.000000000000
 77       0.000000000000
 78       0.000000000000
 79       0.000000000000
 80       0.000000000000
 81       0.000000000000
 82       0.000000000000
 83       0.000000000000
 84       0.000000000000
 85       0.000000000000
 86       0.000000000000
 87       0.000000000000
 88       0.000000000000
 89       0.000000000000
 90       0.000000000000
 91       0.000000000000
 92       0.000000000000
 93       0.000000000000
 94       0.000000000000
 95       0.000000000000
 96       0.000000000000
 97       0.000000000000
 98       0.000000000000
 99       0.000000000000
100       0.000000000000
101       0.000000000000
102       0.000000000000
103       0.000000000000
104       0.000000000000
105       0.000000000000
106       0.000000000000
107       0.000000000000
108       0.000000000000
109       0.000000000000
110       0.000000000000
111       0.000000000000
112       0.000000000000
113       0.000000000000
114       0.000000000000
115       0.000000000000
116       0.000000000000
117       0.000000000000
118       0.000000000000
119       0.000000000000
120       0.000000000000
121       0.000000000000
122       0.000000000000
123       0.000000000000
124       0.000000000000
125       0.000000000000
126       0.000000000000
127       0.000000000000
128       0.000000000000
129       0.000000000000
130       0.000000000000
131       0.000000000000
132       0.000000000000
133       0.000000000000
134       0.000000000000
135       0.000000000000
136       0.000000000000
137       0.000000000000
138       0.000000000000
139       0.000000000000
140       0.000000000000
141       0.000000000000
142       0.000000000000
143       0.000000000000
144       0.000000000000
145       0.000000000000
146       0.000000000000
147       0.000000000000
148       0.000000000000
149       0.000000000000
150       0.000000000000
151       0.000000000000
152       0.000000000000
153       0.000000000000
154       0.000000000000
155       0.159006072208
156      -1.488966994751
157       1.693802646210
158       0.000000000000
159       0.000000000000
160       0.000000000000
161       0.000000000000
162       0.000000000000
163       0.000000000000
164       0.000000000000
165       0.000000000000
166       0.000000000000
167       0.000000000000
168       0.000000000000
169       0.000000000000
170       0.000000000000
171       0.000000000000
172       0.000000000000
173       0.000000000000
174       0.000000000000
175       0.000000000000
176       0.000000000000
177       0.000000000000
178       0.000000000000
 Sym=     1a
 Ene= -6.99330874146475E-01
Spin= Alpha
 Occup= 1.615355
  1       0.000000000000
  2       0.000000000000
  3       0.000000000000
  4       0.000000000000
  5       0.000000000000
  6       0.000000000000
  7       0.000000000000
  8       0.000000000000
  9       0.000000000000
 10       0.000000000000
 11       0.000000000000
 12       0.000000000000
 13       0.000000000000
 14       0.000000000000
 15       0.000000000000
 16       0.000000000000
 17       0.000000000000
 18       0.000000000000
 19       0.000000000000
 20       0.000000000000
 21       0.000000000000
 22       0.000000000000
 23       0.000000000000
 24       0.000000000000
 25       0.000000000000
 26       0.000000000000
 27       0.000000000000
 28       0.000000000000
 29       0.000000000000
 30       0.000000000000
 31       0.000000000000
 32       0.000000000000
 33       0.000000000000
 34       0.000000000000
 35       0.000000000000
 36       0.000000000000
 37       0.000000000000
 38       0.000000000000
 39       0.000000000000
 40       0.000000000000
 41       0.000000000000
 42       0.000000000000
 43       0.000000000000
 44       0.000000000000
 45       0.000000000000
 46       0.000000000000
 47       0.000000000000
 48       0.000000000000
 49       0.000000000000
 50       0.000000000000
 51       0.000000000000
 52       0.000000000000
 53       0.000000000000
 54       0.000000000000
 55       0.000000000000
 56       0.000000000000
 57       0.000000000000
 58       0.000000000000
 59       0.000000000000
 60       0.000000000000
 61       0.000000000000
 62       0.000000000000
 63       0.000000000000
 64       0.000000000000
 65       0.000000000000
 66       0.000000000000
 67       0.000000000000
 68       0.000000000000
 69       0.000000000000
 70       0.000000000000
 71       0.000000000000
 72       0.000000000000
 73       0.000000000000
 74       0.000000000000
 75       0.000000000000
 76       0.000000000000
 77       0.000000000000
 78       0.000000000000
 79       0.000000000000
 80       0.000000000000
 81       0.000000000000
 82       0.000000000000
 83       0.000000000000
 84       0.000000000000
 85       0.000000000000
 86       0.000000000000
 87       0.000000000000
 88       0.000000000000
 89       0.000000000000
 90       0.000000000000
 91       0.000000000000
 92       0.000000000000
 93       0.000000000000
 94       0.000000000000
 95       0.000000000000
 96       0.000000000000
 97       0.000000000000
 98       0.000000000000
 99       0.000000000000
100       0.000000000000
101       0.000000000000
102       0.000000000000
103       0.000000000000
104       0.000000000000
105       0.000000000000
106       0.000000000000
107       0.000000000000
108       0.000000000000
109       0.000000000000
110       0.000000000000
111       0.000000000000
112       0.000000000000
113       0.000000000000
114       0.000000000000
115       0.000000000000
116       0.000000000000
117       0.000000000000
118       0.000000000000
119       0.000000000000
120       0.000000000000
121       0.000000000000
122       0.000000000000
123       0.000000000000
124       0.000000000000
125       0.000000000000
126       0.000000000000
127       0.000000000000
128       0.000000000000
129       0.000000000000
130       0.000000000000
131       0.000000000000
132       0.000000000000
133       0.000000000000
134       0.000000000000
135       0.000000000000
136       0.000000000000
137       0.000000000000
138       0.000000000000
139       0.000000000000
140       0.000000000000
141       0.000000000000
142       0.000000000000
143       0.000000000000
144       0.000000000000
145       0.000000000000
146       0.000000000000
147       0.000000000000
148       0.000000000000
149       0.000000000000
150       0.000000000000
151       0.000000000000
152       0.000000000000
153       0.000000000000
154       0.000000000000
155       0.103475410289
156       0.840639841099
157       0.105865779570
158       0.000000000000
159       0.000000000000
160       0.000000000000
161       0.000000000000
162       0.000000000000
163       0.000000000000
164       0.000000000000
165       0.000000000000
166       0.000000000000
167       0.000000000000
168       0.000000000000
169       0.000000000000
170       0.000000000000
171       0.000000000000
172       0.000000000000
173       0.000000000000
174       0.000000000000
175       0.000000000000
176       0.000000000000
177       0.000000000000
178       0.000000000000
 Sym=     1a
 Ene=  9.83062345234590E-01
Spin= Alpha
 Occup= 0.115049
  1       0.000000000000
  2       0.000000000000
  3       0.000000000000
  4       0.000000000000
  5       0.000000000000
  6       0.000000000000
  7       0.000000000000
  8       0.000000000000
  9       0.000000000000
 10       0.000000000000
 11       0.000000000000
 12       0.000000000000
 13       0.000000000000
 14       0.000000000000
 15       0.000000000000
 16       0.000000000000
 17       0.000000000000
 18       0.000000000000
 19       0.000000000000
 20       0.000000000000
 21       0.000000000000
 22       0.000000000000
 23       0.000000000000
 24       0.000000000000
 25       0.000000000000
 26       0.000000000000
 27       0.000000000000
 28       0.000000000000
 29       0.000000000000
 30       0.000000000000
 31       0.000000000000
 32       0.000000000000
 33       0.000000000000
 34       0.000000000000
 35       0.000000000000
 36       0.000000000000
 37       0.000000000000
 38       0.000000000000
 39       0.000000000000
 40       0.000000000000
 41       0.000000000000
 42       0.000000000000
 43       0.000000000000
 44       0.000000000000
 45       0.000000000000
 46       0.000000000000
 47       0.000000000000
 48       0.000000000000
 49       0.000000000000
 50       0.000000000000
 51       0.000000000000
 52       0.000000000000
 53       0.000000000000
 54       0.000000000000
 55       0.000000000000
 56       0.000000000000
 57       0.000000000000
 58       0.000000000000
 59       0.000000000000
 60       0.000000000000
 61       0.000000000000
 62       0.000000000000
 63       0.000000000000
 64       0.000000000000
 65       0.000000000000
 66       0.000000000000
 67       0.000000000000
 68       0.000000000000
 69       0.000000000000
 70       0.000000000000
 71       0.000000000000
 72       0.000000000000
 73       0.000000000000
 74       0.000000000000
 75       0.000000000000
 76       0.000000000000
 77       0.000000000000
 78       0.000000000000
 79       0.000000000000
 80       0.000000000000
 81       0.000000000000
 82       0.000000000000
 83       0.000000000000
 84       0.000000000000
 85       0.000000000000
 86       0.000000000000
 87       0.000000000000
 88       0.000000000000
 89       0.000000000000
 90       0.000000000000
 91       0.000000000000
 92       0.000000000000
 93       0.000000000000
 94       0.000000000000
 95       0.000000000000
 96       0.000000000000
 97       0.000000000000
 98       0.000000000000
 99       0.000000000000
100       0.000000000000
101       0.000000000000
102       0.000000000000
103       0.000000000000
104       0.000000000000
105       0.000000000000
106       0.000000000000
107       0.000000000000
108       0.000000000000
109       0.000000000000
110       0.000000000000
111       0.000000000000
112       0.000000000000
113       0.000000000000
114       0.000000000000
115       0.000000000000
116       0.000000000000
117       0.000000000000
118       0.000000000000
119       0.000000000000
120       0.000000000000
121       0.000000000000
122       0.000000000000
123       0.000000000000
124       0.000000000000
125       0.000000000000
126       0.000000000000
127       0.000000000000
128       0.000000000000
129       0.000000000000
130       0.000000000000
131       0.000000000000
132       0.000000000000
133       0.000000000000
134       0.000000000000
135       0.000000000000
136       0.000000000000
137       0.000000000000
138       0.000000000000
139       0.000000000000
140       0.000000000000
141       0.000000000000
142       0.000000000000
143       0.000000000000
144       0.000000000000
145       0.000000000000
146       0.000000000000
147       0.000000000000
148       0.000000000000
149       0.000000000000
150       0.000000000000
151       0.000000000000
152       0.000000000000
153       0.000000000000
154       0.000000000000
155       0.000000000000
156       0.000000000000
157       0.000000000000
158       1.000000000000
159       0.000000000000
160       0.000000000000
161       0.000000000000
162       0.000000000000
163       0.000000000000
164       0.000000000000
165       0.000000000000
166       0.000000000000
167       0.000000000000
168       0.000000000000
169       0.000000000000
170       0.000000000000
171       0.000000000000
172       0.000000000000
173       0.000000000000
174       0.000000000000
175       0.000000000000
176       0.000000000000
177       0.000000000000
178       0.000000000000
 Sym=     1a
 Ene=  1.21285022119882E+00
Spin= Alpha
 Occup= 0.115049
  1       0.000000000000
  2       0.000000000000
  3       0.000000000000
  4       0.000000000000
  5       0.000000000000
  6       0.000000000000
  7       0.000000000000
  8       0.000000000000
  9       0.000000000000
 10       0.000000000000
 11       0.000000000000
 12       0.000000000000
 13       0.000000000000
 14       0.000000000000
 15       0.000000000000
 16       0.000000000000
 17       0.000000000000
 18       0.000000000000
 19       0.000000000000
 20       0.000000000000
 21       0.000000000000
 22       0.000000000000
 23       0.000000000000
 24       0.000000000000
 25       0.000000000000
 26       0.000000000000
 27       0.000000000000
 28       0.000000000000
 29       0.000000000000
 30       0.000000000000
 31       0.000000000000
 32       0.000000000000
 33       0.000000000000
 34       0.000000000000
 35       0.000000000000
 36       0.000000000000
 37       0.000000000000
 38       0.000000000000
 39       0.000000000000
 40       0.000000000000
 41       0.000000000000
 42       0.000000000000
 43       0.000000000000
 44       0.000000000000
 45       0.000000000000
 46       0.000000000000
 47       0.000000000000
 48       0.000000000000
 49       0.000000000000
 50       0.000000000000
 51       0.000000000000
 52       0.000000000000
 53       0.000000000000
 54       0.000000000000
 55       0.000000000000
 56       0.000000000000
 57       0.000000000000
 58       0.000000000000
 59       0.000000000000
 60       0.000000000000
 61       0.000000000000
 62       0.000000000000
 63       0.000000000000
 64       0.000000000000
 65       0.000000000000
 66       0.000000000000
 67       0.000000000000
 68       0.000000000000
 69       0.000000000000
 70       0.000000000000
 71       0.000000000000
 72       0.000000000000
 73       0.000000000000
 74       0.000000000000
 75       0.000000000000
 76       0.000000000000
 77       0.000000000000
 78       0.000000000000
 79       0.000000000000
 80       0.000000000000
 81       0.000000000000
 82       0.000000000000
 83       0.000000000000
 84       0.000000000000
 85       0.000000000000
 86       0.000000000000
 87       0.000000000000
 88       0.000000000000
 89       0.000000000000
 90       0.000000000000
 91       0.000000000000
 92       0.000000000000
 93       0.000000000000
 94       0.000000000000
 95       0.000000000000
 96       0.000000000000
 97       0.000000000000
 98       0.000000000000
 99       0.000000000000
100       0.000000000000
101       0.000000000000
102       0.000000000000
103       0.000000000000
104       0.000000000000
105       0.000000000000
106       0.000000000000
107       0.000000000000
108       0.000000000000
109       0.000000000000
110       0.000000000000
111       0.000000000000
112       0.000000000000
113       0.000000000000
114       0.000000000000
115       0.000000000000
116       0.000000000000
117       0.000000000000
118       0.000000000000
119       0.000000000000
120       0.000000000000
121       0.000000000000
122       0.000000000000
123       0.000000000000
124       0.000000000000
125       0.000000000000
126       0.000000000000
127       0.000000000000
128       0.000000000000
129       0.000000000000
130       0.000000000000
131       0.000000000000
132       0.000000000000
133       0.000000000000
134       0.000000000000
135       0.000000000000
136       0.000000000000
137       0.000000000000
138       0.000000000000
139       0.000000000000
140       0.000000000000
141       0.000000000000
142       0.000000000000
143       0.000000000000
144       0.000000000000
145       0.000000000000
146       0.000000000000
147       0.000000000000
148       0.000000000000
149       0.000000000000
150       0.000000000000
151       0.000000000000
152       0.000000000000
153       0.000000000000
154       0.000000000000
155       0.000000000000
156       0.000000000000
157       0.000000000000
158       0.000000000000
159       1.000000000000
160       0.000000000000
161       0.000000000000
162       0.000000000000
163       0.000000000000
164       0.000000000000
165       0.000000000000
166       0.000000000000
167       0.000000000000
168       0.000000000000
169       0.000000000000
170       0.000000000000
171       0.000000000000
172       0.000000000000
173       0.000000000000
174       0.000000000000
175       0.000000000000
176       0.000000000000
177       0.000000000000
178       0.000000000000
 Sym=     1a
 Ene=  1.10592882591810E+00
Spin= Alpha
 Occup= 0.115049
  1       0.000000000000
  2       0.000000000000
  3       0.000000000000
  4       0.000000000000
  5       0.000000000000
  6       0.000000000000
  7       0.000000000000
  8       0.000000000000
  9       0.000000000000
 10       0.000000000000
 11       0.000000000000
 12       0.000000000000
 13       0.000000000000
 14       0.000000000000
 15       0.000000000000
 16       0.000000000000
 17       0.000000000000
 18       0.000000000000
 19       0.000000000000
 20       0.000000000000
 21       0.000000000000
 22       0.000000000000
 23       0.000000000000
 24       0.000000000000
 25       0.000000000000
 26       0.000000000000
 27       0.000000000000
 28       0.000000000000
 29       0.000000000000
 30       0.000000000000
 31       0.000000000000
 32       0.000000000000
 33       0.000000000000
 34       0.000000000000
 35       0.000000000000
 36       0.000000000000
 37       0.000000000000
 38       0.000000000000
 39       0.000000000000
 40       0.000000000000
 41       0.000000000000
 42       0.000000000000
 43       0.000000000000
 44       0.000000000000
 45       0.000000000000
 46       0.000000000000
 47       0.000000000000
 48       0.000000000000
 49       0.000000000000
 50       0.000000000000
 51       0.000000000000
 52       0.000000000000
 53       0.000000000000
 54       0.000000000000
 55       0.000000000000
 56       0.000000000000
 57       0.000000000000
 58       0.000000000000
 59       0.000000000000
 60       0.000000000000
 61       0.000000000000
 62       0.000000000000
 63       0.000000000000
 64       0.000000000000
 65       0.000000000000
 66       0.000000000000
 67       0.000000000000
 68       0.000000000000
 69       0.000000000000
 70       0.000000000000
 71       0.000000000000
 72       0.000000000000
 73       0.000000000000
 74       0.000000000000
 75       0.000000000000
 76       0.000000000000
 77       0.000000000000
 78       0.000000000000
 79       0.000000000000
 80       0.000000000000
 81       0.000000000000
 82       0.000000000000
 83       0.000000000000
 84       0.000000000000
 85       0.000000000000
 86       0.000000000000
 87       0.000000000000
 88       0.000000000000
 89       0.000000000000
 90       0.000000000000
 91       0.000000000000
 92       0.000000000000
 93       0.000000000000
 94       0.000000000000
 95       0.000000000000
 96       0.000000000000
 97       0.000000000000
 98       0.000000000000
 99       0.000000000000
100       0.000000000000
101       0.000000000000
102       0.000000000000
103       0.000000000000
104       0.000000000000
105       0.000000000000
106       0.000000000000
107       0.000000000000
108       0.000000000000
109       0.000000000000
110       0.000000000000
111       0.000000000000
112       0.000000000000
113       0.000000000000
114       0.000000000000
115       0.000000000000
116       0.000000000000
117       0.000000000000
118       0.000000000000
119       0.000000000000
120       0.000000000000
121       0.000000000000
122       0.000000000000
123       0.000000000000
124       0.000000000000
125       0.000000000000
126       0.000000000000
127       0.000000000000
128       0.000000000000
129       0.000000000000
130       0.000000000000
131       0.000000000000
132       0.000000000000
133       0.000000000000
134       0.000000000000
135       0.000000000000
136       0.000000000000
137       0.000000000000
138       0.000000000000
139       0.000000000000
140       0.000000000000
141       0.000000000000
142       0.000000000000
143       0.000000000000
144       0.000000000000
145       0.000000000000
146       0.000000000000
147       0.000000000000
148       0.000000000000
149       0.000000000000
150       0.000000000000
151       0.000000000000
152       0.000000000000
153       0.000000000000
154       0.000000000000
155       0.000000000000
156       0.000000000000
157       0.000000000000
158       0.000000000000
159       0.000000000000
160       1.000000000000
161       0.000000000000
162       0.000000000000
163       0.000000000000
164       0.000000000000
165       0.000000000000
166       0.000000000000
167       0.000000000000
168       0.000000000000
169       0.000000000000
170       0.000000000000
171       0.000000000000
172       0.000000000000
173       0.000000000000
174       0.000000000000
175       0.000000000000
176       0.000000000000
177       0.000000000000
178       0.000000000000
 Sym=     1a
 Ene=  1.92459860888165E+00
Spin= Alpha
 Occup= 0.018366
  1       0.000000000000
  2       0.000000000000
  3       0.000000000000
  4       0.000000000000
  5       0.000000000000
  6       0.000000000000
  7       0.000000000000
  8       0.000000000000
  9       0.000000000000
 10       0.000000000000
 11       0.000000000000
 12       0.000000000000
 13       0.000000000000
 14       0.000000000000
 15       0.000000000000
 16       0.000000000000
 17       0.000000000000
 18       0.000000000000
 19       0.000000000000
 20       0.000000000000
 21       0.000000000000
 22       0.000000000000
 23       0.000000000000
 24       0.000000000000
 25       0.000000000000
 26       0.000000000000
 27       0.000000000000
 28       0.000000000000
 29       0.000000000000
 30       0.000000000000
 31       0.000000000000
 32       0.000000000000
 33       0.000000000000
 34       0.000000000000
 35       0.000000000000
 36       0.000000000000
 37       0.000000000000
 38       0.000000000000
 39       0.000000000000
 40       0.000000000000
 41       0.000000000000
 42       0.000000000000
 43       0.000000000000
 44       0.000000000000
 45       0.000000000000
 46       0.000000000000
 47       0.000000000000
 48       0.000000000000
 49       0.000000000000
 50       0.000000000000
 51       0.000000000000
 52       0.000000000000
 53       0.000000000000
 54       0.000000000000
 55       0.000000000000
 56       0.000000000000
 57       0.000000000000
 58       0.000000000000
 59       0.000000000000
 60       0.000000000000
 61       0.000000000000
 62       0.000000000000
 63       0.000000000000
 64       0.000000000000
 65       0.000000000000
 66       0.000000000000
 67       0.000000000000
 68       0.000000000000
 69       0.000000000000
 70       0.000000000000
 71       0.000000000000
 72       0.000000000000
 73       0.000000000000
 74       0.000000000000
 75       0.000000000000
 76       0.000000000000
 77       0.000000000000
 78       0.000000000000
 79       0.000000000000
 80       0.000000000000
 81       0.000000000000
 82       0.000000000000
 83       0.000000000000
 84       0.000000000000
 85       0.000000000000
 86       0.000000000000
 87       0.000000000000
 88       0.000000000000
 89       0.000000000000
 90       0.000000000000
 91       0.000000000000
 92       0.000000000000
 93       0.000000000000
 94       0.000000000000
 95       0.000000000000
 96       0.000000000000
 97       0.000000000000
 98       0.000000000000
 99       0.000000000000
100       0.000000000000
101       0.000000000000
102       0.000000000000
103       0.000000000000
104       0.000000000000
105       0.000000000000
106       0.000000000000
107       0.000000000000
108       0.000000000000
109       0.000000000000
110       0.000000000000
111       0.000000000000
112       0.000000000000
113       0.000000000000
114       0.000000000000
115       0.000000000000
116       0.000000000000
117       0.000000000000
118       0.000000000000
119       0.000000000000
120       0.000000000000
121       0.000000000000
122       0.000000000000
123       0.000000000000
124       0.000000000000
125       0.000000000000
126       0.000000000000
127       0.000000000000
128       0.000000000000
129       0.000000000000
130       0.000000000000
131       0.000000000000
132       0.000000000000
133       0.000000000000
134       0.000000000000
135       0.000000000000
136       0.000000000000
137       0.000000000000
138       0.000000000000
139       0.000000000000
140       0.000000000000
141       0.000000000000
142       0.000000000000
143       0.000000000000
144       0.000000000000
145       0.000000000000
146       0.000000000000
147       0.000000000000
148       0.000000000000
149       0.000000000000
150       0.000000000000
151       0.000000000000
152       0.000000000000
153       0.000000000000
154       0.000000000000
155       0.000000000000
156       0.000000000000
157       0.000000000000
158       0.000000000000
159       0.000000000000
160       0.000000000000
161      -1.546488780537
162       1.597888185435
163      -0.574571194231
164       0.000000000000
165       0.000000000000
166       0.000000000000
167       0.000000000000
168       0.000000000000
169       0.000000000000
170       0.000000000000
171       0.000000000000
172       0.000000000000
173       0.000000000000
174       0.000000000000
175       0.000000000000
176       0.000000000000
177       0.000000000000
178       0.000000000000
 Sym=     1a
 Ene= -9.50348526420906E-02
Spin= Alpha
 Occup= 0.473812
  1       0.000000000000
  2       0.000000000000
  3       0.000000000000
  4       0.000000000000
  5       0.000000000000
  6       0.000000000000
  7       0.000000000000
  8       0.000000000000
  9       0.000000000000
 10       0.000000000000
 11       0.000000000000
 12       0.000000000000
 13       0.000000000000
 14       0.000000000000
 15       0.000000000000
 16       0.000000000000
 17       0.000000000000
 18       0.000000000000
 19       0.000000000000
 20       0.000000000000
 21       0.000000000000
 22       0.000000000000
 23       0.000000000000
 24       0.000000000000
 25       0.000000000000
 26       0.000000000000
 27       0.000000000000
 28       0.000000000000
 29       0.000000000000
 30       0.000000000000
 31       0.000000000000
 32       0.000000000000
 33       0.000000000000
 34       0.000000000000
 35       0.000000000000
 36       0.000000000000
 37       0.000000000000
 38       0.000000000000
 39       0.000000000000
 40       0.000000000000
 41       0.000000000000
 42       0.000000000000
 43       0.000000000000
 44       0.000000000000
 45       0.000000000000
 46       0.000000000000
 47       0.000000000000
 48       0.000000000000
 49       0.000000000000
 50       0.000000000000
 51       0.000000000000
 52       0.000000000000
 53       0.000000000000
 54       0.000000000000
 55       0.000000000000
 56       0.000000000000
 57       0.000000000000
 58       0.000000000000
 59       0.000000000000
 60       0.000000000000
 61       0.000000000000
 62       0.000000000000
 63       0.000000000000
 64       0.000000000000
 65       0.000000000000
 66       0.000000000000
 67       0.000000000000
 68       0.000000000000
 69       0.000000000000
 70       0.000000000000
 71       0.000000000000
 72       0.000000000000
 73       0.000000000000
 74       0.000000000000
 75       0.000000000000
 76       0.000000000000
 77       0.000000000000
 78       0.000000000000
 79       0.000000000000
 80       0.000000000000
 81       0.000000000000
 82       0.000000000000
 83       0.000000000000
 84       0.000000000000
 85       0.000000000000
 86       0.000000000000
 87       0.000000000000
 88       0.000000000000
 89       0.000000000000
 90       0.000000000000
 91       0.000000000000
 92       0.000000000000
 93       0.000000000000
 94       0.000000000000
 95       0.000000000000
 96       0.000000000000
 97       0.000000000000
 98       0.000000000000
 99       0.000000000000
100       0.000000000000
101       0.000000000000
102       0.000000000000
103       0.000000000000
104       0.000000000000
105       0.000000000000
106       0.000000000000
107       0.000000000000
108       0.000000000000
109       0.000000000000
110       0.000000000000
111       0.000000000000
112       0.000000000000
113       0.000000000000
114       0.000000000000
115       0.000000000000
116       0.000000000000
117       0.000000000000
118       0.000000000000
119       0.000000000000
120       0.000000000000
121       0.000000000000
122       0.000000000000
123       0.000000000000
124       0.000000000000
125       0.000000000000
126       0.000000000000
127       0.000000000000
128       0.000000000000
129       0.000000000000
130       0.000000000000
131       0.000000000000
132       0.000000000000
133       0.000000000000
134       0.000000000000
135       0.000000000000
136       0.000000000000
137       0.000000000000
138       0.000000000000
139       0.000000000000
140       0.000000000000
141       0.000000000000
142       0.000000000000
143       0.000000000000
144       0.000000000000
145       0.000000000000
146       0.000000000000
147       0.000000000000
148       0.000000000000
149       0.000000000000
150       0.000000000000
151       0.000000000000
152       0.000000000000
153       0.000000000000
154       0.000000000000
155       0.000000000000
156       0.000000000000
157       0.000000000000
158       0.000000000000
159       0.000000000000
160       0.000000000000
161       0.164374957265
162      -1.512041073671
163       1.694266541714
164       0.000000000000
165       0.000000000000
166       0.000000000000
167       0.000000000000
168       0.000000000000
169       0.000000000000
170       0.000000000000
171       0.000000000000
172       0.000000000000
173       0.000000000000
174       0.000000000000
175       0.000000000000
176       0.000000000000
177       0.000000000000
178       0.000000000000
 Sym=     1a
 Ene= -7.06000158781091E-01
Spin= Alpha
 Occup= 1.572616
  1       0.000000000000
  2       0.000000000000
  3       0.000000000000
  4       0.000000000000
  5       0.000000000000
  6       0.000000000000
  7       0.000000000000
  8       0.000000000000
  9       0.000000000000
 10       0.000000000000
 11       0.000000000000
 12       0.000000000000
 13       0.000000000000
 14       0.000000000000
 15       0.000000000000
 16       0.000000000000
 17       0.000000000000
 18       0.000000000000
 19       0.000000000000
 20       0.000000000000
 21       0.000000000000
 22       0.000000000000
 23       0.000000000000
 24       0.000000000000
 25       0.000000000000
 26       0.000000000000
 27       0.000000000000
 28       0.000000000000
 29       0.000000000000
 30       0.000000000000
 31       0.000000000000
 32       0.000000000000
 33       0.000000000000
 34       0.000000000000
 35       0.000000000000
 36       0.000000000000
 37       0.000000000000
 38       0.000000000000
 39       0.000000000000
 40       0.000000000000
 41       0.000000000000
 42       0.000000000000
 43       0.000000000000
 44       0.000000000000
 45       0.000000000000
 46       0.000000000000
 47       0.000000000000
 48       0.000000000000
 49       0.000000000000
 50       0.000000000000
 51       0.000000000000
 52       0.000000000000
 53       0.000000000000
 54       0.000000000000
 55       0.000000000000
 56       0.000000000000
 57       0.000000000000
 58       0.000000000000
 59       0.000000000000
 60       0.000000000000
 61       0.000000000000
 62       0.000000000000
 63       0.000000000000
 64       0.000000000000
 65       0.000000000000
 66       0.000000000000
 67       0.000000000000
 68       0.000000000000
 69       0.000000000000
 70       0.000000000000
 71       0.000000000000
 72       0.000000000000
 73       0.000000000000
 74       0.000000000000
 75       0.000000000000
 76       0.000000000000
 77       0.000000000000
 78       0.000000000000
 79       0.000000000000
 80       0.000000000000
 81       0.000000000000
 82       0.000000000000
 83       0.000000000000
 84       0.000000000000
 85       0.000000000000
 86       0.000000000000
 87       0.000000000000
 88       0.000000000000
 89       0.000000000000
 90       0.000000000000
 91       0.000000000000
 92       0.000000000000
 93       0.000000000000
 94       0.000000000000
 95       0.000000000000
 96       0.000000000000
 97       0.000000000000
 98       0.000000000000
 99       0.000000000000
100       0.000000000000
101       0.000000000000
102       0.000000000000
103       0.000000000000
104       0.000000000000
105       0.000000000000
106       0.000000000000
107       0.000000000000
108       0.000000000000
109       0.000000000000
110       0.000000000000
111       0.000000000000
112       0.000000000000
113       0.000000000000
114       0.000000000000
115       0.000000000000
116       0.000000000000
117       0.000000000000
118       0.000000000000
119       0.000000000000
120       0.000000000000
121       0.000000000000
122       0.000000000000
123       0.000000000000
124       0.000000000000
125       0.000000000000
126       0.000000000000
127       0.000000000000
128       0.000000000000
129       0.000000000000
130       0.000000000000
131       0.000000000000
132       0.000000000000
133       0.000000000000
134       0.000000000000
135       0.000000000000
136       0.000000000000
137       0.000000000000
138       0.000000000000
139       0.000000000000
140       0.000000000000
141       0.000000000000
142       0.000000000000
143       0.000000000000
144       0.000000000000
145       0.000000000000
146       0.000000000000
147       0.000000000000
148       0.000000000000
149       0.000000000000
150       0.000000000000
151       0.000000000000
152       0.000000000000
153       0.000000000000
154       0.000000000000
155       0.000000000000
156       0.000000000000
157       0.000000000000
158       0.000000000000
159       0.000000000000
160       0.000000000000
161       0.091467731796
162       0.828179288734
163       0.131934330605
164       0.000000000000
165       0.000000000000
166       0.000000000000
167       0.000000000000
168       0.000000000000
169       0.000000000000
170       0.000000000000
171       0.000000000000
172       0.000000000000
173       0.000000000000
174       0.000000000000
175       0.000000000000
176       0.000000000000
177       0.000000000000
178       0.000000000000
 Sym=     1a
 Ene=  1.19572929148460E+00
Spin= Alpha
 Occup= 0.117322
  1       0.000000000000
  2       0.000000000000
  3       0.000000000000
  4       0.000000000000
  5       0.000000000000
  6       0.000000000000
  7       0.000000000000
  8       0.000000000000
  9       0.000000000000
 10       0.000000000000
 11       0.000000000000
 12       0.000000000000
 13       0.000000000000
 14       0.000000000000
 15       0.000000000000
 16       0.000000000000
 17       0.000000000000
 18       0.000000000000
 19       0.000000000000
 20       0.000000000000
 21       0.000000000000
 22       0.000000000000
 23       0.000000000000
 24       0.000000000000
 25       0.000000000000
 26       0.000000000000
 27       0.000000000000
 28       0.000000000000
 29       0.000000000000
 30       0.000000000000
 31       0.000000000000
 32       0.000000000000
 33       0.000000000000
 34       0.000000000000
 35       0.000000000000
 36       0.000000000000
 37       0.000000000000
 38       0.000000000000
 39       0.000000000000
 40       0.000000000000
 41       0.000000000000
 42       0.000000000000
 43       0.000000000000
 44       0.000000000000
 45       0.000000000000
 46       0.000000000000
 47       0.000000000000
 48       0.000000000000
 49       0.000000000000
 50       0.000000000000
 51       0.000000000000
 52       0.000000000000
 53       0.000000000000
 54       0.000000000000
 55       0.000000000000
 56       0.000000000000
 57       0.000000000000
 58       0.000000000000
 59       0.000000000000
 60       0.000000000000
 61       0.000000000000
 62       0.000000000000
 63       0.000000000000
 64       0.000000000000
 65       0.000000000000
 66       0.000000000000
 67       0.000000000000
 68       0.000000000000
 69       0.000000000000
 70       0.000000000000
 71       0.000000000000
 72       0.000000000000
 73       0.000000000000
 74       0.000000000000
 75       0.000000000000
 76       0.000000000000
 77       0.000000000000
 78       0.000000000000
 79       0.000000000000
 80       0.000000000000
 81       0.000000000000
 82       0.000000000000
 83       0.000000000000
 84       0.000000000000
 85       0.000000000000
 86       0.000000000000
 87       0.000000000000
 88       0.000000000000
 89       0.000000000000
 90       0.000000000000
 91       0.000000000000
 92       0.000000000000
 93       0.000000000000
 94       0.000000000000
 95       0.000000000000
 96       0.000000000000
 97       0.000000000000
 98       0.000000000000
 99       0.000000000000
100       0.000000000000
101       0.000000000000
102       0.000000000000
103       0.000000000000
104       0.000000000000
105       0.000000000000
106       0.000000000000
107       0.000000000000
108       0.000000000000
109       0.000000000000
110       0.000000000000
111       0.000000000000
112       0.000000000000
113       0.000000000000
114       0.000000000000
115       0.000000000000
116       0.000000000000
117       0.000000000000
118       0.000000000000
119       0.000000000000
120       0.000000000000
121       0.000000000000
122       0.000000000000
123       0.000000000000
124       0.000000000000
125       0.000000000000
126       0.000000000000
127       0.000000000000
128       0.000000000000
129       0.000000000000
130       0.000000000000
131       0.000000000000
132       0.000000000000
133       0.000000000000
134       0.000000000000
135       0.000000000000
136       0.000000000000
137       0.000000000000
138       0.000000000000
139       0.000000000000
140       0.000000000000
141       0.000000000000
142       0.000000000000
143       0.000000000000
144       0.000000000000
145       0.000000000000
146       0.000000000000
147       0.000000000000
148       0.000000000000
149       0.000000000000
150       0.000000000000
151       0.000000000000
152       0.000000000000
153       0.000000000000
154       0.000000000000
155       0.000000000000
156       0.000000000000
157       0.000000000000
158       0.000000000000
159       0.000000000000
160       0.000000000000
161       0.000000000000
162       0.000000000000
163       0.000000000000
164       1.000000000000
165       0.000000000000
166       0.000000000000
167       0.000000000000
168       0.000000000000
169       0.000000000000
170       0.000000000000
171       0.000000000000
172       0.000000000000
173       0.000000000000
174       0.000000000000
175       0.000000000000
176       0.000000000000
177       0.000000000000
178       0.000000000000
 Sym=     1a
 Ene=  9.60184478487563E-01
Spin= Alpha
 Occup= 0.117322
  1       0.000000000000
  2       0.000000000000
  3       0.000000000000
  4       0.000000000000
  5       0.000000000000
  6       0.000000000000
  7       0.000000000000
  8       0.000000000000
  9       0.000000000000
 10       0.000000000000
 11       0.000000000000
 12       0.000000000000
 13       0.000000000000
 14       0.000000000000
 15       0.000000000000
 16       0.000000000000
 17       0.000000000000
 18       0.000000000000
 19       0.000000000000
 20       0.000000000000
 21       0.000000000000
 22       0.000000000000
 23       0.000000000000
 24       0.000000000000
 25       0.000000000000
 26       0.000000000000
 27       0.000000000000
 28       0.000000000000
 29       0.000000000000
 30       0.000000000000
 31       0.000000000000
 32       0.000000000000
 33       0.000000000000
 34       0.000000000000
 35       0.000000000000
 36       0.000000000000
 37       0.000000000000
 38       0.000000000000
 39       0.000000000000
 40       0.000000000000
 41       0.000000000000
 42       0.000000000000
 43       0.000000000000
 44       0.000000000000
 45       0.000000000000
 46       0.000000000000
 47       0.000000000000
 48       0.000000000000
 49       0.000000000000
 50       0.000000000000
 51       0.000000000000
 52       0.000000000000
 53       0.000000000000
 54       0.000000000000
 55       0.000000000000
 56       0.000000000000
 57       0.000000000000
 58       0.000000000000
 59       0.000000000000
 60       0.000000000000
 61       0.000000000000
 62       0.000000000000
 63       0.000000000000
 64       0.000000000000
 65       0.000000000000
 66       0.000000000000
 67       0.000000000000
 68       0.000000000000
 69       0.000000000000
 70       0.000000000000
 71       0.000000000000
 72       0.000000000000
 73       0.000000000000
 74       0.000000000000
 75       0.000000000000
 76       0.000000000000
 77       0.000000000000
 78       0.000000000000
 79       0.000000000000
 80       0.000000000000
 81       0.000000000000
 82       0.000000000000
 83       0.000000000000
 84       0.000000000000
 85       0.000000000000
 86       0.000000000000
 87       0.000000000000
 88       0.000000000000
 89       0.000000000000
 90       0.000000000000
 91       0.000000000000
 92       0.000000000000
 93       0.000000000000
 94       0.000000000000
 95       0.000000000000
 96       0.000000000000
 97       0.000000000000
 98       0.000000000000
 99       0.000000000000
100       0.000000000000
101       0.000000000000
102       0.000000000000
103       0.000000000000
104       0.000000000000
105       0.000000000000
106       0.000000000000
107       0.000000000000
108       0.000000000000
109       0.000000000000
110       0.000000000000
111       0.000000000000
112       0.000000000000
113       0.000000000000
114       0.000000000000
115       0.000000000000
116       0.000000000000
117       0.000000000000
118       0.000000000000
119       0.000000000000
120       0.000000000000
121       0.000000000000
122       0.000000000000
123       0.000000000000
124       0.000000000000
125       0.000000000000
126       0.000000000000
127       0.000000000000
128       0.000000000000
129       0.000000000000
130       0.000000000000
131       0.000000000000
132       0.000000000000
133       0.000000000000
134       0.000000000000
135       0.000000000000
136       0.000000000000
137       0.000000000000
138       0.000000000000
139       0.000000000000
140       0.000000000000
141       0.000000000000
142       0.000000000000
143       0.000000000000
144       0.000000000000
145       0.000000000000
146       0.000000000000
147       0.000000000000
148       0.000000000000
149       0.000000000000
150       0.000000000000
151       0.000000000000
152       0.000000000000
153       0.000000000000
154       0.000000000000
155       0.000000000000
156       0.000000000000
157       0.000000000000
158       0.000000000000
159       0.000000000000
160       0.000000000000
161       0.000000000000
162       0.000000000000
163       0.000000000000
164       0.000000000000
165       1.000000000000
166       0.000000000000
167       0.000000000000
168       0.000000000000
169       0.000000000000
170       0.000000000000
171       0.000000000000
172       0.000000000000
173       0.000000000000
174       0.000000000000
175       0.000000000000
176       0.000000000000
177       0.000000000000
178       0.000000000000
 Sym=     1a
 Ene=  1.12220800785330E+00
Spin= Alpha
 Occup= 0.117322
  1       0.000000000000
  2       0.000000000000
  3       0.000000000000
  4       0.000000000000
  5       0.000000000000
  6       0.000000000000
  7       0.000000000000
  8       0.000000000000
  9       0.000000000000
 10       0.000000000000
 11       0.000000000000
 12       0.000000000000
 13       0.000000000000
 14       0.000000000000
 15       0.000000000000
 16       0.000000000000
 17       0.000000000000
 18       0.000000000000
 19       0.000000000000
 20       0.000000000000
 21       0.000000000000
 22       0.000000000000
 23       0.000000000000
 24       0.000000000000
 25       0.000000000000
 26       0.000000000000
 27       0.000000000000
 28       0.000000000000
 29       0.000000000000
 30       0.000000000000
 31       0.000000000000
 32       0.000000000000
 33       0.000000000000
 34       0.000000000000
 35       0.000000000000
 36       0.000000000000
 37       0.000000000000
 38       0.000000000000
 39       0.000000000000
 40       0.000000000000
 41       0.000000000000
 42       0.000000000000
 43       0.000000000000
 44       0.000000000000
 45       0.000000000000
 46       0.000000000000
 47       0.000000000000
 48       0.000000000000
 49       0.000000000000
 50       0.000000000000
 51       0.000000000000
 52       0.000000000000
 53       0.000000000000
 54       0.000000000000
 55       0.000000000000
 56       0.000000000000
 57       0.000000000000
 58       0.000000000000
 59       0.000000000000
 60       0.000000000000
 61       0.000000000000
 62       0.000000000000
 63       0.000000000000
 64       0.000000000000
 65       0.000000000000
 66       0.000000000000
 67       0.000000000000
 68       0.000000000000
 69       0.000000000000
 70       0.000000000000
 71       0.000000000000
 72       0.000000000000
 73       0.000000000000
 74       0.000000000000
 75       0.000000000000
 76       0.000000000000
 77       0.000000000000
 78       0.000000000000
 79       0.000000000000
 80       0.000000000000
 81       0.000000000000
 82       0.000000000000
 83       0.000000000000
 84       0.000000000000
 85       0.000000000000
 86       0.000000000000
 87       0.000000000000
 88       0.000000000000
 89       0.000000000000
 90       0.000000000000
 91       0.000000000000
 92       0.000000000000
 93       0.000000000000
 94       0.000000000000
 95       0.000000000000
 96       0.000000000000
 97       0.000000000000
 98       0.000000000000
 99       0.000000000000
100       0.000000000000
101       0.000000000000
102       0.000000000000
103       0.000000000000
104       0.000000000000
105       0.000000000000
106       0.000000000000
107       0.000000000000
108       0.000000000000
109       0.000000000000
110       0.000000000000
111       0.000000000000
112       0.000000000000
113       0.000000000000
114       0.000000000000
115       0.000000000000
116       0.000000000000
117       0.000000000000
118       0.000000000000
119       0.000000000000
120       0.000000000000
121       0.000000000000
122       0.000000000000
123       0.000000000000
124       0.000000000000
125       0.000000000000
126       0.000000000000
127       0.000000000000
128       0.000000000000
129       0.000000000000
130       0.000000000000
131       0.000000000000
132       0.000000000000
133       0.000000000000
134       0.000000000000
135       0.000000000000
136       0.000000000000
137       0.000000000000
138       0.000000000000
139       0.000000000000
140       0.000000000000
141       0.000000000000
142       0.000000000000
143       0.000000000000
144       0.000000000000
145       0.000000000000
146       0.000000000000
147       0.000000000000
148       0.000000000000
149       0.000000000000
150       0.000000000000
151       0.000000000000
152       0.000000000000
153       0.000000000000
154       0.000000000000
155       0.000000000000
156       0.000000000000
157       0.000000000000
158       0.000000000000
159       0.000000000000
160       0.000000000000
161       0.000000000000
162       0.000000000000
163       0.000000000000
164       0.000000000000
165       0.000000000000
166       1.000000000000
167       0.000000000000
168       0.000000000000
169       0.000000000000
170       0.000000000000
171       0.000000000000
172       0.000000000000
173       0.000000000000
174       0.000000000000
175       0.000000000000
176       0.000000000000
177       0.000000000000
178       0.000000000000
 Sym=     1a
 Ene=  1.94524011704350E+00
Spin= Alpha
 Occup= 0.018640
  1       0.000000000000
  2       0.000000000000
  3       0.000000000000
  4       0.000000000000
  5       0.000000000000
  6       0.000000000000
  7       0.000000000000
  8       0.000000000000
  9       0.000000000000
 10       0.000000000000
 11       0.000000000000
 12       0.000000000000
 13       0.000000000000
 14       0.000000000000
 15       0.000000000000
 16       0.000000000000
 17       0.000000000000
 18       0.000000000000
 19       0.000000000000
 20       0.000000000000
 21       0.000000000000
 22       0.000000000000
 23       0.000000000000
 24       0.000000000000
 25       0.000000000000
 26       0.000000000000
 27       0.000000000000
 28       0.000000000000
 29       0.000000000000
 30       0.000000000000
 31       0.000000000000
 32       0.000000000000
 33       0.000000000000
 34       0.000000000000
 35       0.000000000000
 36       0.000000000000
 37       0.000000000000
 38       0.000000000000
 39       0.000000000000
 40       0.000000000000
 41       0.000000000000
 42       0.000000000000
 43       0.000000000000
 44       0.000000000000
 45       0.000000000000
 46       0.000000000000
 47       0.000000000000
 48       0.000000000000
 49       0.000000000000
 50       0.000000000000
 51       0.000000000000
 52       0.000000000000
 53       0.000000000000
 54       0.000000000000
 55       0.000000000000
 56       0.000000000000
 57       0.000000000000
 58       0.000000000000
 59       0.000000000000
 60       0.000000000000
 61       0.000000000000
 62       0.000000000000
 63       0.000000000000
 64       0.000000000000
 65       0.000000000000
 66       0.000000000000
 67       0.000000000000
 68       0.000000000000
 69       0.000000000000
 70       0.000000000000
 71       0.000000000000
 72       0.000000000000
 73       0.000000000000
 74       0.000000000000
 75       0.000000000000
 76       0.000000000000
 77       0.000000000000
 78       0.000000000000
 79       0.000000000000
 80       0.000000000000
 81       0.000000000000
 82       0.000000000000
 83       0.000000000000
 84       0.000000000000
 85       0.000000000000
 86       0.000000000000
 87       0.000000000000
 88       0.000000000000
 89       0.000000000000
 90       0.000000000000
 91       0.000000000000
 92       0.000000000000
 93       0.000000000000
 94       0.000000000000
 95       0.000000000000
 96       0.000000000000
 97       0.000000000000
 98       0.000000000000
 99       0.000000000000
100       0.000000000000
101       0.000000000000
102       0.000000000000
103       0.000000000000
104       0.000000000000
105       0.000000000000
106       0.000000000000
107       0.000000000000
108       0.000000000000
109       0.000000000000
110       0.000000000000
111       0.000000000000
112       0.000000000000
113       0.000000000000
114       0.000000000000
115       0.000000000000
116       0.000000000000
117       0.000000000000
118       0.000000000000
119       0.000000000000
120       0.000000000000
121       0.000000000000
122       0.000000000000
123       0.000000000000
124       0.000000000000
125       0.000000000000
126       0.000000000000
127       0.000000000000
128       0.000000000000
129       0.000000000000
130       0.000000000000
131       0.000000000000
132       0.000000000000
133       0.000000000000
134       0.000000000000
135       0.000000000000
136       0.000000000000
137       0.000000000000
138       0.000000000000
139       0.000000000000
140       0.000000000000
141       0.000000000000
142       0.000000000000
143       0.000000000000
144       0.000000000000
145       0.000000000000
146       0.000000000000
147       0.000000000000
148       0.000000000000
149       0.000000000000
150       0.000000000000
151       0.000000000000
152       0.000000000000
153       0.000000000000
154       0.000000000000
155       0.000000000000
156       0.000000000000
157       0.000000000000
158       0.000000000000
159       0.000000000000
160       0.000000000000
161       0.000000000000
162       0.000000000000
163       0.000000000000
164       0.000000000000
165       0.000000000000
166       0.000000000000
167      -1.546296375383
168       1.613005569470
169      -0.581326340874
170       0.000000000000
171       0.000000000000
172       0.000000000000
173       0.000000000000
174       0.000000000000
175       0.000000000000
176       0.000000000000
177       0.000000000000
178       0.000000000000
 Sym=     1a
 Ene= -9.44764155310185E-02
Spin= Alpha
 Occup= 0.495492
  1       0.000000000000
  2       0.000000000000
  3       0.000000000000
  4       0.000000000000
  5       0.000000000000
  6       0.000000000000
  7       0.000000000000
  8       0.000000000000
  9       0.000000000000
 10       0.000000000000
 11       0.000000000000
 12       0.000000000000
 13       0.000000000000
 14       0.000000000000
 15       0.000000000000
 16       0.000000000000
 17       0.000000000000
 18       0.000000000000
 19       0.000000000000
 20       0.000000000000
 21       0.000000000000
 22       0.000000000000
 23       0.000000000000
 24       0.000000000000
 25       0.000000000000
 26       0.000000000000
 27       0.000000000000
 28       0.000000000000
 29       0.000000000000
 30       0.000000000000
 31       0.000000000000
 32       0.000000000000
 33       0.000000000000
 34       0.000000000000
 35       0.000000000000
 36       0.000000000000
 37       0.000000000000
 38       0.000000000000
 39       0.000000000000
 40       0.000000000000
 41       0.000000000000
 42       0.000000000000
 43       0.000000000000
 44       0.000000000000
 45       0.000000000000
 46       0.000000000000
 47       0.000000000000
 48       0.000000000000
 49       0.000000000000
 50       0.000000000000
 51       0.000000000000
 52       0.000000000000
 53       0.000000000000
 54       0.000000000000
 55       0.000000000000
 56       0.000000000000
 57       0.000000000000
 58       0.000000000000
 59       0.000000000000
 60       0.000000000000
 61       0.000000000000
 62       0.000000000000
 63       0.000000000000
 64       0.000000000000
 65       0.000000000000
 66       0.000000000000
 67       0.000000000000
 68       0.000000000000
 69       0.000000000000
 70       0.000000000000
 71       0.000000000000
 72       0.000000000000
 73       0.000000000000
 74       0.000000000000
 75       0.000000000000
 76       0.000000000000
 77       0.000000000000
 78       0.000000000000
 79       0.000000000000
 80       0.000000000000
 81       0.000000000000
 82       0.000000000000
 83       0.000000000000
 84       0.000000000000
 85       0.000000000000
 86       0.000000000000
 87       0.000000000000
 88       0.000000000000
 89       0.000000000000
 90       0.000000000000
 91       0.000000000000
 92       0.000000000000
 93       0.000000000000
 94       0.000000000000
 95       0.000000000000
 96       0.000000000000
 97       0.000000000000
 98       0.000000000000
 99       0.000000000000
100       0.000000000000
101       0.000000000000
102       0.000000000000
103       0.000000000000
104       0.000000000000
105       0.000000000000
106       0.000000000000
107       0.000000000000
108       0.000000000000
109       0.000000000000
110       0.000000000000
111       0.000000000000
112       0.000000000000
113       0.000000000000
114       0.000000000000
115       0.000000000000
116       0.000000000000
117       0.000000000000
118       0.000000000000
119       0.000000000000
120       0.000000000000
121       0.000000000000
122       0.000000000000
123       0.000000000000
124       0.000000000000
125       0.000000000000
126       0.000000000000
127       0.000000000000
128       0.000000000000
129       0.000000000000
130       0.000000000000
131       0.000000000000
132       0.000000000000
133       0.000000000000
134       0.000000000000
135       0.000000000000
136       0.000000000000
137       0.000000000000
138       0.000000000000
139       0.000000000000
140       0.000000000000
141       0.000000000000
142       0.000000000000
143       0.000000000000
144       0.000000000000
145       0.000000000000
146       0.000000000000
147       0.000000000000
148       0.000000000000
149       0.000000000000
150       0.000000000000
151       0.000000000000
152       0.000000000000
153       0.000000000000
154       0.000000000000
155       0.000000000000
156       0.000000000000
157       0.000000000000
158       0.000000000000
159       0.000000000000
160       0.000000000000
161       0.000000000000
162       0.000000000000
163       0.000000000000
164       0.000000000000
165       0.000000000000
166       0.000000000000
167       0.158971321705
168      -1.488980400314
169       1.693786074401
170       0.000000000000
171       0.000000000000
172       0.000000000000
173       0.000000000000
174       0.000000000000
175       0.000000000000
176       0.000000000000
177       0.000000000000
178       0.000000000000
 Sym=     1a
 Ene= -6.99396784130527E-01
Spin= Alpha
 Occup= 1.615153
  1       0.000000000000
  2       0.000000000000
  3       0.000000000000
  4       0.000000000000
  5       0.000000000000
  6       0.000000000000
  7       0.000000000000
  8       0.000000000000
  9       0.000000000000
 10       0.000000000000
 11       0.000000000000
 12       0.000000000000
 13       0.000000000000
 14       0.000000000000
 15       0.000000000000
 16       0.000000000000
 17       0.000000000000
 18       0.000000000000
 19       0.000000000000
 20       0.000000000000
 21       0.000000000000
 22       0.000000000000
 23       0.000000000000
 24       0.000000000000
 25       0.000000000000
 26       0.000000000000
 27       0.000000000000
 28       0.000000000000
 29       0.000000000000
 30       0.000000000000
 31       0.000000000000
 32       0.000000000000
 33       0.000000000000
 34       0.000000000000
 35       0.000000000000
 36       0.000000000000
 37       0.000000000000
 38       0.000000000000
 39       0.000000000000
 40       0.000000000000
 41       0.000000000000
 42       0.000000000000
 43       0.000000000000
 44       0.000000000000
 45       0.000000000000
 46       0.000000000000
 47       0.000000000000
 48       0.000000000000
 49       0.000000000000
 50       0.000000000000
 51       0.000000000000
 52       0.000000000000
 53       0.000000000000
 54       0.000000000000
 55       0.000000000000
 56       0.000000000000
 57       0.000000000000
 58       0.000000000000
 59       0.000000000000
 60       0.000000000000
 61       0.000000000000
 62       0.000000000000
 63       0.000000000000
 64       0.000000000000
 65       0.000000000000
 66       0.000000000000
 67       0.000000000000
 68       0.000000000000
 69       0.000000000000
 70       0.000000000000
 71       0.000000000000
 72       0.000000000000
 73       0.000000000000
 74       0.000000000000
 75       0.000000000000
 76       0.000000000000
 77       0.000000000000
 78       0.000000000000
 79       0.000000000000
 80       0.000000000000
 81       0.000000000000
 82       0.000000000000
 83       0.000000000000
 84       0.000000000000
 85       0.000000000000
 86       0.000000000000
 87       0.000000000000
 88       0.000000000000
 89       0.000000000000
 90       0.000000000000
 91       0.000000000000
 92       0.000000000000
 93       0.000000000000
 94       0.000000000000
 95       0.000000000000
 96       0.000000000000
 97       0.000000000000
 98       0.000000000000
 99       0.000000000000
100       0.000000000000
101       0.000000000000
102       0.000000000000
103       0.000000000000
104       0.000000000000
105       0.000000000000
106       0.000000000000
107       0.000000000000
108       0.000000000000
109       0.000000000000
110       0.000000000000
111       0.000000000000
112       0.000000000000
113       0.000000000000
114       0.000000000000
115       0.000000000000
116       0.000000000000
117       0.000000000000
118       0.000000000000
119       0.000000000000
120       0.000000000000
121       0.000000000000
122       0.000000000000
123       0.000000000000
124       0.000000000000
125       0.000000000000
126       0.000000000000
127       0.000000000000
128       0.000000000000
129       0.000000000000
130       0.000000000000
131       0.000000000000
132       0.000000000000
133       0.000000000000
134       0.000000000000
135       0.000000000000
136       0.000000000000
137       0.000000000000
138       0.000000000000
139       0.000000000000
140       0.000000000000
141       0.000000000000
142       0.000000000000
143       0.000000000000
144       0.000000000000
145       0.000000000000
146       0.000000000000
147       0.000000000000
148       0.000000000000
149       0.000000000000
150       0.000000000000
151       0.000000000000
152       0.000000000000
153       0.000000000000
154       0.000000000000
155       0.000000000000
156       0.000000000000
157       0.000000000000
158       0.000000000000
159       0.000000000000
160       0.000000000000
161       0.000000000000
162       0.000000000000
163       0.000000000000
164       0.000000000000
165       0.000000000000
166       0.000000000000
167       0.103482651771
168       0.840563023364
169       0.105954040864
170       0.000000000000
171       0.000000000000
172       0.000000000000
173       0.000000000000
174       0.000000000000
175       0.000000000000
176       0.000000000000
177       0.000000000000
178       0.000000000000
 Sym=     1a
 Ene=  9.51296429338147E-01
Spin= Alpha
 Occup= 0.115084
  1       0.000000000000
  2       0.000000000000
  3       0.000000000000
  4       0.000000000000
  5       0.000000000000
  6       0.000000000000
  7       0.000000000000
  8       0.000000000000
  9       0.000000000000
 10       0.000000000000
 11       0.000000000000
 12       0.000000000000
 13       0.000000000000
 14       0.000000000000
 15       0.000000000000
 16       0.000000000000
 17       0.000000000000
 18       0.000000000000
 19       0.000000000000
 20       0.000000000000
 21       0.000000000000
 22       0.000000000000
 23       0.000000000000
 24       0.000000000000
 25       0.000000000000
 26       0.000000000000
 27       0.000000000000
 28       0.000000000000
 29       0.000000000000
 30       0.000000000000
 31       0.000000000000
 32       0.000000000000
 33       0.000000000000
 34       0.000000000000
 35       0.000000000000
 36       0.000000000000
 37       0.000000000000
 38       0.000000000000
 39       0.000000000000
 40       0.000000000000
 41       0.000000000000
 42       0.000000000000
 43       0.000000000000
 44       0.000000000000
 45       0.000000000000
 46       0.000000000000
 47       0.000000000000
 48       0.000000000000
 49       0.000000000000
 50       0.000000000000
 51       0.000000000000
 52       0.000000000000
 53       0.000000000000
 54       0.000000000000
 55       0.000000000000
 56       0.000000000000
 57       0.000000000000
 58       0.000000000000
 59       0.000000000000
 60       0.000000000000
 61       0.000000000000
 62       0.000000000000
 63       0.000000000000
 64       0.000000000000
 65       0.000000000000
 66       0.000000000000
 67       0.000000000000
 68       0.000000000000
 69       0.000000000000
 70       0.000000000000
 71       0.000000000000
 72       0.000000000000
 73       0.000000000000
 74       0.000000000000
 75       0.000000000000
 76       0.000000000000
 77       0.000000000000
 78       0.000000000000
 79       0.000000000000
 80       0.000000000000
 81       0.000000000000
 82       0.000000000000
 83       0.000000000000
 84       0.000000000000
 85       0.000000000000
 86       0.000000000000
 87       0.000000000000
 88       0.000000000000
 89       0.000000000000
 90       0.000000000000
 91       0.000000000000
 92       0.000000000000
 93       0.000000000000
 94       0.000000000000
 95       0.000000000000
 96       0.000000000000
 97       0.000000000000
 98       0.000000000000
 99       0.000000000000
100       0.000000000000
101       0.000000000000
102       0.000000000000
103       0.000000000000
104       0.000000000000
105       0.000000000000
106       0.000000000000
107       0.000000000000
108       0.000000000000
109       0.000000000000
110       0.000000000000
111       0.000000000000
112       0.000000000000
113       0.000000000000
114       0.000000000000
115       0.000000000000
116       0.000000000000
117       0.000000000000
118       0.000000000000
119       0.000000000000
120       0.000000000000
121       0.000000000000
122       0.000000000000
123       0.000000000000
124       0.000000000000
125       0.000000000000
126       0.000000000000
127       0.000000000000
128       0.000000000000
129       0.000000000000
130       0.000000000000
131       0.000000000000
132       0.000000000000
133       0.000000000000
134       0.000000000000
135       0.000000000000
136       0.000000000000
137       0.000000000000
138       0.000000000000
139       0.000000000000
140       0.000000000000
141       0.000000000000
142       0.000000000000
143       0.000000000000
144       0.000000000000
145       0.000000000000
146       0.000000000000
147       0.000000000000
148       0.000000000000
149       0.000000000000
150       0.000000000000
151       0.000000000000
152       0.000000000000
153       0.000000000000
154       0.000000000000
155       0.000000000000
156       0.000000000000
157       0.000000000000
158       0.000000000000
159       0.000000000000
160       0.000000000000
161       0.000000000000
162       0.000000000000
163       0.000000000000
164       0.000000000000
165       0.000000000000
166       0.000000000000
167       0.000000000000
168       0.000000000000
169       0.000000000000
170       1.000000000000
171       0.000000000000
172       0.000000000000
173       0.000000000000
174       0.000000000000
175       0.000000000000
176       0.000000000000
177       0.000000000000
178       0.000000000000
 Sym=     1a
 Ene=  1.21035545694966E+00
Spin= Alpha
 Occup= 0.115084
  1       0.000000000000
  2       0.000000000000
  3       0.000000000000
  4       0.000000000000
  5       0.000000000000
  6       0.000000000000
  7       0.000000000000
  8       0.000000000000
  9       0.000000000000
 10       0.000000000000
 11       0.000000000000
 12       0.000000000000
 13       0.000000000000
 14       0.000000000000
 15       0.000000000000
 16       0.000000000000
 17       0.000000000000
 18       0.000000000000
 19       0.000000000000
 20       0.000000000000
 21       0.000000000000
 22       0.000000000000
 23       0.000000000000
 24       0.000000000000
 25       0.000000000000
 26       0.000000000000
 27       0.000000000000
 28       0.000000000000
 29       0.000000000000
 30       0.000000000000
 31       0.000000000000
 32       0.000000000000
 33       0.000000000000
 34       0.000000000000
 35       0.000000000000
 36       0.000000000000
 37       0.000000000000
 38       0.000000000000
 39       0.000000000000
 40       0.000000000000
 41       0.000000000000
 42       0.000000000000
 43       0.000000000000
 44       0.000000000000
 45       0.000000000000
 46       0.000000000000
 47       0.000000000000
 48       0.000000000000
 49       0.000000000000
 50       0.000000000000
 51       0.000000000000
 52       0.000000000000
 53       0.000000000000
 54       0.000000000000
 55       0.000000000000
 56       0.000000000000
 57       0.000000000000
 58       0.000000000000
 59       0.000000000000
 60       0.000000000000
 61       0.000000000000
 62       0.000000000000
 63       0.000000000000
 64       0.000000000000
 65       0.000000000000
 66       0.000000000000
 67       0.000000000000
 68       0.000000000000
 69       0.000000000000
 70       0.000000000000
 71       0.000000000000
 72       0.000000000000
 73       0.000000000000
 74       0.000000000000
 75       0.000000000000
 76       0.000000000000
 77       0.000000000000
 78       0.000000000000
 79       0.000000000000
 80       0.000000000000
 81       0.000000000000
 82       0.000000000000
 83       0.000000000000
 84       0.000000000000
 85       0.000000000000
 86       0.000000000000
 87       0.000000000000
 88       0.000000000000
 89       0.000000000000
 90       0.000000000000
 91       0.000000000000
 92       0.000000000000
 93       0.000000000000
 94       0.000000000000
 95       0.000000000000
 96       0.000000000000
 97       0.000000000000
 98       0.000000000000
 99       0.000000000000
100       0.000000000000
101       0.000000000000
102       0.000000000000
103       0.000000000000
104       0.000000000000
105       0.000000000000
106       0.000000000000
107       0.000000000000
108       0.000000000000
109       0.000000000000
110       0.000000000000
111       0.000000000000
112       0.000000000000
113       0.000000000000
114       0.000000000000
115       0.000000000000
116       0.000000000000
117       0.000000000000
118       0.000000000000
119       0.000000000000
120       0.000000000000
121       0.000000000000
122       0.000000000000
123       0.000000000000
124       0.000000000000
125       0.000000000000
126       0.000000000000
127       0.000000000000
128       0.000000000000
129       0.000000000000
130       0.000000000000
131       0.000000000000
132       0.000000000000
133       0.000000000000
134       0.000000000000
135       0.000000000000
136       0.000000000000
137       0.000000000000
138       0.000000000000
139       0.000000000000
140       0.000000000000
141       0.000000000000
142       0.000000000000
143       0.000000000000
144       0.000000000000
145       0.000000000000
146       0.000000000000
147       0.000000000000
148       0.000000000000
149       0.000000000000
150       0.000000000000
151       0.000000000000
152       0.000000000000
153       0.000000000000
154       0.000000000000
155       0.000000000000
156       0.000000000000
157       0.000000000000
158       0.000000000000
159       0.000000000000
160       0.000000000000
161       0.000000000000
162       0.000000000000
163       0.000000000000
164       0.000000000000
165       0.000000000000
166       0.000000000000
167       0.000000000000
168       0.000000000000
169       0.000000000000
170       0.000000000000
171       1.000000000000
172       0.000000000000
173       0.000000000000
174       0.000000000000
175       0.000000000000
176       0.000000000000
177       0.000000000000
178       0.000000000000
 Sym=     1a
 Ene=  1.13990008971683E+00
Spin= Alpha
 Occup= 0.115084
  1       0.000000000000
  2       0.000000000000
  3       0.000000000000
  4       0.000000000000
  5       0.000000000000
  6       0.000000000000
  7       0.000000000000
  8       0.000000000000
  9       0.000000000000
 10       0.000000000000
 11       0.000000000000
 12       0.000000000000
 13       0.000000000000
 14       0.000000000000
 15       0.000000000000
 16       0.000000000000
 17       0.000000000000
 18       0.000000000000
 19       0.000000000000
 20       0.000000000000
 21       0.000000000000
 22       0.000000000000
 23       0.000000000000
 24       0.000000000000
 25       0.000000000000
 26       0.000000000000
 27       0.000000000000
 28       0.000000000000
 29       0.000000000000
 30       0.000000000000
 31       0.000000000000
 32       0.000000000000
 33       0.000000000000
 34       0.000000000000
 35       0.000000000000
 36       0.000000000000
 37       0.000000000000
 38       0.000000000000
 39       0.000000000000
 40       0.000000000000
 41       0.000000000000
 42       0.000000000000
 43       0.000000000000
 44       0.000000000000
 45       0.000000000000
 46       0.000000000000
 47       0.000000000000
 48       0.000000000000
 49       0.000000000000
 50       0.000000000000
 51       0.000000000000
 52       0.000000000000
 53       0.000000000000
 54       0.000000000000
 55       0.000000000000
 56       0.000000000000
 57       0.000000000000
 58       0.000000000000
 59       0.000000000000
 60       0.000000000000
 61       0.000000000000
 62       0.000000000000
 63       0.000000000000
 64       0.000000000000
 65       0.000000000000
 66       0.000000000000
 67       0.000000000000
 68       0.000000000000
 69       0.000000000000
 70       0.000000000000
 71       0.000000000000
 72       0.000000000000
 73       0.000000000000
 74       0.000000000000
 75       0.000000000000
 76       0.000000000000
 77       0.000000000000
 78       0.000000000000
 79       0.000000000000
 80       0.000000000000
 81       0.000000000000
 82       0.000000000000
 83       0.000000000000
 84       0.000000000000
 85       0.000000000000
 86       0.000000000000
 87       0.000000000000
 88       0.000000000000
 89       0.000000000000
 90       0.000000000000
 91       0.000000000000
 92       0.000000000000
 93       0.000000000000
 94       0.000000000000
 95       0.000000000000
 96       0.000000000000
 97       0.000000000000
 98       0.000000000000
 99       0.000000000000
100       0.000000000000
101       0.000000000000
102       0.000000000000
103       0.000000000000
104       0.000000000000
105       0.000000000000
106       0.000000000000
107       0.000000000000
108       0.000000000000
109       0.000000000000
110       0.000000000000
111       0.000000000000
112       0.000000000000
113       0.000000000000
114       0.000000000000
115       0.000000000000
116       0.000000000000
117       0.000000000000
118       0.000000000000
119       0.000000000000
120       0.000000000000
121       0.000000000000
122       0.000000000000
123       0.000000000000
124       0.000000000000
125       0.000000000000
126       0.000000000000
127       0.000000000000
128       0.000000000000
129       0.000000000000
130       0.000000000000
131       0.000000000000
132       0.000000000000
133       0.000000000000
134       0.000000000000
135       0.000000000000
136       0.000000000000
137       0.000000000000
138       0.000000000000
139       0.000000000000
140       0.000000000000
141       0.000000000000
142       0.000000000000
143       0.000000000000
144       0.000000000000
145       0.000000000000
146       0.000000000000
147       0.000000000000
148       0.000000000000
149       0.000000000000
150       0.000000000000
151       0.000000000000
152       0.000000000000
153       0.000000000000
154       0.000000000000
155       0.000000000000
156       0.000000000000
157       0.000000000000
158       0.000000000000
159       0.000000000000
160       0.000000000000
161       0.000000000000
162       0.000000000000
163       0.000000000000
164       0.000000000000
165       0.000000000000
166       0.000000000000
167       0.000000000000
168       0.000000000000
169       0.000000000000
170       0.000000000000
171       0.000000000000
172       1.000000000000
173       0.000000000000
174       0.000000000000
175       0.000000000000
176       0.000000000000
177       0.000000000000
178       0.000000000000
 Sym=     1a
 Ene=  1.94538941574238E+00
Spin= Alpha
 Occup= 0.018644
  1       0.000000000000
  2       0.000000000000
  3       0.000000000000
  4       0.000000000000
  5       0.000000000000
  6       0.000000000000
  7       0.000000000000
  8       0.000000000000
  9       0.000000000000
 10       0.000000000000
 11       0.000000000000
 12       0.000000000000
 13       0.000000000000
 14       0.000000000000
 15       0.000000000000
 16       0.000000000000
 17       0.000000000000
 18       0.000000000000
 19       0.000000000000
 20       0.000000000000
 21       0.000000000000
 22       0.000000000000
 23       0.000000000000
 24       0.000000000000
 25       0.000000000000
 26       0.000000000000
 27       0.000000000000
 28       0.000000000000
 29       0.000000000000
 30       0.000000000000
 31       0.000000000000
 32       0.000000000000
 33       0.000000000000
 34       0.000000000000
 35       0.000000000000
 36       0.000000000000
 37       0.000000000000
 38       0.000000000000
 39       0.000000000000
 40       0.000000000000
 41       0.000000000000
 42       0.000000000000
 43       0.000000000000
 44       0.000000000000
 45       0.000000000000
 46       0.000000000000
 47       0.000000000000
 48       0.000000000000
 49       0.000000000000
 50       0.000000000000
 51       0.000000000000
 52       0.000000000000
 53       0.000000000000
 54       0.000000000000
 55       0.000000000000
 56       0.000000000000
 57       0.000000000000
 58       0.000000000000
 59       0.000000000000
 60       0.000000000000
 61       0.000000000000
 62       0.000000000000
 63       0.000000000000
 64       0.000000000000
 65       0.000000000000
 66       0.000000000000
 67       0.000000000000
 68       0.000000000000
 69       0.000000000000
 70       0.000000000000
 71       0.000000000000
 72       0.000000000000
 73       0.000000000000
 74       0.000000000000
 75       0.000000000000
 76       0.000000000000
 77       0.000000000000
 78       0.000000000000
 79       0.000000000000
 80       0.000000000000
 81       0.000000000000
 82       0.000000000000
 83       0.000000000000
 84       0.000000000000
 85       0.000000000000
 86       0.000000000000
 87       0.000000000000
 88       0.000000000000
 89       0.000000000000
 90       0.000000000000
 91       0.000000000000
 92       0.000000000000
 93       0.000000000000
 94       0.000000000000
 95       0.000000000000
 96       0.000000000000
 97       0.000000000000
 98       0.000000000000
 99       0.000000000000
100       0.000000000000
101       0.000000000000
102       0.000000000000
103       0.000000000000
104       0.000000000000
105       0.000000000000
106       0.000000000000
107       0.000000000000
108       0.000000000000
109       0.000000000000
110       0.000000000000
111       0.000000000000
112       0.000000000000
113       0.000000000000
114       0.000000000000
115       0.000000000000
116       0.000000000000
117       0.000000000000
118       0.000000000000
119       0.000000000000
120       0.000000000000
121       0.000000000000
122       0.000000000000
123       0.000000000000
124       0.000000000000
125       0.000000000000
126       0.000000000000
127       0.000000000000
128       0.000000000000
129       0.000000000000
130       0.000000000000
131       0.000000000000
132       0.000000000000
133       0.000000000000
134       0.000000000000
135       0.000000000000
136       0.000000000000
137       0.000000000000
138       0.000000000000
139       0.000000000000
140       0.000000000000
141       0.000000000000
142       0.000000000000
143       0.000000000000
144       0.000000000000
145       0.000000000000
146       0.000000000000
147       0.000000000000
148       0.000000000000
149       0.000000000000
150       0.000000000000
151       0.000000000000
152       0.000000000000
153       0.000000000000
154       0.000000000000
155       0.000000000000
156       0.000000000000
157       0.000000000000
158       0.000000000000
159       0.000000000000
160       0.000000000000
161       0.000000000000
162       0.000000000000
163       0.000000000000
164       0.000000000000
165       0.000000000000
166       0.000000000000
167       0.000000000000
168       0.000000000000
169       0.000000000000
170       0.000000000000
171       0.000000000000
172       0.000000000000
173      -1.546303469332
174       1.613078774713
175      -0.581405657366
176       0.000000000000
177       0.000000000000
178       0.000000000000
 Sym=     1a
 Ene= -9.44837754970278E-02
Spin= Alpha
 Occup= 0.495450
  1       0.000000000000
  2       0.000000000000
  3       0.000000000000
  4       0.000000000000
  5       0.000000000000
  6       0.000000000000
  7       0.000000000000
  8       0.000000000000
  9       0.000000000000
 10       0.000000000000
 11       0.000000000000
 12       0.000000000000
 13       0.000000000000
 14       0.000000000000
 15       0.000000000000
 16       0.000000000000
 17       0.000000000000
 18       0.000000000000
 19       0.000000000000
 20       0.000000000000
 21       0.000000000000
 22       0.000000000000
 23       0.000000000000
 24       0.000000000000
 25       0.000000000000
 26       0.000000000000
 27       0.000000000000
 28       0.000000000000
 29       0.000000000000
 30       0.000000000000
 31       0.000000000000
 32       0.000000000000
 33       0.000000000000
 34       0.000000000000
 35       0.000000000000
 36       0.000000000000
 37       0.000000000000
 38       0.000000000000
 39       0.000000000000
 40       0.000000000000
 41       0.000000000000
 42       0.000000000000
 43       0.000000000000
 44       0.000000000000
 45       0.000000000000
 46       0.000000000000
 47       0.000000000000
 48       0.000000000000
 49       0.000000000000
 50       0.000000000000
 51       0.000000000000
 52       0.000000000000
 53       0.000000000000
 54       0.000000000000
 55       0.000000000000
 56       0.000000000000
 57       0.000000000000
 58       0.000000000000
 59       0.000000000000
 60       0.000000000000
 61       0.000000000000
 62       0.000000000000
 63       0.000000000000
 64       0.000000000000
 65       0.000000000000
 66       0.000000000000
 67       0.000000000000
 68       0.000000000000
 69       0.000000000000
 70       0.000000000000
 71       0.000000000000
 72       0.000000000000
 73       0.000000000000
 74       0.000000000000
 75       0.000000000000
 76       0.000000000000
 77       0.000000000000
 78       0.000000000000
 79       0.000000000000
 80       0.000000000000
 81       0.000000000000
 82       0.000000000000
 83       0.000000000000
 84       0.000000000000
 85       0.000000000000
 86       0.000000000000
 87       0.000000000000
 88       0.000000000000
 89       0.000000000000
 90       0.000000000000
 91       0.000000000000
 92       0.000000000000
 93       0.000000000000
 94       0.000000000000
 95       0.000000000000
 96       0.000000000000
 97       0.000000000000
 98       0.000000000000
 99       0.000000000000
100       0.000000000000
101       0.000000000000
102       0.000000000000
103       0.000000000000
104       0.000000000000
105       0.000000000000
106       0.000000000000
107       0.000000000000
108       0.000000000000
109       0.000000000000
110       0.000000000000
111       0.000000000000
112       0.000000000000
113       0.000000000000
114       0.000000000000
115       0.000000000000
116       0.000000000000
117       0.000000000000
118       0.000000000000
119       0.000000000000
120       0.000000000000
121       0.000000000000
122       0.000000000000
123       0.000000000000
124       0.000000000000
125       0.000000000000
126       0.000000000000
127       0.000000000000
128       0.000000000000
129       0.000000000000
130       0.000000000000
131       0.000000000000
132       0.000000000000
133       0.000000000000
134       0.000000000000
135       0.000000000000
136       0.000000000000
137       0.000000000000
138       0.000000000000
139       0.000000000000
140       0.000000000000
141       0.000000000000
142       0.000000000000
143       0.000000000000
144       0.000000000000
145       0.000000000000
146       0.000000000000
147       0.000000000000
148       0.000000000000
149       0.000000000000
150       0.000000000000
151       0.000000000000
152       0.000000000000
153       0.000000000000
154       0.000000000000
155       0.000000000000
156       0.000000000000
157       0.000000000000
158       0.000000000000
159       0.000000000000
160       0.000000000000
161       0.000000000000
162       0.000000000000
163       0.000000000000
164       0.000000000000
165       0.000000000000
166       0.000000000000
167       0.000000000000
168       0.000000000000
169       0.000000000000
170       0.000000000000
171       0.000000000000
172       0.000000000000
173       0.158910462429
174      -1.488807718390
175       1.693770900268
176       0.000000000000
177       0.000000000000
178       0.000000000000
 Sym=     1a
 Ene= -6.99327252032819E-01
Spin= Alpha
 Occup= 1.615382
  1       0.000000000000
  2       0.000000000000
  3       0.000000000000
  4       0.000000000000
  5       0.000000000000
  6       0.000000000000
  7       0.000000000000
  8       0.000000000000
  9       0.000000000000
 10       0.000000000000
 11       0.000000000000
 12       0.000000000000
 13       0.000000000000
 14       0.000000000000
 15       0.000000000000
 16       0.000000000000
 17       0.000000000000
 18       0.000000000000
 19       0.000000000000
 20       0.000000000000
 21       0.000000000000
 22       0.000000000000
 23       0.000000000000
 24       0.000000000000
 25       0.000000000000
 26       0.000000000000
 27       0.000000000000
 28       0.000000000000
 29       0.000000000000
 30       0.000000000000
 31       0.000000000000
 32       0.000000000000
 33       0.000000000000
 34       0.000000000000
 35       0.000000000000
 36       0.000000000000
 37       0.000000000000
 38       0.000000000000
 39       0.000000000000
 40       0.000000000000
 41       0.000000000000
 42       0.000000000000
 43       0.000000000000
 44       0.000000000000
 45       0.000000000000
 46       0.000000000000
 47       0.000000000000
 48       0.000000000000
 49       0.000000000000
 50       0.000000000000
 51       0.000000000000
 52       0.000000000000
 53       0.000000000000
 54       0.000000000000
 55       0.000000000000
 56       0.000000000000
 57       0.000000000000
 58       0.000000000000
 59       0.000000000000
 60       0.000000000000
 61       0.000000000000
 62       0.000000000000
 63       0.000000000000
 64       0.000000000000
 65       0.000000000000
 66       0.000000000000
 67       0.000000000000
 68       0.000000000000
 69       0.000000000000
 70       0.000000000000
 71       0.000000000000
 72       0.000000000000
 73       0.000000000000
 74       0.000000000000
 75       0.000000000000
 76       0.000000000000
 77       0.000000000000
 78       0.000000000000
 79       0.000000000000
 80       0.000000000000
 81       0.000000000000
 82       0.000000000000
 83       0.000000000000
 84       0.000000000000
 85       0.000000000000
 86       0.000000000000
 87       0.000000000000
 88       0.000000000000
 89       0.000000000000
 90       0.000000000000
 91       0.000000000000
 92       0.000000000000
 93       0.000000000000
 94       0.000000000000
 95       0.000000000000
 96       0.000000000000
 97       0.000000000000
 98       0.000000000000
 99       0.000000000000
100       0.000000000000
101       0.000000000000
102       0.000000000000
103       0.000000000000
104       0.000000000000
105       0.000000000000
106       0.000000000000
107       0.000000000000
108       0.000000000000
109       0.000000000000
110       0.000000000000
111       0.000000000000
112       0.000000000000
113       0.000000000000
114       0.000000000000
115       0.000000000000
116       0.000000000000
117       0.000000000000
118       0.000000000000
119       0.000000000000
120       0.000000000000
121       0.000000000000
122       0.000000000000
123       0.000000000000
124       0.000000000000
125       0.000000000000
126       0.000000000000
127       0.000000000000
128       0.000000000000
129       0.000000000000
130       0.000000000000
131       0.000000000000
132       0.000000000000
133       0.000000000000
134       0.000000000000
135       0.000000000000
136       0.000000000000
137       0.000000000000
138       0.000000000000
139       0.000000000000
140       0.000000000000
141       0.000000000000
142       0.000000000000
143       0.000000000000
144       0.000000000000
145       0.000000000000
146       0.000000000000
147       0.000000000000
148       0.000000000000
149       0.000000000000
150       0.000000000000
151       0.000000000000
152       0.000000000000
153       0.000000000000
154       0.000000000000
155       0.000000000000
156       0.000000000000
157       0.000000000000
158       0.000000000000
159       0.000000000000
160       0.000000000000
161       0.000000000000
162       0.000000000000
163       0.000000000000
164       0.000000000000
165       0.000000000000
166       0.000000000000
167       0.000000000000
168       0.000000000000
169       0.000000000000
170       0.000000000000
171       0.000000000000
172       0.000000000000
173       0.103470123831
174       0.840728398557
175       0.105761231997
176       0.000000000000
177       0.000000000000
178       0.000000000000
 Sym=     1a
 Ene=  1.01753664708682E+00
Spin= Alpha
 Occup= 0.115059
  1       0.000000000000
  2       0.000000000000
  3       0.000000000000
  4       0.000000000000
  5       0.000000000000
  6       0.000000000000
  7       0.000000000000
  8       0.000000000000
  9       0.000000000000
 10       0.000000000000
 11       0.000000000000
 12       0.000000000000
 13       0.000000000000
 14       0.000000000000
 15       0.000000000000
 16       0.000000000000
 17       0.000000000000
 18       0.000000000000
 19       0.000000000000
 20       0.000000000000
 21       0.000000000000
 22       0.000000000000
 23       0.000000000000
 24       0.000000000000
 25       0.000000000000
 26       0.000000000000
 27       0.000000000000
 28       0.000000000000
 29       0.000000000000
 30       0.000000000000
 31       0.000000000000
 32       0.000000000000
 33       0.000000000000
 34       0.000000000000
 35       0.000000000000
 36       0.000000000000
 37       0.000000000000
 38       0.000000000000
 39       0.000000000000
 40       0.000000000000
 41       0.000000000000
 42       0.000000000000
 43       0.000000000000
 44       0.000000000000
 45       0.000000000000
 46       0.000000000000
 47       0.000000000000
 48       0.000000000000
 49       0.000000000000
 50       0.000000000000
 51       0.000000000000
 52       0.000000000000
 53       0.000000000000
 54       0.000000000000
 55       0.000000000000
 56       0.000000000000
 57       0.000000000000
 58       0.000000000000
 59       0.000000000000
 60       0.000000000000
 61       0.000000000000
 62       0.000000000000
 63       0.000000000000
 64       0.000000000000
 65       0.000000000000
 66       0.000000000000
 67       0.000000000000
 68       0.000000000000
 69       0.000000000000
 70       0.000000000000
 71       0.000000000000
 72       0.000000000000
 73       0.000000000000
 74       0.000000000000
 75       0.000000000000
 76       0.000000000000
 77       0.000000000000
 78       0.000000000000
 79       0.000000000000
 80       0.000000000000
 81       0.000000000000
 82       0.000000000000
 83       0.000000000000
 84       0.000000000000
 85       0.000000000000
 86       0.000000000000
 87       0.000000000000
 88       0.000000000000
 89       0.000000000000
 90       0.000000000000
 91       0.000000000000
 92       0.000000000000
 93       0.000000000000
 94       0.000000000000
 95       0.000000000000
 96       0.000000000000
 97       0.000000000000
 98       0.000000000000
 99       0.000000000000
100       0.000000000000
101       0.000000000000
102       0.000000000000
103       0.000000000000
104       0.000000000000
105       0.000000000000
106       0.000000000000
107       0.000000000000
108       0.000000000000
109       0.000000000000
110       0.000000000000
111       0.000000000000
112       0.000000000000
113       0.000000000000
114       0.000000000000
115       0.000000000000
116       0.000000000000
117       0.000000000000
118       0.000000000000
119       0.000000000000
120       0.000000000000
121       0.000000000000
122       0.000000000000
123       0.000000000000
124       0.000000000000
125       0.000000000000
126       0.000000000000
127       0.000000000000
128       0.000000000000
129       0.000000000000
130       0.000000000000
131       0.000000000000
132       0.000000000000
133       0.000000000000
134       0.000000000000
135       0.000000000000
136       0.000000000000
137       0.000000000000
138       0.000000000000
139       0.000000000000
140       0.000000000000
141       0.000000000000
142       0.000000000000
143       0.000000000000
144       0.000000000000
145       0.000000000000
146       0.000000000000
147       0.000000000000
148       0.000000000000
149       0.000000000000
150       0.000000000000
151       0.000000000000
152       0.000000000000
153       0.000000000000
154       0.000000000000
155       0.000000000000
156       0.000000000000
157       0.000000000000
158       0.000000000000
159       0.000000000000
160       0.000000000000
161       0.000000000000
162       0.000000000000
163       0.000000000000
164       0.000000000000
165       0.000000000000
166       0.000000000000
167       0.000000000000
168       0.000000000000
169       0.000000000000
170       0.000000000000
171       0.000000000000
172       0.000000000000
173       0.000000000000
174       0.000000000000
175       0.000000000000
176       1.000000000000
177       0.000000000000
178       0.000000000000
 Sym=     1a
 Ene=  1.18518089675016E+00
Spin= Alpha
 Occup= 0.115059
  1       0.000000000000
  2       0.000000000000
  3       0.000000000000
  4       0.000000000000
  5       0.000000000000
  6       0.000000000000
  7       0.000000000000
  8       0.000000000000
  9       0.000000000000
 10       0.000000000000
 11       0.000000000000
 12       0.000000000000
 13       0.000000000000
 14       0.000000000000
 15       0.000000000000
 16       0.000000000000
 17       0.000000000000
 18       0.000000000000
 19       0.000000000000
 20       0.000000000000
 21       0.000000000000
 22       0.000000000000
 23       0.000000000000
 24       0.000000000000
 25       0.000000000000
 26       0.000000000000
 27       0.000000000000
 28       0.000000000000
 29       0.000000000000
 30       0.000000000000
 31       0.000000000000
 32       0.000000000000
 33       0.000000000000
 34       0.000000000000
 35       0.000000000000
 36       0.000000000000
 37       0.000000000000
 38       0.000000000000
 39       0.000000000000
 40       0.000000000000
 41       0.000000000000
 42       0.000000000000
 43       0.000000000000
 44       0.000000000000
 45       0.000000000000
 46       0.000000000000
 47       0.000000000000
 48       0.000000000000
 49       0.000000000000
 50       0.000000000000
 51       0.000000000000
 52       0.000000000000
 53       0.000000000000
 54       0.000000000000
 55       0.000000000000
 56       0.000000000000
 57       0.000000000000
 58       0.000000000000
 59       0.000000000000
 60       0.000000000000
 61       0.000000000000
 62       0.000000000000
 63       0.000000000000
 64       0.000000000000
 65       0.000000000000
 66       0.000000000000
 67       0.000000000000
 68       0.000000000000
 69       0.000000000000
 70       0.000000000000
 71       0.000000000000
 72       0.000000000000
 73       0.000000000000
 74       0.000000000000
 75       0.000000000000
 76       0.000000000000
 77       0.000000000000
 78       0.000000000000
 79       0.000000000000
 80       0.000000000000
 81       0.000000000000
 82       0.000000000000
 83       0.000000000000
 84       0.000000000000
 85       0.000000000000
 86       0.000000000000
 87       0.000000000000
 88       0.000000000000
 89       0.000000000000
 90       0.000000000000
 91       0.000000000000
 92       0.000000000000
 93       0.000000000000
 94       0.000000000000
 95       0.000000000000
 96       0.000000000000
 97       0.000000000000
 98       0.000000000000
 99       0.000000000000
100       0.000000000000
101       0.000000000000
102       0.000000000000
103       0.000000000000
104       0.000000000000
105       0.000000000000
106       0.000000000000
107       0.000000000000
108       0.000000000000
109       0.000000000000
110       0.000000000000
111       0.000000000000
112       0.000000000000
113       0.000000000000
114       0.000000000000
115       0.000000000000
116       0.000000000000
117       0.000000000000
118       0.000000000000
119       0.000000000000
120       0.000000000000
121       0.000000000000
122       0.000000000000
123       0.000000000000
124       0.000000000000
125       0.000000000000
126       0.000000000000
127       0.000000000000
128       0.000000000000
129       0.000000000000
130       0.000000000000
131       0.000000000000
132       0.000000000000
133       0.000000000000
134       0.000000000000
135       0.000000000000
136       0.000000000000
137       0.000000000000
138       0.000000000000
139       0.000000000000
140       0.000000000000
141       0.000000000000
142       0.000000000000
143       0.000000000000
144       0.000000000000
145       0.000000000000
146       0.000000000000
147       0.000000000000
148       0.000000000000
149       0.000000000000
150       0.000000000000
151       0.000000000000
152       0.000000000000
153       0.000000000000
154       0.000000000000
155       0.000000000000
156       0.000000000000
157       0.000000000000
158       0.000000000000
159       0.000000000000
160       0.000000000000
161       0.000000000000
162       0.000000000000
163       0.000000000000
164       0.000000000000
165       0.000000000000
166       0.000000000000
167       0.000000000000
168       0.000000000000
169       0.000000000000
170       0.000000000000
171       0.000000000000
172       0.000000000000
173       0.000000000000
174       0.000000000000
175       0.000000000000
176       0.000000000000
177       1.000000000000
178       0.000000000000
 Sym=     1a
 Ene=  1.09902762645836E+00
Spin= Alpha
 Occup= 0.115059
  1       0.000000000000
  2       0.000000000000
  3       0.000000000000
  4       0.000000000000
  5       0.000000000000
  6       0.000000000000
  7       0.000000000000
  8       0.000000000000
  9       0.000000000000
 10       0.000000000000
 11       0.000000000000
 12       0.000000000000
 13       0.000000000000
 14       0.000000000000
 15       0.000000000000
 16       0.000000000000
 17       0.000000000000
 18       0.000000000000
 19       0.000000000000
 20       0.000000000000
 21       0.000000000000
 22       0.000000000000
 23       0.000000000000
 24       0.000000000000
 25       0.000000000000
 26       0.000000000000
 27       0.000000000000
 28       0.000000000000
 29       0.000000000000
 30       0.000000000000
 31       0.000000000000
 32       0.000000000000
 33       0.000000000000
 34       0.000000000000
 35       0.000000000000
 36       0.000000000000
 37       0.000000000000
 38       0.000000000000
 39       0.000000000000
 40       0.000000000000
 41       0.000000000000
 42       0.000000000000
 43       0.000000000000
 44       0.000000000000
 45       0.000000000000
 46       0.000000000000
 47       0.000000000000
 48       0.000000000000
 49       0.000000000000
 50       0.000000000000
 51       0.000000000000
 52       0.000000000000
 53       0.000000000000
 54       0.000000000000
 55       0.000000000000
 56       0.000000000000
 57       0.000000000000
 58       0.000000000000
 59       0.000000000000
 60       0.000000000000
 61       0.000000000000
 62       0.000000000000
 63       0.000000000000
 64       0.000000000000
 65       0.000000000000
 66       0.000000000000
 67       0.000000000000
 68       0.000000000000
 69       0.000000000000
 70       0.000000000000
 71       0.000000000000
 72       0.000000000000
 73       0.000000000000
 74       0.000000000000
 75       0.000000000000
 76       0.000000000000
 77       0.000000000000
 78       0.000000000000
 79       0.000000000000
 80       0.000000000000
 81       0.000000000000
 82       0.000000000000
 83       0.000000000000
 84       0.000000000000
 85       0.000000000000
 86       0.000000000000
 87       0.000000000000
 88       0.000000000000
 89       0.000000000000
 90       0.000000000000
 91       0.000000000000
 92       0.000000000000
 93       0.000000000000
 94       0.000000000000
 95       0.000000000000
 96       0.000000000000
 97       0.000000000000
 98       0.000000000000
 99       0.000000000000
100       0.000000000000
101       0.000000000000
102       0.000000000000
103       0.000000000000
104       0.000000000000
105       0.000000000000
106       0.000000000000
107       0.000000000000
108       0.000000000000
109       0.000000000000
110       0.000000000000
111       0.000000000000
112       0.000000000000
113       0.000000000000
114       0.000000000000
115       0.000000000000
116       0.000000000000
117       0.000000000000
118       0.000000000000
119       0.000000000000
120       0.000000000000
121       0.000000000000
122       0.000000000000
123       0.000000000000
124       0.000000000000
125       0.000000000000
126       0.000000000000
127       0.000000000000
128       0.000000000000
129       0.000000000000
130       0.000000000000
131       0.000000000000
132       0.000000000000
133       0.000000000000
134       0.000000000000
135       0.000000000000
136       0.000000000000
137       0.000000000000
138       0.000000000000
139       0.000000000000
140       0.000000000000
141       0.000000000000
142       0.000000000000
143       0.000000000000
144       0.000000000000
145       0.000000000000
146       0.000000000000
147       0.000000000000
148       0.000000000000
149       0.000000000000
150       0.000000000000
151       0.000000000000
152       0.000000000000
153       0.000000000000
154       0.000000000000
155       0.000000000000
156       0.000000000000
157       0.000000000000
158       0.000000000000
159       0.000000000000
160       0.000000000000
161       0.000000000000
162       0.000000000000
163       0.000000000000
164       0.000000000000
165       0.000000000000
166       0.000000000000
167       0.000000000000
168       0.000000000000
169       0.000000000000
170       0.000000000000
171       0.000000000000
172       0.000000000000
173       0.000000000000
174       0.000000000000
175       0.000000000000
176       0.000000000000
177       0.000000000000
178       1.000000000000
